
     Program PWSCF v.7.5 starts on 22Sep2026 at 21:37:31 

     This program is part of the open-source Quantum ESPRESSO suite
     for quantum simulation of materials; please cite
         "P. Giannozzi et al., J. Phys.:Condens. Matter 21 395502 (2009);
         "P. Giannozzi et al., J. Phys.:Condens. Matter 29 465901 (2017);
         "P. Giannozzi et al., J. Chem. Phys. 152 154105 (2020);
          URL http://www.quantum-espresso.org", 
     in publications or presentations arising from this work. More details at
     http://www.quantum-espresso.org/quote

     Parallel version (MPI), running on     8 processors

     MPI processes distributed on     1 nodes
     11103 MiB available memory on the printing compute node when the environment starts
 
     Reading input from al.scf.in

     Current dimensions of program PWSCF are:
     Max number of different atomic species (ntypx) = 10
     Max number of k-points (npk) =  40000
     Max angular momentum in pseudopotentials (lmaxx) =  4
     Message from routine setup:
     using ibrav=0 with symmetry is DISCOURAGED, use correct ibrav instead
 
     R & G space division:  proc/nbgrp/npool/nimage =       8
     Subspace diagonalization in iterative solution of the eigenvalue problem:
     a serial algorithm will be used

 
     Parallelization info
     --------------------
     sticks:   dense  smooth     PW     G-vecs:    dense   smooth      PW
     Min         154     154     45                 3570     3570     570
     Max         155     155     46                 3573     3573     573
     Sum        1237    1237    361                28571    28571    4573
 
     Using Slab Decomposition
 


     bravais-lattice index     =            0
     lattice parameter (alat)  =      10.5725  a.u.
     unit-cell volume          =     835.6372 (a.u.)^3
     number of atoms/cell      =            8
     number of atomic types    =            1
     number of electrons       =        24.00
     number of Kohn-Sham states=           18
     kinetic-energy cutoff     =      40.0000  Ry
     charge density cutoff     =     160.0000  Ry
     scf convergence threshold =      1.0E-12
     mixing beta               =       0.7000
     number of iterations used =            8  plain     mixing
     Exchange-correlation= SLA  PZ   NOGX NOGC
                           (   1   1   0   0   0   0   0)

     celldm(1)=  10.572497  celldm(2)=   0.000000  celldm(3)=   0.000000
     celldm(4)=   0.000000  celldm(5)=   0.000000  celldm(6)=   0.000000

     crystal axes: (cart. coord. in units of alat)
               a(1) = (  -0.707107   0.000000   0.707107 )  
               a(2) = (   0.000000   0.707107   0.707107 )  
               a(3) = (  -0.707107   0.707107   0.000000 )  

     reciprocal axes: (cart. coord. in units 2 pi/alat)
               b(1) = ( -0.707107 -0.707107  0.707107 )  
               b(2) = (  0.707107  0.707107  0.707107 )  
               b(3) = ( -0.707107  0.707107 -0.707107 )  


     PseudoPot. # 1 for Al read from file:
     <工作目录>/pseudo/Al.pz-vbc.UPF
     MD5 check sum: f06ceae8da0fe5c02c98e3688433298c
     Pseudo is Norm-conserving, Zval =  3.0
     Generated by new atomic code, or converted to UPF format
     Using radial grid of  171 points,  2 beta functions with: 
                l(1) =   0
                l(2) =   1

     atomic species   valence    mass     pseudopotential
     Al                3.00    26.98154     Al( 1.00)

      4 Sym. Ops. (no inversion) found


                                    s                        frac. trans.

      isym =  1     identity                                     

 cryst.   s( 1) = (     1          0          0      )
                  (     0          1          0      )
                  (     0          0          1      )

 cart.    s( 1) = (  1.0000000  0.0000000  0.0000000 )
                  (  0.0000000  1.0000000  0.0000000 )
                  (  0.0000000  0.0000000  1.0000000 )


      isym =  2     180 deg rotation - cart. axis [-1,0,1]       

 cryst.   s( 2) = (     1          0          0      )
                  (     1         -1          0      )
                  (     1          0         -1      )

 cart.    s( 2) = (  0.0000000  0.0000000 -1.0000000 )
                  (  0.0000000 -1.0000000  0.0000000 )
                  ( -1.0000000  0.0000000  0.0000000 )


      isym =  3     inv. 180 deg rotation - cart. axis [0,1,0]   

 cryst.   s( 3) = (     1          0          0      )
                  (     1          0         -1      )
                  (     1         -1          0      )

 cart.    s( 3) = (  1.0000000  0.0000000  0.0000000 )
                  (  0.0000000 -1.0000000  0.0000000 )
                  (  0.0000000  0.0000000  1.0000000 )


      isym =  4     inv. 180 deg rotation - cart. axis [1,0,1]   

 cryst.   s( 4) = (     1          0          0      )
                  (     0          0          1      )
                  (     0          1          0      )

 cart.    s( 4) = (  0.0000000  0.0000000 -1.0000000 )
                  (  0.0000000  1.0000000  0.0000000 )
                  ( -1.0000000  0.0000000  0.0000000 )


   Cartesian axes

     site n.     atom                  positions (alat units)
         1        Al     tau(   1) = (   0.0025278   0.0000000  -0.0025278  )
         2        Al     tau(   2) = (  -0.3535534   0.0000000   0.3535534  )
         3        Al     tau(   3) = (   0.0000000   0.3535534   0.3535534  )
         4        Al     tau(   4) = (  -0.3535534   0.3535534   0.7071068  )
         5        Al     tau(   5) = (  -0.3535534   0.3535534   0.0000000  )
         6        Al     tau(   6) = (  -0.7071068   0.3535534   0.3535534  )
         7        Al     tau(   7) = (  -0.3535534   0.7071068   0.3535534  )
         8        Al     tau(   8) = (  -0.7071068   0.7071068   0.7071068  )

   Crystallographic axes

     site n.     atom                  positions (cryst. coord.)
         1        Al     tau(   1) = ( -0.0035748  0.0000000  0.0000000  )
         2        Al     tau(   2) = (  0.5000000  0.0000000  0.0000000  )
         3        Al     tau(   3) = (  0.0000000  0.5000000  0.0000000  )
         4        Al     tau(   4) = (  0.5000000  0.5000000  0.0000000  )
         5        Al     tau(   5) = (  0.0000000  0.0000000  0.5000000  )
         6        Al     tau(   6) = (  0.5000000  0.0000000  0.5000000  )
         7        Al     tau(   7) = (  0.0000000  0.5000000  0.5000000  )
         8        Al     tau(   8) = (  0.5000000  0.5000000  0.5000000  )

     number of k points=    95  Marzari-Vanderbilt smearing, width (Ry)=  0.0200
                       cart. coord. in units 2pi/alat
        k(    1) = (   0.0000000   0.0000000   0.0000000), wk =   0.0039062
        k(    2) = (  -0.0883883   0.0883883  -0.0883883), wk =   0.0156250
        k(    3) = (  -0.1767767   0.1767767  -0.1767767), wk =   0.0156250
        k(    4) = (  -0.2651650   0.2651650  -0.2651650), wk =   0.0156250
        k(    5) = (   0.3535534  -0.3535534   0.3535534), wk =   0.0078125
        k(    6) = (   0.0000000   0.1767767   0.0000000), wk =   0.0078125
        k(    7) = (  -0.0883883   0.2651650  -0.0883883), wk =   0.0156250
        k(    8) = (  -0.1767767   0.3535534  -0.1767767), wk =   0.0156250
        k(    9) = (   0.4419417  -0.2651650   0.4419417), wk =   0.0156250
        k(   10) = (   0.3535534  -0.1767767   0.3535534), wk =   0.0156250
        k(   11) = (   0.2651650  -0.0883883   0.2651650), wk =   0.0156250
        k(   12) = (   0.1767767   0.0000000   0.1767767), wk =   0.0078125
        k(   13) = (   0.0000000   0.3535534   0.0000000), wk =   0.0078125
        k(   14) = (  -0.0883883   0.4419417  -0.0883883), wk =   0.0156250
        k(   15) = (   0.5303301  -0.1767767   0.5303301), wk =   0.0156250
        k(   16) = (   0.4419417  -0.0883883   0.4419417), wk =   0.0156250
        k(   17) = (   0.3535534   0.0000000   0.3535534), wk =   0.0078125
        k(   18) = (   0.0000000   0.5303301   0.0000000), wk =   0.0078125
        k(   19) = (   0.6187184  -0.0883883   0.6187184), wk =   0.0156250
        k(   20) = (   0.5303301   0.0000000   0.5303301), wk =   0.0078125
        k(   21) = (   0.0000000  -0.7071068   0.0000000), wk =   0.0039062
        k(   22) = (  -0.1767767   0.3535534   0.0000000), wk =   0.0312500
        k(   23) = (   0.4419417  -0.2651650   0.6187184), wk =   0.0312500
        k(   24) = (   0.3535534  -0.1767767   0.5303301), wk =   0.0312500
        k(   25) = (   0.5303301  -0.1767767   0.7071068), wk =   0.0312500
        k(   26) = (   0.4419417  -0.0883883   0.6187184), wk =   0.0312500
        k(   27) = (   0.3535534   0.0000000   0.5303301), wk =   0.0156250
        k(   28) = (  -0.1767767  -0.7071068   0.0000000), wk =   0.0156250
        k(   29) = (  -0.3535534  -0.7071068   0.0000000), wk =   0.0156250
        k(   30) = (  -0.0883883   0.0883883   0.0883883), wk =   0.0156250
        k(   31) = (  -0.1767767   0.1767767   0.1767767), wk =   0.0156250
        k(   32) = (  -0.2651650   0.2651650   0.2651650), wk =   0.0156250
        k(   33) = (   0.3535534  -0.3535534  -0.3535534), wk =   0.0078125
        k(   34) = (   0.1767767   0.0000000   0.0000000), wk =   0.0156250
        k(   35) = (   0.2651650  -0.0883883   0.0883883), wk =   0.0312500
        k(   36) = (  -0.2651650   0.0883883   0.0883883), wk =   0.0312500
        k(   37) = (   0.0883883  -0.2651650  -0.0883883), wk =   0.0156250
        k(   38) = (   0.3535534  -0.1767767   0.1767767), wk =   0.0312500
        k(   39) = (  -0.3535534   0.1767767   0.1767767), wk =   0.0312500
        k(   40) = (   0.1767767  -0.3535534  -0.1767767), wk =   0.0156250
        k(   41) = (  -0.2651650   0.4419417  -0.4419417), wk =   0.0312500
        k(   42) = (   0.2651650  -0.4419417  -0.4419417), wk =   0.0312500
        k(   43) = (  -0.4419417   0.2651650   0.4419417), wk =   0.0156250
        k(   44) = (  -0.1767767   0.3535534  -0.3535534), wk =   0.0312500
        k(   45) = (   0.1767767  -0.3535534  -0.3535534), wk =   0.0312500
        k(   46) = (  -0.3535534   0.1767767   0.3535534), wk =   0.0156250
        k(   47) = (  -0.0883883   0.2651650  -0.2651650), wk =   0.0312500
        k(   48) = (   0.0883883  -0.2651650  -0.2651650), wk =   0.0312500
        k(   49) = (  -0.2651650   0.0883883   0.2651650), wk =   0.0156250
        k(   50) = (   0.0000000   0.1767767  -0.1767767), wk =   0.0312500
        k(   51) = (  -0.1767767   0.0000000   0.1767767), wk =   0.0078125
        k(   52) = (   0.3535534   0.0000000   0.0000000), wk =   0.0156250
        k(   53) = (   0.4419417  -0.0883883   0.0883883), wk =   0.0312500
        k(   54) = (  -0.4419417   0.0883883   0.0883883), wk =   0.0312500
        k(   55) = (   0.0883883  -0.4419417  -0.0883883), wk =   0.0156250
        k(   56) = (  -0.1767767   0.5303301  -0.5303301), wk =   0.0312500
        k(   57) = (   0.1767767  -0.5303301  -0.5303301), wk =   0.0312500
        k(   58) = (  -0.5303301   0.1767767   0.5303301), wk =   0.0156250
        k(   59) = (  -0.0883883   0.4419417  -0.4419417), wk =   0.0312500
        k(   60) = (   0.0883883  -0.4419417  -0.4419417), wk =   0.0312500
        k(   61) = (  -0.4419417   0.0883883   0.4419417), wk =   0.0156250
        k(   62) = (   0.0000000   0.3535534  -0.3535534), wk =   0.0312500
        k(   63) = (  -0.3535534   0.0000000   0.3535534), wk =   0.0078125
        k(   64) = (   0.5303301   0.0000000   0.0000000), wk =   0.0156250
        k(   65) = (  -0.0883883   0.6187184  -0.6187184), wk =   0.0312500
        k(   66) = (   0.0883883  -0.6187184  -0.6187184), wk =   0.0312500
        k(   67) = (  -0.6187184   0.0883883   0.6187184), wk =   0.0156250
        k(   68) = (   0.0000000   0.5303301  -0.5303301), wk =   0.0312500
        k(   69) = (  -0.5303301   0.0000000   0.5303301), wk =   0.0078125
        k(   70) = (  -0.7071068   0.0000000   0.0000000), wk =   0.0078125
        k(   71) = (   0.3535534  -0.1767767   0.0000000), wk =   0.0312500
        k(   72) = (   0.1767767   0.0000000   0.3535534), wk =   0.0156250
        k(   73) = (   0.1767767   0.0000000  -0.3535534), wk =   0.0156250
        k(   74) = (  -0.2651650   0.4419417  -0.6187184), wk =   0.0312500
        k(   75) = (   0.2651650  -0.4419417  -0.6187184), wk =   0.0312500
        k(   76) = (  -0.4419417   0.2651650   0.6187184), wk =   0.0312500
        k(   77) = (  -0.4419417   0.6187184  -0.2651650), wk =   0.0312500
        k(   78) = (  -0.4419417  -0.6187184   0.2651650), wk =   0.0312500
        k(   79) = (  -0.1767767   0.3535534  -0.5303301), wk =   0.0156250
        k(   80) = (   0.1767767  -0.3535534  -0.5303301), wk =   0.0156250
        k(   81) = (  -0.3535534   0.1767767   0.5303301), wk =   0.0312500
        k(   82) = (  -0.1767767   0.5303301  -0.7071068), wk =   0.0312500
        k(   83) = (  -0.5303301   0.7071068  -0.1767767), wk =   0.0156250
        k(   84) = (  -0.5303301  -0.7071068   0.1767767), wk =   0.0156250
        k(   85) = (  -0.0883883   0.4419417  -0.6187184), wk =   0.0312500
        k(   86) = (   0.0883883  -0.4419417  -0.6187184), wk =   0.0312500
        k(   87) = (  -0.4419417   0.0883883   0.6187184), wk =   0.0312500
        k(   88) = (  -0.4419417   0.6187184  -0.0883883), wk =   0.0312500
        k(   89) = (  -0.4419417  -0.6187184   0.0883883), wk =   0.0312500
        k(   90) = (   0.0000000   0.3535534  -0.5303301), wk =   0.0312500
        k(   91) = (  -0.3535534   0.0000000   0.5303301), wk =   0.0156250
        k(   92) = (  -0.3535534   0.5303301   0.0000000), wk =   0.0312500
        k(   93) = (  -0.7071068  -0.1767767   0.0000000), wk =   0.0156250
        k(   94) = (   0.1767767   0.0000000  -0.7071068), wk =   0.0156250
        k(   95) = (  -0.7071068  -0.3535534   0.0000000), wk =   0.0078125

                       cryst. coord.
        k(    1) = (   0.0000000   0.0000000   0.0000000), wk =   0.0039062
        k(    2) = (   0.0000000   0.0000000   0.1250000), wk =   0.0156250
        k(    3) = (   0.0000000   0.0000000   0.2500000), wk =   0.0156250
        k(    4) = (   0.0000000   0.0000000   0.3750000), wk =   0.0156250
        k(    5) = (   0.0000000   0.0000000  -0.5000000), wk =   0.0078125
        k(    6) = (   0.0000000   0.1250000   0.1250000), wk =   0.0078125
        k(    7) = (   0.0000000   0.1250000   0.2500000), wk =   0.0156250
        k(    8) = (   0.0000000   0.1250000   0.3750000), wk =   0.0156250
        k(    9) = (   0.0000000   0.1250000  -0.5000000), wk =   0.0156250
        k(   10) = (   0.0000000   0.1250000  -0.3750000), wk =   0.0156250
        k(   11) = (   0.0000000   0.1250000  -0.2500000), wk =   0.0156250
        k(   12) = (   0.0000000   0.1250000  -0.1250000), wk =   0.0078125
        k(   13) = (   0.0000000   0.2500000   0.2500000), wk =   0.0078125
        k(   14) = (   0.0000000   0.2500000   0.3750000), wk =   0.0156250
        k(   15) = (   0.0000000   0.2500000  -0.5000000), wk =   0.0156250
        k(   16) = (   0.0000000   0.2500000  -0.3750000), wk =   0.0156250
        k(   17) = (   0.0000000   0.2500000  -0.2500000), wk =   0.0078125
        k(   18) = (   0.0000000   0.3750000   0.3750000), wk =   0.0078125
        k(   19) = (   0.0000000   0.3750000  -0.5000000), wk =   0.0156250
        k(   20) = (   0.0000000   0.3750000  -0.3750000), wk =   0.0078125
        k(   21) = (   0.0000000  -0.5000000  -0.5000000), wk =   0.0039062
        k(   22) = (   0.1250000   0.2500000   0.3750000), wk =   0.0312500
        k(   23) = (   0.1250000   0.2500000  -0.5000000), wk =   0.0312500
        k(   24) = (   0.1250000   0.2500000  -0.3750000), wk =   0.0312500
        k(   25) = (   0.1250000   0.3750000  -0.5000000), wk =   0.0312500
        k(   26) = (   0.1250000   0.3750000  -0.3750000), wk =   0.0312500
        k(   27) = (   0.1250000   0.3750000  -0.2500000), wk =   0.0156250
        k(   28) = (   0.1250000  -0.5000000  -0.3750000), wk =   0.0156250
        k(   29) = (   0.2500000  -0.5000000  -0.2500000), wk =   0.0156250
        k(   30) = (   0.1250000   0.1250000   0.1250000), wk =   0.0156250
        k(   31) = (   0.2500000   0.2500000   0.2500000), wk =   0.0156250
        k(   32) = (   0.3750000   0.3750000   0.3750000), wk =   0.0156250
        k(   33) = (  -0.5000000  -0.5000000  -0.5000000), wk =   0.0078125
        k(   34) = (  -0.1250000   0.0000000  -0.1250000), wk =   0.0156250
        k(   35) = (  -0.1250000   0.0000000  -0.2500000), wk =   0.0312500
        k(   36) = (   0.2500000   0.1250000   0.2500000), wk =   0.0312500
        k(   37) = (  -0.1250000  -0.2500000  -0.2500000), wk =   0.0156250
        k(   38) = (  -0.1250000   0.0000000  -0.3750000), wk =   0.0312500
        k(   39) = (   0.3750000   0.2500000   0.3750000), wk =   0.0312500
        k(   40) = (  -0.2500000  -0.3750000  -0.3750000), wk =   0.0156250
        k(   41) = (  -0.1250000   0.0000000   0.5000000), wk =   0.0312500
        k(   42) = (  -0.5000000  -0.6250000  -0.5000000), wk =   0.0312500
        k(   43) = (   0.6250000   0.5000000   0.5000000), wk =   0.0156250
        k(   44) = (  -0.1250000   0.0000000   0.3750000), wk =   0.0312500
        k(   45) = (  -0.3750000  -0.5000000  -0.3750000), wk =   0.0312500
        k(   46) = (   0.5000000   0.3750000   0.3750000), wk =   0.0156250
        k(   47) = (  -0.1250000   0.0000000   0.2500000), wk =   0.0312500
        k(   48) = (  -0.2500000  -0.3750000  -0.2500000), wk =   0.0312500
        k(   49) = (   0.3750000   0.2500000   0.2500000), wk =   0.0156250
        k(   50) = (  -0.1250000   0.0000000   0.1250000), wk =   0.0312500
        k(   51) = (   0.2500000   0.1250000   0.1250000), wk =   0.0078125
        k(   52) = (  -0.2500000   0.0000000  -0.2500000), wk =   0.0156250
        k(   53) = (  -0.2500000   0.0000000  -0.3750000), wk =   0.0312500
        k(   54) = (   0.3750000   0.1250000   0.3750000), wk =   0.0312500
        k(   55) = (  -0.1250000  -0.3750000  -0.3750000), wk =   0.0156250
        k(   56) = (  -0.2500000   0.0000000   0.5000000), wk =   0.0312500
        k(   57) = (  -0.5000000  -0.7500000  -0.5000000), wk =   0.0312500
        k(   58) = (   0.7500000   0.5000000   0.5000000), wk =   0.0156250
        k(   59) = (  -0.2500000   0.0000000   0.3750000), wk =   0.0312500
        k(   60) = (  -0.3750000  -0.6250000  -0.3750000), wk =   0.0312500
        k(   61) = (   0.6250000   0.3750000   0.3750000), wk =   0.0156250
        k(   62) = (  -0.2500000   0.0000000   0.2500000), wk =   0.0312500
        k(   63) = (   0.5000000   0.2500000   0.2500000), wk =   0.0078125
        k(   64) = (  -0.3750000   0.0000000  -0.3750000), wk =   0.0156250
        k(   65) = (  -0.3750000   0.0000000   0.5000000), wk =   0.0312500
        k(   66) = (  -0.5000000  -0.8750000  -0.5000000), wk =   0.0312500
        k(   67) = (   0.8750000   0.5000000   0.5000000), wk =   0.0156250
        k(   68) = (  -0.3750000   0.0000000   0.3750000), wk =   0.0312500
        k(   69) = (   0.7500000   0.3750000   0.3750000), wk =   0.0078125
        k(   70) = (   0.5000000   0.0000000   0.5000000), wk =   0.0078125
        k(   71) = (  -0.2500000  -0.1250000  -0.3750000), wk =   0.0312500
        k(   72) = (   0.1250000   0.2500000  -0.1250000), wk =   0.0156250
        k(   73) = (  -0.3750000  -0.2500000  -0.1250000), wk =   0.0156250
        k(   74) = (  -0.2500000  -0.1250000   0.5000000), wk =   0.0312500
        k(   75) = (  -0.6250000  -0.7500000  -0.5000000), wk =   0.0312500
        k(   76) = (   0.7500000   0.6250000   0.5000000), wk =   0.0312500
        k(   77) = (   0.1250000   0.2500000   0.7500000), wk =   0.0312500
        k(   78) = (   0.5000000  -0.2500000  -0.1250000), wk =   0.0312500
        k(   79) = (  -0.2500000  -0.1250000   0.3750000), wk =   0.0156250
        k(   80) = (  -0.5000000  -0.6250000  -0.3750000), wk =   0.0156250
        k(   81) = (   0.6250000   0.5000000   0.3750000), wk =   0.0312500
        k(   82) = (  -0.3750000  -0.1250000   0.5000000), wk =   0.0312500
        k(   83) = (   0.2500000   0.3750000   0.8750000), wk =   0.0156250
        k(   84) = (   0.5000000  -0.3750000  -0.1250000), wk =   0.0156250
        k(   85) = (  -0.3750000  -0.1250000   0.3750000), wk =   0.0312500
        k(   86) = (  -0.5000000  -0.7500000  -0.3750000), wk =   0.0312500
        k(   87) = (   0.7500000   0.5000000   0.3750000), wk =   0.0312500
        k(   88) = (   0.2500000   0.3750000   0.7500000), wk =   0.0312500
        k(   89) = (   0.3750000  -0.3750000  -0.1250000), wk =   0.0312500
        k(   90) = (  -0.3750000  -0.1250000   0.2500000), wk =   0.0312500
        k(   91) = (   0.6250000   0.3750000   0.2500000), wk =   0.0156250
        k(   92) = (   0.2500000   0.3750000   0.6250000), wk =   0.0312500
        k(   93) = (   0.5000000  -0.1250000   0.3750000), wk =   0.0156250
        k(   94) = (  -0.6250000  -0.5000000  -0.1250000), wk =   0.0156250
        k(   95) = (   0.5000000  -0.2500000   0.2500000), wk =   0.0078125

     Dense  grid:    28571 G-vectors     FFT dimensions: (  45,  45,  45)

     Dynamical RAM for                 wfc:       0.12 MB

     Dynamical RAM for     wfc (w. buffer):      11.76 MB

     Dynamical RAM for           str. fact:       0.05 MB

     Dynamical RAM for           local pot:       0.00 MB

     Dynamical RAM for          nlocal pot:       0.22 MB

     Dynamical RAM for                qrad:       0.09 MB

     Dynamical RAM for          rho,v,vnew:       0.44 MB

     Dynamical RAM for               rhoin:       0.15 MB

     Dynamical RAM for            rho*nmix:       0.87 MB

     Dynamical RAM for           G-vectors:       0.23 MB

     Dynamical RAM for          h,s,v(r/c):       0.06 MB

     Dynamical RAM for          <psi|beta>:       0.01 MB

     Dynamical RAM for                 psi:       0.24 MB

     Dynamical RAM for                hpsi:       0.24 MB

     Dynamical RAM for      wfcinit/wfcrot:       0.25 MB

     Estimated static dynamical RAM per process >      13.51 MB

     Estimated max dynamical RAM per process >      14.94 MB

     Estimated total dynamical RAM >     119.54 MB

     Initial potential from superposition of free atoms

     starting charge      23.9835, renormalised to      24.0000

     negative rho (up, down):  1.093E-04 0.000E+00
     Starting wfcs are   32 randomized atomic wfcs

     total cpu time spent up to now is        1.1 secs

     Self-consistent Calculation

     iteration #  1     ecut=    40.00 Ry     beta= 0.70
     Davidson diagonalization with overlap

---- Real-time Memory Report at c_bands before calling an iterative solver
            68 MiB given to the printing process from OS
             0 MiB allocation reported by mallinfo(arena+hblkhd)
         10921 MiB available memory on the node where the printing process lives
------------------
     ethr =  1.00E-02,  avg # of iterations =  3.7

     Threshold (ethr) on eigenvalues was too large:
     Diagonalizing with lowered threshold

     Davidson diagonalization with overlap

---- Real-time Memory Report at c_bands before calling an iterative solver
            71 MiB given to the printing process from OS
             0 MiB allocation reported by mallinfo(arena+hblkhd)
         10919 MiB available memory on the node where the printing process lives
------------------
     ethr =  1.73E-04,  avg # of iterations =  4.3

     negative rho (up, down):  7.631E-06 0.000E+00

     total cpu time spent up to now is        5.3 secs

     total energy              =     -33.52659667 Ry
     estimated scf accuracy    <       0.04560548 Ry

     iteration #  2     ecut=    40.00 Ry     beta= 0.70
     Davidson diagonalization with overlap

---- Real-time Memory Report at c_bands before calling an iterative solver
            71 MiB given to the printing process from OS
             0 MiB allocation reported by mallinfo(arena+hblkhd)
         10920 MiB available memory on the node where the printing process lives
------------------
     ethr =  1.90E-04,  avg # of iterations =  1.0

     total cpu time spent up to now is        6.7 secs

     total energy              =     -33.52697702 Ry
     estimated scf accuracy    <       0.00358753 Ry

     iteration #  3     ecut=    40.00 Ry     beta= 0.70
     Davidson diagonalization with overlap

---- Real-time Memory Report at c_bands before calling an iterative solver
            72 MiB given to the printing process from OS
             0 MiB allocation reported by mallinfo(arena+hblkhd)
         10908 MiB available memory on the node where the printing process lives
------------------
     ethr =  1.49E-05,  avg # of iterations =  2.3

     total cpu time spent up to now is        8.2 secs

     total energy              =     -33.52702352 Ry
     estimated scf accuracy    <       0.00005651 Ry

     iteration #  4     ecut=    40.00 Ry     beta= 0.70
     Davidson diagonalization with overlap

---- Real-time Memory Report at c_bands before calling an iterative solver
            72 MiB given to the printing process from OS
             0 MiB allocation reported by mallinfo(arena+hblkhd)
         10914 MiB available memory on the node where the printing process lives
------------------
     c_bands:  1 eigenvalues not converged
     ethr =  2.35E-07,  avg # of iterations =  3.8

     total cpu time spent up to now is       10.1 secs

     total energy              =     -33.52704168 Ry
     estimated scf accuracy    <       0.00000221 Ry

     iteration #  5     ecut=    40.00 Ry     beta= 0.70
     Davidson diagonalization with overlap

---- Real-time Memory Report at c_bands before calling an iterative solver
            72 MiB given to the printing process from OS
             0 MiB allocation reported by mallinfo(arena+hblkhd)
         10918 MiB available memory on the node where the printing process lives
------------------
     ethr =  9.19E-09,  avg # of iterations =  3.0

     total cpu time spent up to now is       11.8 secs

     total energy              =     -33.52704226 Ry
     estimated scf accuracy    <       0.00000012 Ry

     iteration #  6     ecut=    40.00 Ry     beta= 0.70
     Davidson diagonalization with overlap

---- Real-time Memory Report at c_bands before calling an iterative solver
            72 MiB given to the printing process from OS
             0 MiB allocation reported by mallinfo(arena+hblkhd)
         10921 MiB available memory on the node where the printing process lives
------------------
     ethr =  4.92E-10,  avg # of iterations =  2.6

     total cpu time spent up to now is       13.5 secs

     total energy              =     -33.52704230 Ry
     estimated scf accuracy    <          3.2E-09 Ry

     iteration #  7     ecut=    40.00 Ry     beta= 0.70
     Davidson diagonalization with overlap

---- Real-time Memory Report at c_bands before calling an iterative solver
            73 MiB given to the printing process from OS
             0 MiB allocation reported by mallinfo(arena+hblkhd)
         10920 MiB available memory on the node where the printing process lives
------------------
     ethr =  1.34E-11,  avg # of iterations =  3.2

     total cpu time spent up to now is       15.3 secs

     total energy              =     -33.52704230 Ry
     estimated scf accuracy    <          9.2E-11 Ry

     iteration #  8     ecut=    40.00 Ry     beta= 0.70
     Davidson diagonalization with overlap

---- Real-time Memory Report at c_bands before calling an iterative solver
            73 MiB given to the printing process from OS
             0 MiB allocation reported by mallinfo(arena+hblkhd)
         10921 MiB available memory on the node where the printing process lives
------------------
     ethr =  3.85E-13,  avg # of iterations =  3.2

     total cpu time spent up to now is       17.2 secs

     total energy              =     -33.52704230 Ry
     estimated scf accuracy    <          1.8E-11 Ry

     iteration #  9     ecut=    40.00 Ry     beta= 0.70
     Davidson diagonalization with overlap

---- Real-time Memory Report at c_bands before calling an iterative solver
            73 MiB given to the printing process from OS
             0 MiB allocation reported by mallinfo(arena+hblkhd)
         10922 MiB available memory on the node where the printing process lives
------------------
     ethr =  1.00E-13,  avg # of iterations =  1.8

     total cpu time spent up to now is       18.7 secs

     total energy              =     -33.52704230 Ry
     estimated scf accuracy    <          1.6E-12 Ry

     iteration # 10     ecut=    40.00 Ry     beta= 0.70
     Davidson diagonalization with overlap

---- Real-time Memory Report at c_bands before calling an iterative solver
            73 MiB given to the printing process from OS
             0 MiB allocation reported by mallinfo(arena+hblkhd)
         11057 MiB available memory on the node where the printing process lives
------------------
     ethr =  1.00E-13,  avg # of iterations =  1.0

     total cpu time spent up to now is       20.0 secs

     End of self-consistent calculation

          k = 0.0000 0.0000 0.0000 (  3527 PWs)   bands (ev):

    -3.1667   3.6419   3.6438   3.6445   3.6447   3.8943   3.8943   3.8949
     3.8967   5.3930   5.3931   5.3931   6.7305   6.7305   6.7307  13.5712
    13.5715  14.1789

     occupation numbers 
     1.0000   1.0000   1.0000   1.0000   1.0000   1.0000   1.0000   1.0000
     1.0000   1.0000   1.0000   1.0000   1.0000   1.0000   1.0000   0.0000
     0.0000   0.0000

          k =-0.0884 0.0884-0.0884 (  3593 PWs)   bands (ev):

    -3.0545   2.1794   3.2919   3.2986   3.3054   4.4395   4.4462   4.4530
     4.8582   4.8641   4.8700   5.5448   7.4494   7.4556   7.4621  12.2491
    12.2583  12.2675

     occupation numbers 
     1.0000   1.0000   1.0000   1.0000   1.0000   1.0000   1.0000   1.0000
     1.0000   1.0000   1.0000   1.0000   1.0001   1.0001   1.0001   0.0000
     0.0000   0.0000

          k =-0.1768 0.1768-0.1768 (  3590 PWs)   bands (ev):

    -2.7190   0.7895   3.0505   3.0574   3.0643   4.1353   4.1418   4.1484
     5.2973   5.3042   5.3112   7.4914   8.7428   8.7510   8.7594  10.6363
    10.6430  10.6499

     occupation numbers 
     1.0000   1.0000   1.0000   1.0000   1.0000   1.0000   1.0000   1.0000
     1.0000   1.0000   1.0000   1.0002   0.0132   0.0117   0.0103   0.0000
     0.0000   0.0000

          k =-0.2652 0.2652-0.2652 (  3591 PWs)   bands (ev):

    -2.1624  -0.4025   3.0147   3.0216   3.0285   3.5645   3.5712   3.5780
     6.3538   6.3610   6.3682   8.9700   8.9798   8.9895   9.6105  10.4127
    10.4176  10.4228

     occupation numbers 
     1.0000   1.0000   1.0000   1.0000   1.0000   1.0000   1.0000   1.0000
     1.0000   1.0000   1.0000   0.0002   0.0002   0.0002   0.0000   0.0000
     0.0000   0.0000

          k = 0.3536-0.3536 0.3536 (  3582 PWs)   bands (ev):

    -1.3886  -1.3884   3.1732   3.1810   3.1941   3.1941   3.2071   3.2150
     7.5888   7.5952   7.6008   7.6009   7.6065   7.6129  11.8909  11.8911
    12.1334  12.1384

     occupation numbers 
     1.0000   1.0000   1.0000   1.0000   1.0000   1.0000   1.0000   1.0000
     1.0013   1.0015   1.0016   1.0016   1.0018   1.0020   0.0000   0.0000
     0.0000   0.0000

          k = 0.0000 0.1768 0.0000 (  3591 PWs)   bands (ev):

    -3.0171   2.7583   2.7781   2.7782   2.7977   3.8665   5.0080   5.0283
     5.0284   5.0482   5.5235   5.5240   6.8719   6.8719   8.4994  11.8477
    11.8481  13.3354

     occupation numbers 
     1.0000   1.0000   1.0000   1.0000   1.0000   1.0000   1.0000   1.0000
     1.0000   1.0000   1.0000   1.0000   1.0000   1.0000   0.2120   0.0000
     0.0000   0.0000

          k =-0.0884 0.2652-0.0884 (  3578 PWs)   bands (ev):

    -2.7561   1.3265   2.4559   2.4673   3.0141   3.5758   4.7230   5.1287
     5.1382   5.8112   5.8229   6.9116   7.7184   7.7293   9.7874  10.5065
    10.5150  12.5298

     occupation numbers 
     1.0000   1.0000   1.0000   1.0000   1.0000   1.0000   1.0000   1.0000
     1.0000   1.0000   1.0000   1.0000   1.0088   1.0101   0.0000   0.0000
     0.0000   0.0000

          k =-0.1768 0.3536-0.1768 (  3566 PWs)   bands (ev):

    -2.2734   0.0688   2.3368   2.3551   2.3710   4.4406   4.5476   4.5582
     4.7572   6.7950   6.8072   8.7298   8.7495   8.9704   9.3763   9.3782
    10.8683  11.4421

     occupation numbers 
     1.0000   1.0000   1.0000   1.0000   1.0000   1.0000   1.0000   1.0000
     1.0000   1.0000   1.0000   0.0159   0.0120   0.0002   0.0000   0.0000
     0.0000   0.0000

          k = 0.4419-0.2652 0.4419 (  3569 PWs)   bands (ev):

    -1.5721  -0.9855   1.8939   2.4546   2.4660   4.1184   4.1293   4.6630
     5.8267   7.4135   7.4260   7.9611   7.9743   9.5539  10.9112  10.9208
    11.1925  11.4638

     occupation numbers 
     1.0000   1.0000   1.0000   1.0000   1.0000   1.0000   1.0000   1.0000
     1.0000   1.0000   1.0001   1.0722   1.0758   0.0000   0.0000   0.0000
     0.0000   0.0000

          k = 0.3536-0.1768 0.3536 (  3572 PWs)   bands (ev):

    -1.8299  -0.6571   1.6465   2.7686   2.7798   3.8821   3.8931   4.9594
     6.1153   6.1268   7.1818   8.2823   9.2799   9.2955   9.6650  10.4362
    11.7122  11.7259

     occupation numbers 
     1.0000   1.0000   1.0000   1.0000   1.0000   1.0000   1.0000   1.0000
     1.0000   1.0000   1.0000   0.7511   0.0000   0.0000   0.0000   0.0000
     0.0000   0.0000

          k = 0.2652-0.0884 0.2652 (  3568 PWs)   bands (ev):

    -2.4588   0.4658   1.6114   3.2874   3.2984   3.8447   3.8555   4.9966
     5.0076   5.4011   7.1798   7.9236   8.2663   8.8915   9.9925  10.0096
    10.8100  10.8240

     occupation numbers 
     1.0000   1.0000   1.0000   1.0000   1.0000   1.0000   1.0000   1.0000
     1.0000   1.0000   1.0000   1.0601   0.7920   0.0011   0.0000   0.0000
     0.0000   0.0000

          k = 0.1768 0.0000 0.1768 (  3589 PWs)   bands (ev):

    -2.8679   1.7893   1.7896   3.9100   3.9103   3.9989   4.0096   4.1843
     4.1847   5.6539   6.2640   6.2641   7.0094   8.6245   8.6370  10.4970
    11.9709  11.9940

     occupation numbers 
     1.0000   1.0000   1.0000   1.0000   1.0000   1.0000   1.0000   1.0000
     1.0000   1.0000   1.0000   1.0000   1.0000   0.0614   0.0531   0.0000
     0.0000   0.0000

          k = 0.0000 0.3536 0.0000 (  3591 PWs)   bands (ev):

    -2.5702   2.0470   2.0710   2.0732   2.0733   2.0980   5.9144   5.9151
     6.5100   6.5302   6.5305   6.5513   7.2876   7.2877  10.1275  10.1278
    11.0244  11.8814

     occupation numbers 
     1.0000   1.0000   1.0000   1.0000   1.0000   1.0000   1.0000   1.0000
     1.0000   1.0000   1.0000   1.0000   1.0000   1.0000   0.0000   0.0000
     0.0000   0.0000

          k =-0.0884 0.4419-0.0884 (  3564 PWs)   bands (ev):

    -2.1622   0.7535   1.3250   1.8903   1.9019   3.0237   5.6643   5.6739
     6.3478   7.4280   7.4408   8.1915   8.2069   8.5184   8.9875   8.9898
    11.7293  11.7375

     occupation numbers 
     1.0000   1.0000   1.0000   1.0000   1.0000   1.0000   1.0000   1.0000
     1.0000   1.0001   1.0001   0.9531   0.9249   0.1801   0.0002   0.0002
     0.0000   0.0000

          k = 0.5303-0.1768 0.5303 (  3570 PWs)   bands (ev):

    -1.5352  -0.3660   0.7892   1.9252   1.9368   4.1686   5.2262   5.2369
     6.3547   7.4100   7.4224   8.5021   8.5164   9.8773   9.8849  10.6565
    11.0071  11.6504

     occupation numbers 
     1.0000   1.0000   1.0000   1.0000   1.0000   1.0000   1.0000   1.0000
     1.0000   1.0000   1.0001   0.2072   0.1833   0.0000   0.0000   0.0000
     0.0000   0.0000

          k = 0.4419-0.0884 0.4419 (  3564 PWs)   bands (ev):

    -1.2783  -0.6934   0.4659   2.1720   2.1835   4.9304   4.9410   5.4906
     6.0818   6.0928   6.5086   9.1977   9.6848   9.7022  10.3667  11.4373
    11.6268  11.6350

     occupation numbers 
     1.0000   1.0000   1.0000   1.0000   1.0000   1.0000   1.0000   1.0000
     1.0000   1.0000   1.0000   0.0000   0.0000   0.0000   0.0000   0.0000
     0.0000   0.0000

          k = 0.3536 0.0000 0.3536 (  3583 PWs)   bands (ev):

    -1.9775   0.3576   0.3579   2.6280   2.6393   4.7066   4.7069   5.0373
     5.0378   6.4385   6.9355   8.0547   9.2291   9.2292  10.6495  10.6714
    11.3706  11.3928

     occupation numbers 
     1.0000   1.0000   1.0000   1.0000   1.0000   1.0000   1.0000   1.0000
     1.0000   1.0000   1.0000   1.0806   0.0000   0.0000   0.0000   0.0000
     0.0000   0.0000

          k = 0.0000 0.5303 0.0000 (  3547 PWs)   bands (ev):

    -1.8296   0.5019   1.6276   1.6472   1.6473   1.6671   6.5690   6.5694
     7.9306   7.9316   8.2218   8.2437   8.2444   8.2656   8.6736   8.6737
    10.5320  10.5322

     occupation numbers 
     1.0000   1.0000   1.0000   1.0000   1.0000   1.0000   1.0000   1.0000
     1.0625   1.0628   0.8948   0.8466   0.8450   0.7939   0.0339   0.0339
     0.0000   0.0000

          k = 0.6187-0.0884 0.6187 (  3553 PWs)   bands (ev):

    -1.2780  -0.1117   0.4659   1.6058   1.6175   2.7432   6.4576   6.4674
     7.5350   7.5467   8.1001   9.0281   9.0317   9.1603   9.1771  10.2370
    10.5431  10.5488

     occupation numbers 
     1.0000   1.0000   1.0000   1.0000   1.0000   1.0000   1.0000   1.0000
     1.0005   1.0006   1.0618   0.0001   0.0001   0.0000   0.0000   0.0000
     0.0000   0.0000

          k = 0.5303 0.0000 0.5303 (  3568 PWs)   bands (ev):

    -0.5115  -0.5111  -0.5110   1.7832   1.7948   4.0327   6.0253   6.0256
     6.3684   6.3689   7.7519   9.3667   9.8555   9.8766  10.4554  10.4560
    11.3665  11.3666

     occupation numbers 
     1.0000   1.0000   1.0000   1.0000   1.0000   1.0000   1.0000   1.0000
     1.0000   1.0000   1.0132   0.0000   0.0000   0.0000   0.0000   0.0000
     0.0000   0.0000

          k = 0.0000-0.7071 0.0000 (  3572 PWs)   bands (ev):

    -0.8026  -0.8024   1.4851   1.5048   1.5048   1.5246   7.4876   7.4879
     7.4881   7.4881   8.4460   8.4464   9.5761   9.6001   9.6015   9.6269
     9.7742   9.7755

     occupation numbers 
     1.0000   1.0000   1.0000   1.0000   1.0000   1.0000   1.0002   1.0002
     1.0002   1.0002   0.3198   0.3189   0.0000   0.0000   0.0000   0.0000
     0.0000   0.0000

          k =-0.1768 0.3536 0.0000 (  3565 PWs)   bands (ev):

    -2.4217   1.0669   1.0857   2.2108   3.3274   3.3463   4.4162   5.5646
     5.5840   6.0459   7.3902   7.7441   7.7643   8.8603   9.0114  10.2609
    11.1391  12.0308

     occupation numbers 
     1.0000   1.0000   1.0000   1.0000   1.0000   1.0000   1.0000   1.0000
     1.0000   1.0000   1.0000   1.0121   1.0152   0.0020   0.0001   0.0000
     0.0000   0.0000

          k = 0.4419-0.2652 0.6187 (  3568 PWs)   bands (ev):

    -1.8667  -0.1121   1.0403   1.6105   3.3016   3.8484   4.4003   5.5409
     5.9279   6.6189   7.1137   8.6716   8.7812   9.1391   9.8585  10.5505
    11.2636  12.0697

     occupation numbers 
     1.0000   1.0000   1.0000   1.0000   1.0000   1.0000   1.0000   1.0000
     1.0000   1.0000   1.0000   0.0348   0.0074   0.0000   0.0000   0.0000
     0.0000   0.0000

          k = 0.3536-0.1768 0.5303 (  3578 PWs)   bands (ev):

    -1.0953  -1.0951   1.2077   1.2303   3.4726   3.4738   5.4951   5.5026
     5.8426   5.8568   7.8263   7.8366   9.9708   9.9740  10.3254  10.3255
    12.0658  12.0669

     occupation numbers 
     1.0000   1.0000   1.0000   1.0000   1.0000   1.0000   1.0000   1.0000
     1.0000   1.0000   1.0289   1.0317   0.0000   0.0000   0.0000   0.0000
     0.0000   0.0000

          k = 0.5303-0.1768 0.7071 (  3544 PWs)   bands (ev):

    -1.6823   0.6311   0.6459   0.6606   2.9089   2.9279   5.0989   6.7003
     7.1835   7.2883   7.3086   8.2905   8.8059   9.4408   9.4617   9.5066
    10.8071  11.9303

     occupation numbers 
     1.0000   1.0000   1.0000   1.0000   1.0000   1.0000   1.0000   1.0000
     1.0000   1.0000   1.0000   0.7297   0.0050   0.0000   0.0000   0.0000
     0.0000   0.0000

          k = 0.4419-0.0884 0.6187 (  3568 PWs)   bands (ev):

    -0.9853  -0.4023   0.1774   0.7540   3.0223   4.1351   4.6748   5.7514
     6.7741   7.2982   7.8268   8.3651   9.4407  10.0103  10.3951  10.4993
    11.0681  11.5658

     occupation numbers 
     1.0000   1.0000   1.0000   1.0000   1.0000   1.0000   1.0000   1.0000
     1.0000   1.0000   1.0290   0.5250   0.0000   0.0000   0.0000   0.0000
     0.0000   0.0000

          k = 0.3536 0.0000 0.5303 (  3565 PWs)   bands (ev):

    -1.2416  -0.0759  -0.0756   1.0763   3.3340   4.4400   4.4400   5.5314
     6.6244   6.6247   7.0945   8.6727   9.2031  10.7447  10.9129  10.9130
    11.2289  11.2291

     occupation numbers 
     1.0000   1.0000   1.0000   1.0000   1.0000   1.0000   1.0000   1.0000
     1.0000   1.0000   1.0000   0.0343   0.0000   0.0000   0.0000   0.0000
     0.0000   0.0000

          k =-0.1768-0.7071 0.0000 (  3560 PWs)   bands (ev):

    -0.6569  -0.6566   0.4927   0.5116   2.7685   2.7875   6.0418   6.0418
     7.6195   7.6197   8.6636   8.6864   9.1024   9.1030  10.3161  10.3322
    10.7834  10.8070

     occupation numbers 
     1.0000   1.0000   1.0000   1.0000   1.0000   1.0000   1.0000   1.0000
     1.0022   1.0022   0.0385   0.0287   0.0000   0.0000   0.0000   0.0000
     0.0000   0.0000

          k =-0.3536-0.7071 0.0000 (  3552 PWs)   bands (ev):

    -0.2392  -0.2205  -0.2205  -0.2020   4.2953   4.3050   4.3050   4.3147
     7.9998   8.0150   8.0151   8.0301   9.6027   9.6148   9.6149   9.6268
    12.2500  12.2595

     occupation numbers 
     1.0000   1.0000   1.0000   1.0000   1.0000   1.0000   1.0000   1.0000
     1.0811   1.0828   1.0828   1.0833   0.0000   0.0000   0.0000   0.0000
     0.0000   0.0000

          k =-0.0884 0.0884 0.0884 (  3593 PWs)   bands (ev):

    -3.0545   2.1795   3.2947   3.2987   3.3025   4.4420   4.4461   4.4498
     4.8610   4.8642   4.8678   5.5449   7.4521   7.4556   7.4594  12.2530
    12.2584  12.2636

     occupation numbers 
     1.0000   1.0000   1.0000   1.0000   1.0000   1.0000   1.0000   1.0000
     1.0000   1.0000   1.0000   1.0000   1.0001   1.0001   1.0001   0.0000
     0.0000   0.0000

          k =-0.1768 0.1768 0.1768 (  3590 PWs)   bands (ev):

    -2.7190   0.7896   3.0535   3.0575   3.0614   4.1378   4.1417   4.1454
     5.3004   5.3043   5.3084   7.4915   8.7463   8.7510   8.7558  10.6392
    10.6431  10.6471

     occupation numbers 
     1.0000   1.0000   1.0000   1.0000   1.0000   1.0000   1.0000   1.0000
     1.0000   1.0000   1.0000   1.0002   0.0126   0.0117   0.0109   0.0000
     0.0000   0.0000

          k =-0.2652 0.2652 0.2652 (  3591 PWs)   bands (ev):

    -2.1624  -0.4024   3.0177   3.0217   3.0257   3.5671   3.5711   3.5749
     6.3569   6.3610   6.3652   8.9740   8.9798   8.9853   9.6109  10.4148
    10.4176  10.4205

     occupation numbers 
     1.0000   1.0000   1.0000   1.0000   1.0000   1.0000   1.0000   1.0000
     1.0000   1.0000   1.0000   0.0002   0.0002   0.0002   0.0000   0.0000
     0.0000   0.0000

          k = 0.3536-0.3536-0.3536 (  3582 PWs)   bands (ev):

    -1.3998  -1.3771   3.1805   3.1838   3.1925   3.1956   3.2043   3.2075
     7.5930   7.5977   7.6009   7.6009   7.6040   7.6089  11.8866  11.8960
    12.1289  12.1389

     occupation numbers 
     1.0000   1.0000   1.0000   1.0000   1.0000   1.0000   1.0000   1.0000
     1.0014   1.0015   1.0016   1.0016   1.0017   1.0018   0.0000   0.0000
     0.0000   0.0000

          k = 0.1768 0.0000 0.0000 (  3591 PWs)   bands (ev):

    -3.0171   2.7657   2.7715   2.7848   2.7902   3.8666   5.0158   5.0215
     5.0351   5.0408   5.5236   5.5237   6.8718   6.8720   8.4993  11.8478
    11.8479  13.3355

     occupation numbers 
     1.0000   1.0000   1.0000   1.0000   1.0000   1.0000   1.0000   1.0000
     1.0000   1.0000   1.0000   1.0000   1.0000   1.0000   0.2120   0.0000
     0.0000   0.0000

          k = 0.2652-0.0884 0.0884 (  3578 PWs)   bands (ev):

    -2.7561   1.3265   2.4588   2.4645   3.0139   3.5757   4.7234   5.1309
     5.1357   5.8141   5.8200   6.9116   7.7212   7.7266   9.7874  10.5086
    10.5129  12.5297

     occupation numbers 
     1.0000   1.0000   1.0000   1.0000   1.0000   1.0000   1.0000   1.0000
     1.0000   1.0000   1.0000   1.0000   1.0091   1.0097   0.0000   0.0000
     0.0000   0.0000

          k =-0.2652 0.0884 0.0884 (  3578 PWs)   bands (ev):

    -2.7561   1.3266   2.4588   2.4645   3.0136   3.5759   4.7234   5.1307
     5.1354   5.8144   5.8202   6.9116   7.7211   7.7266   9.7873  10.5087
    10.5129  12.5298

     occupation numbers 
     1.0000   1.0000   1.0000   1.0000   1.0000   1.0000   1.0000   1.0000
     1.0000   1.0000   1.0000   1.0000   1.0091   1.0097   0.0000   0.0000
     0.0000   0.0000

          k = 0.0884-0.2652-0.0884 (  3578 PWs)   bands (ev):

    -2.7561   1.3265   2.4617   2.4618   3.0134   3.5761   4.7236   5.1327
     5.1331   5.8171   5.8174   6.9118   7.7238   7.7238   9.7874  10.5106
    10.5108  12.5298

     occupation numbers 
     1.0000   1.0000   1.0000   1.0000   1.0000   1.0000   1.0000   1.0000
     1.0000   1.0000   1.0000   1.0000   1.0094   1.0094   0.0000   0.0000
     0.0000   0.0000

          k = 0.3536-0.1768 0.1768 (  3566 PWs)   bands (ev):

    -2.2734   0.0688   2.3420   2.3552   2.3656   4.4410   4.5503   4.5556
     4.7567   6.7981   6.8042   8.7348   8.7447   8.9703   9.3767   9.3777
    10.8683  11.4420

     occupation numbers 
     1.0000   1.0000   1.0000   1.0000   1.0000   1.0000   1.0000   1.0000
     1.0000   1.0000   1.0000   0.0148   0.0129   0.0002   0.0000   0.0000
     0.0000   0.0000

          k =-0.3536 0.1768 0.1768 (  3566 PWs)   bands (ev):

    -2.2735   0.0689   2.3419   2.3552   2.3656   4.4410   4.5502   4.5555
     4.7568   6.7982   6.8043   8.7346   8.7444   8.9709   9.3766   9.3776
    10.8682  11.4421

     occupation numbers 
     1.0000   1.0000   1.0000   1.0000   1.0000   1.0000   1.0000   1.0000
     1.0000   1.0000   1.0000   0.0149   0.0129   0.0002   0.0000   0.0000
     0.0000   0.0000

          k = 0.1768-0.3536-0.1768 (  3566 PWs)   bands (ev):

    -2.2734   0.0689   2.3519   2.3553   2.3554   4.4414   4.5529   4.5530
     4.7563   6.8011   6.8012   8.7397   8.7398   8.9704   9.3771   9.3772
    10.8684  11.4421

     occupation numbers 
     1.0000   1.0000   1.0000   1.0000   1.0000   1.0000   1.0000   1.0000
     1.0000   1.0000   1.0000   0.0138   0.0138   0.0002   0.0000   0.0000
     0.0000   0.0000

          k =-0.2652 0.4419-0.4419 (  3569 PWs)   bands (ev):

    -1.5721  -0.9855   1.8942   2.4572   2.4629   4.1213   4.1267   4.6628
     5.8266   7.4166   7.4229   7.9644   7.9710   9.5539  10.9139  10.9187
    11.1919  11.4636

     occupation numbers 
     1.0000   1.0000   1.0000   1.0000   1.0000   1.0000   1.0000   1.0000
     1.0000   1.0001   1.0001   1.0731   1.0749   0.0000   0.0000   0.0000
     0.0000   0.0000

          k = 0.2652-0.4419-0.4419 (  3569 PWs)   bands (ev):

    -1.5723  -0.9853   1.8942   2.4573   2.4630   4.1211   4.1266   4.6628
     5.8267   7.4167   7.4229   7.9645   7.9711   9.5539  10.9138  10.9186
    11.1918  11.4641

     occupation numbers 
     1.0000   1.0000   1.0000   1.0000   1.0000   1.0000   1.0000   1.0000
     1.0000   1.0001   1.0001   1.0731   1.0749   0.0000   0.0000   0.0000
     0.0000   0.0000

          k =-0.4419 0.2652 0.4419 (  3569 PWs)   bands (ev):

    -1.5723  -0.9853   1.8944   2.4599   2.4600   4.1241   4.1241   4.6625
     5.8268   7.4197   7.4198   7.9677   7.9677   9.5539  10.9165  10.9165
    11.1914  11.4639

     occupation numbers 
     1.0000   1.0000   1.0000   1.0000   1.0000   1.0000   1.0000   1.0000
     1.0000   1.0001   1.0001   1.0740   1.0740   0.0000   0.0000   0.0000
     0.0000   0.0000

          k =-0.1768 0.3536-0.3536 (  3572 PWs)   bands (ev):

    -1.8299  -0.6571   1.6467   2.7712   2.7768   3.8850   3.8905   4.9593
     6.1182   6.1239   7.1818   8.2823   9.2838   9.2916   9.6648  10.4365
    11.7156  11.7224

     occupation numbers 
     1.0000   1.0000   1.0000   1.0000   1.0000   1.0000   1.0000   1.0000
     1.0000   1.0000   1.0000   0.7511   0.0000   0.0000   0.0000   0.0000
     0.0000   0.0000

          k = 0.1768-0.3536-0.3536 (  3572 PWs)   bands (ev):

    -1.8300  -0.6570   1.6466   2.7713   2.7769   3.8848   3.8903   4.9593
     6.1183   6.1240   7.1818   8.2823   9.2838   9.2916   9.6651  10.4364
    11.7155  11.7224

     occupation numbers 
     1.0000   1.0000   1.0000   1.0000   1.0000   1.0000   1.0000   1.0000
     1.0000   1.0000   1.0000   0.7511   0.0000   0.0000   0.0000   0.0000
     0.0000   0.0000

          k =-0.3536 0.1768 0.3536 (  3572 PWs)   bands (ev):

    -1.8300  -0.6569   1.6467   2.7738   2.7739   3.8878   3.8878   4.9591
     6.1211   6.1211   7.1819   8.2825   9.2877   9.2877   9.6648  10.4366
    11.7189  11.7189

     occupation numbers 
     1.0000   1.0000   1.0000   1.0000   1.0000   1.0000   1.0000   1.0000
     1.0000   1.0000   1.0000   0.7507   0.0000   0.0000   0.0000   0.0000
     0.0000   0.0000

          k =-0.0884 0.2652-0.2652 (  3568 PWs)   bands (ev):

    -2.4588   0.4658   1.6116   3.2898   3.2953   3.8476   3.8530   4.9994
     5.0049   5.4010   7.1797   7.9232   8.2668   8.8914   9.9968  10.0053
    10.8135  10.8206

     occupation numbers 
     1.0000   1.0000   1.0000   1.0000   1.0000   1.0000   1.0000   1.0000
     1.0000   1.0000   1.0000   1.0600   0.7908   0.0011   0.0000   0.0000
     0.0000   0.0000

          k = 0.0884-0.2652-0.2652 (  3568 PWs)   bands (ev):

    -2.4588   0.4659   1.6116   3.2900   3.2955   3.8473   3.8527   4.9996
     5.0050   5.4009   7.1798   7.9235   8.2664   8.8915   9.9968  10.0053
    10.8136  10.8206

     occupation numbers 
     1.0000   1.0000   1.0000   1.0000   1.0000   1.0000   1.0000   1.0000
     1.0000   1.0000   1.0000   1.0601   0.7918   0.0011   0.0000   0.0000
     0.0000   0.0000

          k =-0.2652 0.0884 0.2652 (  3568 PWs)   bands (ev):

    -2.4588   0.4660   1.6116   3.2924   3.2925   3.8503   3.8503   5.0022
     5.0023   5.4008   7.1799   7.9231   8.2669   8.8915  10.0009  10.0011
    10.8170  10.8171

     occupation numbers 
     1.0000   1.0000   1.0000   1.0000   1.0000   1.0000   1.0000   1.0000
     1.0000   1.0000   1.0000   1.0600   0.7905   0.0011   0.0000   0.0000
     0.0000   0.0000

          k = 0.0000 0.1768-0.1768 (  3589 PWs)   bands (ev):

    -2.8679   1.7801   1.7990   3.9092   3.9096   4.0015   4.0068   4.1851
     4.1855   5.6538   6.2542   6.2739   7.0094   8.6276   8.6339  10.4970
    11.9767  11.9883

     occupation numbers 
     1.0000   1.0000   1.0000   1.0000   1.0000   1.0000   1.0000   1.0000
     1.0000   1.0000   1.0000   1.0000   1.0000   0.0592   0.0551   0.0000
     0.0000   0.0000

          k =-0.1768 0.0000 0.1768 (  3589 PWs)   bands (ev):

    -2.8679   1.7896   1.7896   3.9085   3.9103   4.0021   4.0060   4.1845
     4.1865   5.6535   6.2640   6.2643   7.0095   8.6307   8.6307  10.4971
    11.9824  11.9824

     occupation numbers 
     1.0000   1.0000   1.0000   1.0000   1.0000   1.0000   1.0000   1.0000
     1.0000   1.0000   1.0000   1.0000   1.0000   0.0572   0.0572   0.0000
     0.0000   0.0000

          k = 0.3536 0.0000 0.0000 (  3591 PWs)   bands (ev):

    -2.5702   2.0517   2.0667   2.0719   2.0798   2.0924   5.9147   5.9148
     6.5175   6.5237   6.5375   6.5433   7.2876   7.2878  10.1276  10.1277
    11.0242  11.8816

     occupation numbers 
     1.0000   1.0000   1.0000   1.0000   1.0000   1.0000   1.0000   1.0000
     1.0000   1.0000   1.0000   1.0000   1.0000   1.0000   0.0000   0.0000
     0.0000   0.0000

          k = 0.4419-0.0884 0.0884 (  3564 PWs)   bands (ev):

    -2.1623   0.7534   1.3255   1.8931   1.8988   3.0236   5.6667   5.6716
     6.3477   7.4311   7.4375   8.1957   8.2033   8.5179   8.9881   8.9893
    11.7313  11.7354

     occupation numbers 
     1.0000   1.0000   1.0000   1.0000   1.0000   1.0000   1.0000   1.0000
     1.0000   1.0001   1.0001   0.9458   0.9316   0.1809   0.0002   0.0002
     0.0000   0.0000

          k =-0.4419 0.0884 0.0884 (  3564 PWs)   bands (ev):

    -2.1623   0.7537   1.3252   1.8931   1.8989   3.0237   5.6666   5.6715
     6.3477   7.4313   7.4377   8.1955   8.2032   8.5180   8.9881   8.9893
    11.7313  11.7354

     occupation numbers 
     1.0000   1.0000   1.0000   1.0000   1.0000   1.0000   1.0000   1.0000
     1.0000   1.0001   1.0001   0.9461   0.9320   0.1807   0.0002   0.0002
     0.0000   0.0000

          k = 0.0884-0.4419-0.0884 (  3564 PWs)   bands (ev):

    -2.1623   0.7534   1.3256   1.8958   1.8958   3.0239   5.6691   5.6693
     6.3474   7.4343   7.4345   8.1997   8.1997   8.5175   8.9887   8.9888
    11.7333  11.7334

     occupation numbers 
     1.0000   1.0000   1.0000   1.0000   1.0000   1.0000   1.0000   1.0000
     1.0000   1.0001   1.0001   0.9385   0.9385   0.1814   0.0002   0.0002
     0.0000   0.0000

          k =-0.1768 0.5303-0.5303 (  3570 PWs)   bands (ev):

    -1.5352  -0.3661   0.7895   1.9280   1.9338   4.1686   5.2289   5.2342
     6.3547   7.4131   7.4193   8.5056   8.5127   9.8794   9.8831  10.6563
    11.0070  11.6503

     occupation numbers 
     1.0000   1.0000   1.0000   1.0000   1.0000   1.0000   1.0000   1.0000
     1.0000   1.0000   1.0001   0.2012   0.1892   0.0000   0.0000   0.0000
     0.0000   0.0000

          k = 0.1768-0.5303-0.5303 (  3570 PWs)   bands (ev):

    -1.5353  -0.3659   0.7894   1.9280   1.9338   4.1686   5.2288   5.2342
     6.3547   7.4131   7.4194   8.5057   8.5129   9.8792   9.8830  10.6562
    11.0073  11.6504

     occupation numbers 
     1.0000   1.0000   1.0000   1.0000   1.0000   1.0000   1.0000   1.0000
     1.0000   1.0000   1.0001   0.2009   0.1890   0.0000   0.0000   0.0000
     0.0000   0.0000

          k =-0.5303 0.1768 0.5303 (  3570 PWs)   bands (ev):

    -1.5353  -0.3660   0.7895   1.9308   1.9308   4.1687   5.2316   5.2317
     6.3545   7.4162   7.4162   8.5092   8.5092   9.8813   9.8813  10.6561
    11.0071  11.6504

     occupation numbers 
     1.0000   1.0000   1.0000   1.0000   1.0000   1.0000   1.0000   1.0000
     1.0000   1.0001   1.0001   0.1951   0.1951   0.0000   0.0000   0.0000
     0.0000   0.0000

          k =-0.0884 0.4419-0.4419 (  3564 PWs)   bands (ev):

    -1.2784  -0.6934   0.4662   2.1748   2.1805   4.9331   4.9384   5.4906
     6.0847   6.0901   6.5085   9.1975   9.6891   9.6979  10.3666  11.4376
    11.6290  11.6331

     occupation numbers 
     1.0000   1.0000   1.0000   1.0000   1.0000   1.0000   1.0000   1.0000
     1.0000   1.0000   1.0000   0.0000   0.0000   0.0000   0.0000   0.0000
     0.0000   0.0000

          k = 0.0884-0.4419-0.4419 (  3564 PWs)   bands (ev):

    -1.2785  -0.6932   0.4661   2.1748   2.1805   4.9330   4.9383   5.4906
     6.0847   6.0902   6.5085   9.1975   9.6892   9.6980  10.3666  11.4374
    11.6290  11.6331

     occupation numbers 
     1.0000   1.0000   1.0000   1.0000   1.0000   1.0000   1.0000   1.0000
     1.0000   1.0000   1.0000   0.0000   0.0000   0.0000   0.0000   0.0000
     0.0000   0.0000

          k =-0.4419 0.0884 0.4419 (  3564 PWs)   bands (ev):

    -1.2786  -0.6931   0.4661   2.1775   2.1776   4.9358   4.9358   5.4907
     6.0874   6.0874   6.5083   9.1975   9.6934   9.6935  10.3668  11.4374
    11.6310  11.6315

     occupation numbers 
     1.0000   1.0000   1.0000   1.0000   1.0000   1.0000   1.0000   1.0000
     1.0000   1.0000   1.0000   0.0000   0.0000   0.0000   0.0000   0.0000
     0.0000   0.0000

          k = 0.0000 0.3536-0.3536 (  3583 PWs)   bands (ev):

    -1.9775   0.3484   0.3673   2.6307   2.6363   4.7064   4.7067   5.0377
     5.0380   6.4385   6.9354   8.0546   9.2188   9.2396  10.6550  10.6660
    11.3761  11.3872

     occupation numbers 
     1.0000   1.0000   1.0000   1.0000   1.0000   1.0000   1.0000   1.0000
     1.0000   1.0000   1.0000   1.0807   0.0000   0.0000   0.0000   0.0000
     0.0000   0.0000

          k =-0.3536 0.0000 0.3536 (  3583 PWs)   bands (ev):

    -1.9775   0.3579   0.3579   2.6334   2.6335   4.7068   4.7069   5.0376
     5.0376   6.4383   6.9355   8.0546   9.2293   9.2294  10.6604  10.6605
    11.3814  11.3815

     occupation numbers 
     1.0000   1.0000   1.0000   1.0000   1.0000   1.0000   1.0000   1.0000
     1.0000   1.0000   1.0000   1.0807   0.0000   0.0000   0.0000   0.0000
     0.0000   0.0000

          k = 0.5303 0.0000 0.0000 (  3547 PWs)   bands (ev):

    -1.8297   0.5019   1.6350   1.6407   1.6538   1.6597   6.5691   6.5691
     7.9311   7.9312   8.2302   8.2368   8.2506   8.2579   8.6736   8.6738
    10.5320  10.5322

     occupation numbers 
     1.0000   1.0000   1.0000   1.0000   1.0000   1.0000   1.0000   1.0000
     1.0627   1.0627   0.8769   0.8622   0.8305   0.8128   0.0339   0.0338
     0.0000   0.0000

          k =-0.0884 0.6187-0.6187 (  3553 PWs)   bands (ev):

    -1.2781  -0.1118   0.4662   1.6087   1.6145   2.7432   6.4600   6.4649
     7.5380   7.5439   8.1002   9.0281   9.0300   9.1654   9.1738  10.2370
    10.5445  10.5474

     occupation numbers 
     1.0000   1.0000   1.0000   1.0000   1.0000   1.0000   1.0000   1.0000
     1.0006   1.0006   1.0618   0.0001   0.0001   0.0000   0.0000   0.0000
     0.0000   0.0000

          k = 0.0884-0.6187-0.6187 (  3553 PWs)   bands (ev):

    -1.2781  -0.1116   0.4660   1.6087   1.6145   2.7432   6.4599   6.4648
     7.5380   7.5439   8.1001   9.0290   9.0308   9.1645   9.1730  10.2371
    10.5445  10.5473

     occupation numbers 
     1.0000   1.0000   1.0000   1.0000   1.0000   1.0000   1.0000   1.0000
     1.0006   1.0006   1.0618   0.0001   0.0001   0.0000   0.0000   0.0000
     0.0000   0.0000

          k =-0.6187 0.0884 0.6187 (  3553 PWs)   bands (ev):

    -1.2781  -0.1119   0.4662   1.6115   1.6115   2.7434   6.4624   6.4626
     7.5408   7.5410   8.0998   9.0291   9.0294   9.1695   9.1695  10.2372
    10.5457  10.5458

     occupation numbers 
     1.0000   1.0000   1.0000   1.0000   1.0000   1.0000   1.0000   1.0000
     1.0006   1.0006   1.0620   0.0001   0.0001   0.0000   0.0000   0.0000
     0.0000   0.0000

          k = 0.0000 0.5303-0.5303 (  3568 PWs)   bands (ev):

    -0.5259  -0.5111  -0.4965   1.7860   1.7918   4.0327   6.0251   6.0254
     6.3687   6.3690   7.7520   9.3664   9.8608   9.8713  10.4556  10.4557
    11.3667  11.3669

     occupation numbers 
     1.0000   1.0000   1.0000   1.0000   1.0000   1.0000   1.0000   1.0000
     1.0000   1.0000   1.0132   0.0000   0.0000   0.0000   0.0000   0.0000
     0.0000   0.0000

          k =-0.5303 0.0000 0.5303 (  3568 PWs)   bands (ev):

    -0.5272  -0.5110  -0.4952   1.7888   1.7888   4.0328   6.0255   6.0256
     6.3686   6.3687   7.7517   9.3665   9.8659   9.8660  10.4555  10.4561
    11.3660  11.3671

     occupation numbers 
     1.0000   1.0000   1.0000   1.0000   1.0000   1.0000   1.0000   1.0000
     1.0000   1.0000   1.0132   0.0000   0.0000   0.0000   0.0000   0.0000
     0.0000   0.0000

          k =-0.7071 0.0000 0.0000 (  3572 PWs)   bands (ev):

    -0.8119  -0.7930   1.4925   1.4983   1.5113   1.5172   7.4767   7.4767
     7.4991   7.4991   8.4461   8.4462   9.5844   9.5951   9.6079   9.6179
     9.7745   9.7749

     occupation numbers 
     1.0000   1.0000   1.0000   1.0000   1.0000   1.0000   1.0002   1.0002
     1.0003   1.0003   0.3196   0.3195   0.0000   0.0000   0.0000   0.0000
     0.0000   0.0000

          k = 0.3536-0.1768 0.0000 (  3565 PWs)   bands (ev):

    -2.4217   1.0669   1.0857   2.2108   3.3273   3.3462   4.4162   5.5646
     5.5840   6.0459   7.3902   7.7441   7.7643   8.8604   9.0113  10.2609
    11.1390  12.0309

     occupation numbers 
     1.0000   1.0000   1.0000   1.0000   1.0000   1.0000   1.0000   1.0000
     1.0000   1.0000   1.0000   1.0121   1.0152   0.0020   0.0001   0.0000
     0.0000   0.0000

          k = 0.1768 0.0000 0.3536 (  3565 PWs)   bands (ev):

    -2.4217   1.0760   1.0764   2.2111   3.3367   3.3368   4.4164   5.5740
     5.5743   6.0460   7.3905   7.7540   7.7542   8.8604   9.0113  10.2608
    11.1391  12.0310

     occupation numbers 
     1.0000   1.0000   1.0000   1.0000   1.0000   1.0000   1.0000   1.0000
     1.0000   1.0000   1.0000   1.0135   1.0136   0.0020   0.0001   0.0000
     0.0000   0.0000

          k = 0.1768 0.0000-0.3536 (  3565 PWs)   bands (ev):

    -2.4217   1.0763   1.0764   2.2106   3.3368   3.3370   4.4161   5.5743
     5.5745   6.0456   7.3900   7.7542   7.7547   8.8603   9.0114  10.2608
    11.1390  12.0310

     occupation numbers 
     1.0000   1.0000   1.0000   1.0000   1.0000   1.0000   1.0000   1.0000
     1.0000   1.0000   1.0000   1.0136   1.0137   0.0020   0.0001   0.0000
     0.0000   0.0000

          k =-0.2652 0.4419-0.6187 (  3568 PWs)   bands (ev):

    -1.8667  -0.1121   1.0405   1.6104   3.3015   3.8484   4.4003   5.5413
     5.9276   6.6190   7.1137   8.6716   8.7812   9.1390   9.8586  10.5505
    11.2636  12.0697

     occupation numbers 
     1.0000   1.0000   1.0000   1.0000   1.0000   1.0000   1.0000   1.0000
     1.0000   1.0000   1.0000   0.0348   0.0074   0.0000   0.0000   0.0000
     0.0000   0.0000

          k = 0.2652-0.4419-0.6187 (  3568 PWs)   bands (ev):

    -1.8668  -0.1120   1.0403   1.6106   3.3014   3.8484   4.4004   5.5409
     5.9279   6.6191   7.1137   8.6716   8.7813   9.1391   9.8585  10.5505
    11.2636  12.0697

     occupation numbers 
     1.0000   1.0000   1.0000   1.0000   1.0000   1.0000   1.0000   1.0000
     1.0000   1.0000   1.0000   0.0348   0.0074   0.0000   0.0000   0.0000
     0.0000   0.0000

          k =-0.4419 0.2652 0.6187 (  3568 PWs)   bands (ev):

    -1.8668  -0.1120   1.0405   1.6104   3.3014   3.8485   4.4005   5.5412
     5.9275   6.6190   7.1137   8.6717   8.7813   9.1390   9.8585  10.5504
    11.2637  12.0697

     occupation numbers 
     1.0000   1.0000   1.0000   1.0000   1.0000   1.0000   1.0000   1.0000
     1.0000   1.0000   1.0000   0.0348   0.0074   0.0000   0.0000   0.0000
     0.0000   0.0000

          k =-0.4419 0.6187-0.2652 (  3568 PWs)   bands (ev):

    -1.8667  -0.1121   1.0402   1.6107   3.3015   3.8486   4.4003   5.5410
     5.9279   6.6189   7.1137   8.6718   8.7813   9.1390   9.8582  10.5506
    11.2636  12.0698

     occupation numbers 
     1.0000   1.0000   1.0000   1.0000   1.0000   1.0000   1.0000   1.0000
     1.0000   1.0000   1.0000   0.0347   0.0074   0.0000   0.0000   0.0000
     0.0000   0.0000

          k =-0.4419-0.6187 0.2652 (  3568 PWs)   bands (ev):

    -1.8668  -0.1119   1.0405   1.6103   3.3016   3.8483   4.4003   5.5413
     5.9275   6.6189   7.1138   8.6716   8.7814   9.1390   9.8586  10.5503
    11.2636  12.0698

     occupation numbers 
     1.0000   1.0000   1.0000   1.0000   1.0000   1.0000   1.0000   1.0000
     1.0000   1.0000   1.0000   0.0348   0.0074   0.0000   0.0000   0.0000
     0.0000   0.0000

          k =-0.1768 0.3536-0.5303 (  3578 PWs)   bands (ev):

    -1.0953  -1.0951   1.2190   1.2191   3.4731   3.4731   5.4990   5.4990
     5.8496   5.8496   7.8314   7.8316   9.9723   9.9723  10.3254  10.3255
    12.0674  12.0683

     occupation numbers 
     1.0000   1.0000   1.0000   1.0000   1.0000   1.0000   1.0000   1.0000
     1.0000   1.0000   1.0303   1.0303   0.0000   0.0000   0.0000   0.0000
     0.0000   0.0000

          k = 0.1768-0.3536-0.5303 (  3578 PWs)   bands (ev):

    -1.1064  -1.0838   1.2077   1.2303   3.4726   3.4736   5.4950   5.5027
     5.8425   5.8570   7.8258   7.8374   9.9716   9.9730  10.3195  10.3316
    12.0594  12.0733

     occupation numbers 
     1.0000   1.0000   1.0000   1.0000   1.0000   1.0000   1.0000   1.0000
     1.0000   1.0000   1.0287   1.0319   0.0000   0.0000   0.0000   0.0000
     0.0000   0.0000

          k =-0.3536 0.1768 0.5303 (  3578 PWs)   bands (ev):

    -1.1064  -1.0838   1.2189   1.2190   3.4721   3.4742   5.4988   5.4991
     5.8495   5.8498   7.8308   7.8322   9.9715   9.9732  10.3195  10.3315
    12.0603  12.0750

     occupation numbers 
     1.0000   1.0000   1.0000   1.0000   1.0000   1.0000   1.0000   1.0000
     1.0000   1.0000   1.0301   1.0305   0.0000   0.0000   0.0000   0.0000
     0.0000   0.0000

          k =-0.1768 0.5303-0.7071 (  3544 PWs)   bands (ev):

    -1.6823   0.6312   0.6459   0.6607   2.9088   2.9278   5.0988   6.7002
     7.1835   7.2884   7.3087   8.2904   8.8060   9.4405   9.4614   9.5072
    10.8071  11.9288

     occupation numbers 
     1.0000   1.0000   1.0000   1.0000   1.0000   1.0000   1.0000   1.0000
     1.0000   1.0000   1.0000   0.7298   0.0050   0.0000   0.0000   0.0000
     0.0000   0.0000

          k =-0.5303 0.7071-0.1768 (  3544 PWs)   bands (ev):

    -1.6823   0.6299   0.6459   0.6619   2.9183   2.9184   5.0989   6.7000
     7.1835   7.2983   7.2987   8.2907   8.8058   9.4488   9.4522   9.5080
    10.8072  11.9367

     occupation numbers 
     1.0000   1.0000   1.0000   1.0000   1.0000   1.0000   1.0000   1.0000
     1.0000   1.0000   1.0000   0.7291   0.0050   0.0000   0.0000   0.0000
     0.0000   0.0000

          k =-0.5303-0.7071 0.1768 (  3544 PWs)   bands (ev):

    -1.6824   0.6458   0.6459   0.6460   2.9183   2.9184   5.0987   6.7002
     7.1836   7.2984   7.2985   8.2905   8.8058   9.4522   9.4523   9.5048
    10.8072  11.9370

     occupation numbers 
     1.0000   1.0000   1.0000   1.0000   1.0000   1.0000   1.0000   1.0000
     1.0000   1.0000   1.0000   0.7297   0.0050   0.0000   0.0000   0.0000
     0.0000   0.0000

          k =-0.0884 0.4419-0.6187 (  3568 PWs)   bands (ev):

    -0.9853  -0.4025   0.1779   0.7538   3.0222   4.1352   4.6747   5.7515
     6.7743   7.2980   7.8270   8.3651   9.4408  10.0101  10.3946  10.4999
    11.0681  11.5668

     occupation numbers 
     1.0000   1.0000   1.0000   1.0000   1.0000   1.0000   1.0000   1.0000
     1.0000   1.0000   1.0290   0.5251   0.0000   0.0000   0.0000   0.0000
     0.0000   0.0000

          k = 0.0884-0.4419-0.6187 (  3568 PWs)   bands (ev):

    -0.9855  -0.4020   0.1775   0.7540   3.0222   4.1352   4.6747   5.7515
     6.7740   7.2983   7.8269   8.3653   9.4407  10.0102  10.3952  10.4991
    11.0682  11.5660

     occupation numbers 
     1.0000   1.0000   1.0000   1.0000   1.0000   1.0000   1.0000   1.0000
     1.0000   1.0000   1.0290   0.5246   0.0000   0.0000   0.0000   0.0000
     0.0000   0.0000

          k =-0.4419 0.0884 0.6187 (  3568 PWs)   bands (ev):

    -0.9854  -0.4022   0.1778   0.7537   3.0221   4.1353   4.6748   5.7514
     6.7743   7.2979   7.8268   8.3651   9.4409  10.0102  10.3950  10.4992
    11.0683  11.5667

     occupation numbers 
     1.0000   1.0000   1.0000   1.0000   1.0000   1.0000   1.0000   1.0000
     1.0000   1.0000   1.0290   0.5252   0.0000   0.0000   0.0000   0.0000
     0.0000   0.0000

          k =-0.4419 0.6187-0.0884 (  3568 PWs)   bands (ev):

    -0.9853  -0.4024   0.1777   0.7539   3.0223   4.1351   4.6748   5.7515
     6.7740   7.2984   7.8269   8.3650   9.4409  10.0102  10.3952  10.4993
    11.0680  11.5657

     occupation numbers 
     1.0000   1.0000   1.0000   1.0000   1.0000   1.0000   1.0000   1.0000
     1.0000   1.0000   1.0290   0.5254   0.0000   0.0000   0.0000   0.0000
     0.0000   0.0000

          k =-0.4419-0.6187 0.0884 (  3568 PWs)   bands (ev):

    -0.9855  -0.4020   0.1776   0.7537   3.0223   4.1351   4.6746   5.7516
     6.7742   7.2981   7.8269   8.3651   9.4407  10.0102  10.3951  10.4996
    11.0683  11.5667

     occupation numbers 
     1.0000   1.0000   1.0000   1.0000   1.0000   1.0000   1.0000   1.0000
     1.0000   1.0000   1.0290   0.5252   0.0000   0.0000   0.0000   0.0000
     0.0000   0.0000

          k = 0.0000 0.3536-0.5303 (  3565 PWs)   bands (ev):

    -1.2417  -0.0851  -0.0662   1.0762   3.3339   4.4305   4.4495   5.5314
     6.6147   6.6346   7.0944   8.6725   9.2033  10.7443  10.9022  10.9240
    11.2207  11.2378

     occupation numbers 
     1.0000   1.0000   1.0000   1.0000   1.0000   1.0000   1.0000   1.0000
     1.0000   1.0000   1.0000   0.0344   0.0000   0.0000   0.0000   0.0000
     0.0000   0.0000

          k =-0.3536 0.0000 0.5303 (  3565 PWs)   bands (ev):

    -1.2418  -0.0756  -0.0755   1.0760   3.3339   4.4400   4.4401   5.5315
     6.6247   6.6248   7.0941   8.6725   9.2031  10.7443  10.9129  10.9131
    11.2293  11.2299

     occupation numbers 
     1.0000   1.0000   1.0000   1.0000   1.0000   1.0000   1.0000   1.0000
     1.0000   1.0000   1.0000   0.0344   0.0000   0.0000   0.0000   0.0000
     0.0000   0.0000

          k =-0.3536 0.5303 0.0000 (  3565 PWs)   bands (ev):

    -1.2417  -0.0851  -0.0662   1.0761   3.3340   4.4305   4.4496   5.5314
     6.6147   6.6346   7.0944   8.6725   9.2032  10.7444  10.9021  10.9240
    11.2207  11.2378

     occupation numbers 
     1.0000   1.0000   1.0000   1.0000   1.0000   1.0000   1.0000   1.0000
     1.0000   1.0000   1.0000   0.0344   0.0000   0.0000   0.0000   0.0000
     0.0000   0.0000

          k =-0.7071-0.1768 0.0000 (  3560 PWs)   bands (ev):

    -0.6662  -0.6473   0.4927   0.5116   2.7685   2.7874   6.0320   6.0515
     7.6084   7.6308   8.6638   8.6867   9.0966   9.1085  10.3160  10.3321
    10.7836  10.8072

     occupation numbers 
     1.0000   1.0000   1.0000   1.0000   1.0000   1.0000   1.0000   1.0000
     1.0018   1.0026   0.0384   0.0287   0.0000   0.0000   0.0000   0.0000
     0.0000   0.0000

          k = 0.1768 0.0000-0.7071 (  3560 PWs)   bands (ev):

    -0.6662  -0.6473   0.5021   0.5022   2.7779   2.7780   6.0320   6.0516
     7.6083   7.6308   8.6749   8.6752   9.0968   9.1087  10.3239  10.3242
    10.7951  10.9357

     occupation numbers 
     1.0000   1.0000   1.0000   1.0000   1.0000   1.0000   1.0000   1.0000
     1.0018   1.0026   0.0334   0.0332   0.0000   0.0000   0.0000   0.0000
     0.0000   0.0000

          k =-0.7071-0.3536 0.0000 (  3552 PWs)   bands (ev):

    -0.2413  -0.2224  -0.2186  -0.1998   4.2947   4.2960   4.3139   4.3151
     7.9946   8.0129   8.0172   8.0355   9.5983   9.6135   9.6160   9.6312
    12.2479  12.2514

     occupation numbers 
     1.0000   1.0000   1.0000   1.0000   1.0000   1.0000   1.0000   1.0000
     1.0802   1.0827   1.0830   1.0831   0.0000   0.0000   0.0000   0.0000
     0.0000   0.0000

     the Fermi energy is     8.4122 ev

!    total energy              =     -33.52704230 Ry
     estimated scf accuracy    <          3.0E-14 Ry
     smearing contrib. (-TS)   =      -0.00001436 Ry
     internal energy E=F+TS    =     -33.52702794 Ry

     The total energy is F=E-TS. E is the sum of the following terms:
     one-electron contribution =      23.66669680 Ry
     hartree contribution      =       0.07986348 Ry
     xc contribution           =     -13.11738312 Ry
     ewald contribution        =     -44.15620511 Ry

     convergence has been achieved in  10 iterations

     Forces acting on atoms (cartesian axes, Ry/au):

     atom    1 type  1   force =    -0.00277224    0.00000000    0.00277224
     atom    2 type  1   force =     0.00152482    0.00000000   -0.00152482
     atom    3 type  1   force =    -0.00012188   -0.00078786   -0.00073518
     atom    4 type  1   force =     0.00073518    0.00078786    0.00012188
     atom    5 type  1   force =     0.00073518   -0.00078786    0.00012188
     atom    6 type  1   force =    -0.00012188    0.00078786   -0.00073518
     atom    7 type  1   force =    -0.00005261    0.00000000    0.00005261
     atom    8 type  1   force =     0.00007344    0.00000000   -0.00007344
     The non-local contrib.  to forces
     atom    1 type  1   force =    -0.00690629    0.00000000    0.00690629
     atom    2 type  1   force =     0.00332225    0.00000000   -0.00332225
     atom    3 type  1   force =     0.00016727   -0.00169848   -0.00162131
     atom    4 type  1   force =     0.00162131    0.00169848   -0.00016727
     atom    5 type  1   force =     0.00162131   -0.00169848   -0.00016727
     atom    6 type  1   force =     0.00016727    0.00169848   -0.00162131
     atom    7 type  1   force =    -0.00007706    0.00000000    0.00007706
     atom    8 type  1   force =     0.00008433    0.00000000   -0.00008433
     The ionic contribution  to forces
     atom    1 type  1   force =    -0.01687955   -0.00000000    0.01687955
     atom    2 type  1   force =     0.01323199   -0.00000000   -0.01323199
     atom    3 type  1   force =    -0.00257848   -0.00832385   -0.00490555
     atom    4 type  1   force =     0.00490555    0.00832385    0.00257848
     atom    5 type  1   force =     0.00490555   -0.00832385    0.00257848
     atom    6 type  1   force =    -0.00257848    0.00832385   -0.00490555
     atom    7 type  1   force =    -0.00341781    0.00000000    0.00341781
     atom    8 type  1   force =     0.00241123    0.00000000   -0.00241123
     The local contribution  to forces
     atom    1 type  1   force =     0.02101361    0.00000000   -0.02101361
     atom    2 type  1   force =    -0.01502944    0.00000000    0.01502944
     atom    3 type  1   force =     0.00228934    0.00923448    0.00579169
     atom    4 type  1   force =    -0.00579169   -0.00923448   -0.00228934
     atom    5 type  1   force =    -0.00579169    0.00923448   -0.00228934
     atom    6 type  1   force =     0.00228934   -0.00923448    0.00579169
     atom    7 type  1   force =     0.00344226   -0.00000000   -0.00344226
     atom    8 type  1   force =    -0.00242213   -0.00000000    0.00242213
     The core correction contribution to forces
     atom    1 type  1   force =     0.00000000    0.00000000    0.00000000
     atom    2 type  1   force =     0.00000000    0.00000000    0.00000000
     atom    3 type  1   force =     0.00000000    0.00000000    0.00000000
     atom    4 type  1   force =     0.00000000    0.00000000    0.00000000
     atom    5 type  1   force =     0.00000000    0.00000000    0.00000000
     atom    6 type  1   force =     0.00000000    0.00000000    0.00000000
     atom    7 type  1   force =     0.00000000    0.00000000    0.00000000
     atom    8 type  1   force =     0.00000000    0.00000000    0.00000000
     The Hubbard contrib.    to forces
     atom    1 type  1   force =     0.00000000    0.00000000    0.00000000
     atom    2 type  1   force =     0.00000000    0.00000000    0.00000000
     atom    3 type  1   force =     0.00000000    0.00000000    0.00000000
     atom    4 type  1   force =     0.00000000    0.00000000    0.00000000
     atom    5 type  1   force =     0.00000000    0.00000000    0.00000000
     atom    6 type  1   force =     0.00000000    0.00000000    0.00000000
     atom    7 type  1   force =     0.00000000    0.00000000    0.00000000
     atom    8 type  1   force =     0.00000000    0.00000000    0.00000000
     The SCF correction term to forces
     atom    1 type  1   force =    -0.00000001    0.00000000    0.00000001
     atom    2 type  1   force =     0.00000001   -0.00000000   -0.00000001
     atom    3 type  1   force =    -0.00000001   -0.00000001   -0.00000001
     atom    4 type  1   force =     0.00000001    0.00000001    0.00000001
     atom    5 type  1   force =     0.00000001   -0.00000001    0.00000001
     atom    6 type  1   force =    -0.00000001    0.00000001   -0.00000001
     atom    7 type  1   force =     0.00000000   -0.00000000   -0.00000000
     atom    8 type  1   force =    -0.00000000    0.00000000    0.00000000

     Total force =     0.004974     Total SCF correction =     0.000000


     Computing stress (Cartesian axis) and pressure

          total   stress  (Ry/bohr**3)                   (kbar)     P=        0.06
   0.00000046   0.00000000  -0.00000024            0.07        0.00       -0.03
   0.00000000   0.00000037  -0.00000000            0.00        0.05       -0.00
  -0.00000024   0.00000000   0.00000046           -0.03        0.00        0.07

     kinetic stress (kbar)   1705.91      0.00     -0.01
                                0.00   1705.90      0.00
                               -0.01      0.00   1705.91

     local   stress (kbar)   -103.21     -0.00     -0.04
                               -0.00   -103.30      0.00
                               -0.04      0.00   -103.21

     nonloc. stress (kbar)   1683.51     -0.00     -0.02
                               -0.00   1683.52     -0.00
                               -0.02      0.00   1683.51

     hartree stress (kbar)      4.68      0.00      0.02
                                0.00      4.70     -0.00
                                0.02     -0.00      4.68

     exc-cor stress (kbar)   -699.73      0.00      0.00
                                0.00   -699.73      0.00
                                0.00      0.00   -699.73

     corecor stress (kbar)      0.00      0.00      0.00
                                0.00      0.00      0.00
                                0.00      0.00      0.00

     ewald   stress (kbar)  -2591.10      0.00      0.01
                                0.00  -2591.03      0.00
                                0.01      0.00  -2591.10

     hubbard stress (kbar)      0.00      0.00      0.00
                                0.00      0.00      0.00
                                0.00      0.00      0.00

     DFT-D   stress (kbar)      0.00      0.00      0.00
                                0.00      0.00      0.00
                                0.00      0.00      0.00

     XDM     stress (kbar)      0.00      0.00      0.00
                                0.00      0.00      0.00
                                0.00      0.00      0.00

     dft-nl  stress (kbar)      0.00      0.00      0.00
                                0.00      0.00      0.00
                                0.00      0.00      0.00

     TS-vdW  stress (kbar)      0.00      0.00      0.00
                                0.00      0.00      0.00
                                0.00      0.00      0.00

     MDB     stress (kbar)      0.00      0.00      0.00
                                0.00      0.00      0.00
                                0.00      0.00      0.00

     3D-RISM stress (kbar)      0.00      0.00      0.00
                                0.00      0.00      0.00
                                0.00      0.00      0.00


     Writing all to output data dir ./tmp/al.save/ :
     XML data file, charge density, pseudopotentials, collected wavefunctions
 
     init_run     :      1.00s CPU      1.04s WALL (       1 calls)
     electrons    :     18.50s CPU     18.96s WALL (       1 calls)
     forces       :      0.06s CPU      0.06s WALL (       1 calls)
     stress       :      0.24s CPU      0.25s WALL (       1 calls)

     Called by init_run:
     wfcinit      :      0.98s CPU      1.02s WALL (       1 calls)
     wfcinit:atom :      0.01s CPU      0.01s WALL (      95 calls)
     wfcinit:wfcr :      0.93s CPU      0.97s WALL (      95 calls)
     potinit      :      0.00s CPU      0.00s WALL (       1 calls)
     hinit0       :      0.00s CPU      0.00s WALL (       1 calls)

     Called by electrons:
     c_bands      :     15.67s CPU     16.07s WALL (      11 calls)
     sum_band     :      2.80s CPU      2.87s WALL (      11 calls)
     v_of_rho     :      0.01s CPU      0.01s WALL (      11 calls)
     v_h          :      0.00s CPU      0.00s WALL (      11 calls)
     v_xc         :      0.00s CPU      0.01s WALL (      11 calls)
     mix_rho      :      0.01s CPU      0.01s WALL (      11 calls)

     Called by c_bands:
     init_us_2    :      0.18s CPU      0.18s WALL (    2375 calls)
     cegterg      :     15.33s CPU     15.71s WALL (    1045 calls)

     Called by sum_band:
     sum_band:wei :      0.03s CPU      0.03s WALL (      11 calls)
     sum_band:loo :      2.77s CPU      2.83s WALL (      11 calls)
     sum_band:buf :      0.02s CPU      0.02s WALL (    1045 calls)
     sum_band:ini :      0.08s CPU      0.08s WALL (    1045 calls)

     Called by *egterg:
     cdiaghg      :      0.77s CPU      0.79s WALL (    3786 calls)
     cegterg:over :      0.58s CPU      0.59s WALL (    2836 calls)
     cegterg:upda :      0.21s CPU      0.21s WALL (    2836 calls)
     cegterg:last :      0.30s CPU      0.31s WALL (    1964 calls)
     h_psi        :     14.07s CPU     14.44s WALL (    3976 calls)
     g_psi        :      0.04s CPU      0.04s WALL (    2836 calls)

     Called by h_psi:
     h_psi:calbec :      0.35s CPU      0.36s WALL (    3976 calls)
     vloc_psi     :     13.37s CPU     13.72s WALL (    3976 calls)
                                        0.00s GPU  (    3976 calls)
     add_vuspsi   :      0.29s CPU      0.30s WALL (    3976 calls)

     General routines
     calbec       :      0.49s CPU      0.50s WALL (    5591 calls)
     fft          :      0.01s CPU      0.01s WALL (      38 calls)
     ffts         :      0.00s CPU      0.00s WALL (      11 calls)
     fftw         :     14.63s CPU     14.99s WALL (  118584 calls)
 
     Parallel routines
 
     PWSCF        :     19.87s CPU     20.44s WALL

 
   This run was terminated on:  21:37:51  22Sep2026            

=------------------------------------------------------------------------------=
   JOB DONE.
=------------------------------------------------------------------------------=
