
     Program PWSCF v.7.5 starts on 22Sep2026 at 23: 9:51 

     This program is part of the open-source Quantum ESPRESSO suite
     for quantum simulation of materials; please cite
         "P. Giannozzi et al., J. Phys.:Condens. Matter 21 395502 (2009);
         "P. Giannozzi et al., J. Phys.:Condens. Matter 29 465901 (2017);
         "P. Giannozzi et al., J. Chem. Phys. 152 154105 (2020);
          URL http://www.quantum-espresso.org", 
     in publications or presentations arising from this work. More details at
     http://www.quantum-espresso.org/quote

     Parallel version (MPI), running on     4 processors

     MPI processes distributed on     1 nodes
     2440 MiB available memory on the printing compute node when the environment starts

     Reading input from scf.in

     Current dimensions of program PWSCF are:
     Max number of different atomic species (ntypx) = 10
     Max number of k-points (npk) =  40000
     Max angular momentum in pseudopotentials (lmaxx) =  4
     Message from routine setup:
     using ibrav=0 with symmetry is DISCOURAGED, use correct ibrav instead

     R & G space division:  proc/nbgrp/npool/nimage =       4
     Subspace diagonalization in iterative solution of the eigenvalue problem:
     a serial algorithm will be used


     Parallelization info
     --------------------
     sticks:   dense  smooth     PW     G-vecs:    dense   smooth      PW
     Min         689     260     76                27281     6316    1034
     Max         690     261     77                27284     6319    1036
     Sum        2757    1041    305               109127    25269    4139

     Using Slab Decomposition



     bravais-lattice index     =            0
     lattice parameter (alat)  =       7.3715  a.u.
     unit-cell volume          =     400.5661 (a.u.)^3
     number of atoms/cell      =            4
     number of atomic types    =            2
     number of electrons       =        15.00
     number of Kohn-Sham states=           14
     kinetic-energy cutoff     =      60.0000  Ry
     charge density cutoff     =     640.0000  Ry
     scf convergence threshold =      1.0E-10
     mixing beta               =       0.7000
     number of iterations used =            8  plain     mixing
     Exchange-correlation= PBE
                           (   1   4   3   4   0   0   0)

     celldm(1)=   7.371537  celldm(2)=   0.000000  celldm(3)=   0.000000
     celldm(4)=   0.000000  celldm(5)=   0.000000  celldm(6)=   0.000000

     crystal axes: (cart. coord. in units of alat)
               a(1) = (   1.000000   0.000000   0.000000 )  
               a(2) = (   0.000000   1.000000   0.000000 )  
               a(3) = (   0.000000   0.000000   1.000000 )  

     reciprocal axes: (cart. coord. in units 2 pi/alat)
               b(1) = (  1.000000  0.000000  0.000000 )  
               b(2) = (  0.000000  1.000000  0.000000 )  
               b(3) = (  0.000000  0.000000  1.000000 )  


     PseudoPot. # 1 for Al read from file:
     ../../pseudo/Al.pbe-n-rrkjus_psl.1.0.0.UPF
     MD5 check sum: bbe9f3f15d9b3b5ab9a58e4859ebdbfe
     Pseudo is Ultrasoft + core correction, Zval =  3.0
     Generated using &quot;atomic&quot; code by A. Dal Corso  v.6.3
     Using radial grid of 1135 points,  6 beta functions with: 
                l(1) =   0
                l(2) =   0
                l(3) =   1
                l(4) =   1
                l(5) =   2
                l(6) =   2
     Q(r) pseudized with 0 coefficients 


     PseudoPot. # 2 for Si read from file:
     ../../pseudo/Si.pbe-n-rrkjus_psl.1.0.0.UPF
     MD5 check sum: fa25574f73a70a4139f2adfbefec430c
     Pseudo is Ultrasoft + core correction, Zval =  4.0
     Generated using &quot;atomic&quot; code by A. Dal Corso  v.6.3
     Using radial grid of 1141 points,  6 beta functions with: 
                l(1) =   0
                l(2) =   0
                l(3) =   1
                l(4) =   1
                l(5) =   2
                l(6) =   2
     Q(r) pseudized with 0 coefficients 


     atomic species   valence    mass     pseudopotential
     Al                3.00    26.98154     Al( 1.00)
     Si                4.00    28.08500     Si( 1.00)

     48 Sym. Ops., with inversion, found



   Cartesian axes

     site n.     atom                  positions (alat units)
         1        Al     tau(   1) = (   0.0000000   0.0000000   0.0000000  )
         2        Si     tau(   2) = (   0.0000000   0.5000000   0.5000000  )
         3        Si     tau(   3) = (   0.5000000   0.0000000   0.5000000  )
         4        Si     tau(   4) = (   0.5000000   0.5000000   0.0000000  )

     number of k points=   286  Marzari-Vanderbilt smearing, width (Ry)=  0.0100

     Number of k-points >= 100: set verbosity='high' to print them.

     Dense  grid:   109127 G-vectors     FFT dimensions: (  60,  60,  60)

     Smooth grid:    25269 G-vectors     FFT dimensions: (  40,  40,  40)

     Estimated max dynamical RAM per process >     152.52 MB

     Estimated total dynamical RAM >     610.07 MB

     The initial density is read from file :
     ./tmp/alsi3-l12.save/charge-density

     Starting wfcs are   16 randomized atomic wfcs

     total cpu time spent up to now is        7.6 secs

     per-process dynamical memory:    79.6 Mb

     Self-consistent Calculation

     iteration #  1     ecut=    60.00 Ry     beta= 0.70
     CG style diagonalization
     ethr =  1.00E-06,  avg # of iterations = 21.1

     Threshold (ethr) on eigenvalues was too large:
     Diagonalizing with lowered threshold

     CG style diagonalization
     ethr =  8.09E-08,  avg # of iterations =  4.5

     total cpu time spent up to now is      226.8 secs

     total energy              =     -39.19236426 Ry
     estimated scf accuracy    <       0.00001191 Ry

     iteration #  2     ecut=    60.00 Ry     beta= 0.70
     CG style diagonalization
     ethr =  7.94E-08,  avg # of iterations =  3.5

     total cpu time spent up to now is      253.7 secs

     total energy              =     -39.19236749 Ry
     estimated scf accuracy    <       0.00000345 Ry

     iteration #  3     ecut=    60.00 Ry     beta= 0.70
     CG style diagonalization
     ethr =  2.30E-08,  avg # of iterations =  3.3

     total cpu time spent up to now is      281.2 secs

     total energy              =     -39.19236837 Ry
     estimated scf accuracy    <       0.00000003 Ry

     iteration #  4     ecut=    60.00 Ry     beta= 0.70
     CG style diagonalization
     ethr =  2.23E-10,  avg # of iterations =  4.0

     total cpu time spent up to now is      312.7 secs

     total energy              =     -39.19236841 Ry
     estimated scf accuracy    <          5.6E-09 Ry

     iteration #  5     ecut=    60.00 Ry     beta= 0.70
     CG style diagonalization
     ethr =  3.73E-11,  avg # of iterations =  3.6

     total cpu time spent up to now is      339.4 secs

     total energy              =     -39.19236841 Ry
     estimated scf accuracy    <          3.8E-09 Ry

     iteration #  6     ecut=    60.00 Ry     beta= 0.70
     CG style diagonalization
     ethr =  2.53E-11,  avg # of iterations =  3.1

     total cpu time spent up to now is      361.8 secs

     End of self-consistent calculation

     Number of k-points >= 100: set verbosity='high' to print the bands.

     the Fermi energy is    10.0806 ev

!    total energy              =     -39.19236841 Ry
     estimated scf accuracy    <          9.6E-11 Ry
     smearing contrib. (-TS)   =       0.00001499 Ry
     internal energy E=F+TS    =     -39.19238340 Ry

     The total energy is F=E-TS. E is the sum of the following terms:
     one-electron contribution =      16.87497544 Ry
     hartree contribution      =       0.28597682 Ry
     xc contribution           =     -21.13821434 Ry
     ewald contribution        =     -35.21512132 Ry

     convergence has been achieved in   6 iterations

     Forces acting on atoms (cartesian axes, Ry/au):

     atom    1 type  1   force =     0.00000000    0.00000000    0.00000000
     atom    2 type  2   force =     0.00000000    0.00000000    0.00000000
     atom    3 type  2   force =     0.00000000    0.00000000    0.00000000
     atom    4 type  2   force =     0.00000000    0.00000000    0.00000000

     Total force =     0.000000     Total SCF correction =     0.000000


     Computing stress (Cartesian axis) and pressure

          total   stress  (Ry/bohr**3)                   (kbar)     P=       -1.01
  -0.00000688   0.00000000   0.00000000           -1.01        0.00        0.00
   0.00000000  -0.00000688   0.00000000            0.00       -1.01        0.00
   0.00000000   0.00000000  -0.00000688            0.00        0.00       -1.01


     Writing all to output data dir ./tmp/alsi3-l12.save/ :
     XML data file, charge density, pseudopotentials, collected wavefunctions

     init_run     :      6.92s CPU      7.24s WALL (       1 calls)
     electrons    :    341.32s CPU    354.23s WALL (       1 calls)
     forces       :      3.53s CPU      3.61s WALL (       1 calls)
     stress       :     13.21s CPU     13.49s WALL (       1 calls)

     Called by init_run:
     wfcinit      :      5.90s CPU      6.12s WALL (       1 calls)
     potinit      :      0.19s CPU      0.20s WALL (       1 calls)
     hinit0       :      0.50s CPU      0.51s WALL (       1 calls)

     Called by electrons:
     c_bands      :    324.46s CPU    335.75s WALL (       7 calls)
     sum_band     :     15.12s CPU     16.28s WALL (       7 calls)
     v_of_rho     :      0.28s CPU      0.29s WALL (       7 calls)
     newd         :      1.70s CPU      2.24s WALL (       7 calls)
     mix_rho      :      0.03s CPU      0.03s WALL (       7 calls)

     Called by c_bands:
     init_us_2    :      2.77s CPU      2.81s WALL (    4862 calls)
     ccgdiagg     :    300.57s CPU    311.01s WALL (    2002 calls)
     wfcrot       :     27.67s CPU     28.70s WALL (    1716 calls)

     Called by *cgdiagg:
     h_psi        :    187.34s CPU    195.97s WALL (  153862 calls)
     s_psi        :     66.96s CPU     68.55s WALL (  306008 calls)

     Called by h_psi:
     h_psi:calbec :     50.36s CPU     53.12s WALL (  153862 calls)
     vloc_psi     :     95.51s CPU     99.71s WALL (  153862 calls)
                                        0.00s GPU  (  153862 calls)
     add_vuspsi   :     39.73s CPU     41.45s WALL (  153862 calls)
     hs_1psi      :    201.64s CPU    210.34s WALL (  152146 calls)
     s_1psi       :     73.01s CPU     74.14s WALL (  152146 calls)

     General routines
     calbec       :    108.55s CPU    112.36s WALL (  312872 calls)
     fft          :      0.38s CPU      0.40s WALL (     115 calls)
     ffts         :      0.15s CPU      0.15s WALL (      14 calls)
     fftw         :     83.28s CPU     87.31s WALL (  381512 calls)
     interpolate  :      0.16s CPU      0.17s WALL (       7 calls)

     Parallel routines

     PWSCF        :   6m 5.44s CPU   6m19.20s WALL


   This run was terminated on:  23:16:10  22Sep2026            

=------------------------------------------------------------------------------=
   JOB DONE.
=------------------------------------------------------------------------------=
