
     Program PWSCF v.7.5 starts on 22Sep2026 at 22:43:38 

     This program is part of the open-source Quantum ESPRESSO suite
     for quantum simulation of materials; please cite
         "P. Giannozzi et al., J. Phys.:Condens. Matter 21 395502 (2009);
         "P. Giannozzi et al., J. Phys.:Condens. Matter 29 465901 (2017);
         "P. Giannozzi et al., J. Chem. Phys. 152 154105 (2020);
          URL http://www.quantum-espresso.org", 
     in publications or presentations arising from this work. More details at
     http://www.quantum-espresso.org/quote

     Parallel version (MPI), running on     4 processors

     MPI processes distributed on     1 nodes
     4679 MiB available memory on the printing compute node when the environment starts

     Reading input from scf.in

     Current dimensions of program PWSCF are:
     Max number of different atomic species (ntypx) = 10
     Max number of k-points (npk) =  40000
     Max angular momentum in pseudopotentials (lmaxx) =  4
     Message from routine setup:
     using ibrav=0 with symmetry is DISCOURAGED, use correct ibrav instead

     R & G space division:  proc/nbgrp/npool/nimage =       4
     Subspace diagonalization in iterative solution of the eigenvalue problem:
     a serial algorithm will be used


     Parallelization info
     --------------------
     sticks:   dense  smooth     PW     G-vecs:    dense   smooth      PW
     Min         450     168     53                14468     3324     581
     Max         451     169     54                14469     3329     582
     Sum        1801     673    213                57873    13301    2325

     Using Slab Decomposition



     bravais-lattice index     =            0
     lattice parameter (alat)  =       5.9670  a.u.
     unit-cell volume          =     212.4576 (a.u.)^3
     number of atoms/cell      =            2
     number of atomic types    =            2
     number of electrons       =         7.00
     number of Kohn-Sham states=           10
     kinetic-energy cutoff     =      60.0000  Ry
     charge density cutoff     =     640.0000  Ry
     scf convergence threshold =      1.0E-10
     mixing beta               =       0.7000
     number of iterations used =            8  plain     mixing
     Exchange-correlation= PBE
                           (   1   4   3   4   0   0   0)

     celldm(1)=   5.967019  celldm(2)=   0.000000  celldm(3)=   0.000000
     celldm(4)=   0.000000  celldm(5)=   0.000000  celldm(6)=   0.000000

     crystal axes: (cart. coord. in units of alat)
               a(1) = (   1.000000   0.000000   0.000000 )  
               a(2) = (   0.000000   1.000000   0.000000 )  
               a(3) = (   0.000000   0.000000   1.000000 )  

     reciprocal axes: (cart. coord. in units 2 pi/alat)
               b(1) = (  1.000000  0.000000  0.000000 )  
               b(2) = (  0.000000  1.000000  0.000000 )  
               b(3) = (  0.000000  0.000000  1.000000 )  


     PseudoPot. # 1 for Al read from file:
     ../../pseudo/Al.pbe-n-rrkjus_psl.1.0.0.UPF
     MD5 check sum: bbe9f3f15d9b3b5ab9a58e4859ebdbfe
     Pseudo is Ultrasoft + core correction, Zval =  3.0
     Generated using &quot;atomic&quot; code by A. Dal Corso  v.6.3
     Using radial grid of 1135 points,  6 beta functions with: 
                l(1) =   0
                l(2) =   0
                l(3) =   1
                l(4) =   1
                l(5) =   2
                l(6) =   2
     Q(r) pseudized with 0 coefficients 


     PseudoPot. # 2 for Si read from file:
     ../../pseudo/Si.pbe-n-rrkjus_psl.1.0.0.UPF
     MD5 check sum: fa25574f73a70a4139f2adfbefec430c
     Pseudo is Ultrasoft + core correction, Zval =  4.0
     Generated using &quot;atomic&quot; code by A. Dal Corso  v.6.3
     Using radial grid of 1141 points,  6 beta functions with: 
                l(1) =   0
                l(2) =   0
                l(3) =   1
                l(4) =   1
                l(5) =   2
                l(6) =   2
     Q(r) pseudized with 0 coefficients 


     atomic species   valence    mass     pseudopotential
     Al                3.00    26.98154     Al( 1.00)
     Si                4.00    28.08500     Si( 1.00)

     48 Sym. Ops., with inversion, found



   Cartesian axes

     site n.     atom                  positions (alat units)
         1        Al     tau(   1) = (   0.0000000   0.0000000   0.0000000  )
         2        Si     tau(   2) = (   0.5000000   0.5000000   0.5000000  )

     number of k points=    84  Marzari-Vanderbilt smearing, width (Ry)=  0.0100
                       cart. coord. in units 2pi/alat
        k(    1) = (   0.0000000   0.0000000   0.0000000), wk =   0.0011574
        k(    2) = (   0.0000000   0.0000000   0.0833333), wk =   0.0069444
        k(    3) = (   0.0000000   0.0000000   0.1666667), wk =   0.0069444
        k(    4) = (   0.0000000   0.0000000   0.2500000), wk =   0.0069444
        k(    5) = (   0.0000000   0.0000000   0.3333333), wk =   0.0069444
        k(    6) = (   0.0000000   0.0000000   0.4166667), wk =   0.0069444
        k(    7) = (   0.0000000   0.0000000  -0.5000000), wk =   0.0034722
        k(    8) = (   0.0000000   0.0833333   0.0833333), wk =   0.0138889
        k(    9) = (   0.0000000   0.0833333   0.1666667), wk =   0.0277778
        k(   10) = (   0.0000000   0.0833333   0.2500000), wk =   0.0277778
        k(   11) = (   0.0000000   0.0833333   0.3333333), wk =   0.0277778
        k(   12) = (   0.0000000   0.0833333   0.4166667), wk =   0.0277778
        k(   13) = (   0.0000000   0.0833333  -0.5000000), wk =   0.0138889
        k(   14) = (   0.0000000   0.1666667   0.1666667), wk =   0.0138889
        k(   15) = (   0.0000000   0.1666667   0.2500000), wk =   0.0277778
        k(   16) = (   0.0000000   0.1666667   0.3333333), wk =   0.0277778
        k(   17) = (   0.0000000   0.1666667   0.4166667), wk =   0.0277778
        k(   18) = (   0.0000000   0.1666667  -0.5000000), wk =   0.0138889
        k(   19) = (   0.0000000   0.2500000   0.2500000), wk =   0.0138889
        k(   20) = (   0.0000000   0.2500000   0.3333333), wk =   0.0277778
        k(   21) = (   0.0000000   0.2500000   0.4166667), wk =   0.0277778
        k(   22) = (   0.0000000   0.2500000  -0.5000000), wk =   0.0138889
        k(   23) = (   0.0000000   0.3333333   0.3333333), wk =   0.0138889
        k(   24) = (   0.0000000   0.3333333   0.4166667), wk =   0.0277778
        k(   25) = (   0.0000000   0.3333333  -0.5000000), wk =   0.0138889
        k(   26) = (   0.0000000   0.4166667   0.4166667), wk =   0.0138889
        k(   27) = (   0.0000000   0.4166667  -0.5000000), wk =   0.0138889
        k(   28) = (   0.0000000  -0.5000000  -0.5000000), wk =   0.0034722
        k(   29) = (   0.0833333   0.0833333   0.0833333), wk =   0.0092593
        k(   30) = (   0.0833333   0.0833333   0.1666667), wk =   0.0277778
        k(   31) = (   0.0833333   0.0833333   0.2500000), wk =   0.0277778
        k(   32) = (   0.0833333   0.0833333   0.3333333), wk =   0.0277778
        k(   33) = (   0.0833333   0.0833333   0.4166667), wk =   0.0277778
        k(   34) = (   0.0833333   0.0833333  -0.5000000), wk =   0.0138889
        k(   35) = (   0.0833333   0.1666667   0.1666667), wk =   0.0277778
        k(   36) = (   0.0833333   0.1666667   0.2500000), wk =   0.0555556
        k(   37) = (   0.0833333   0.1666667   0.3333333), wk =   0.0555556
        k(   38) = (   0.0833333   0.1666667   0.4166667), wk =   0.0555556
        k(   39) = (   0.0833333   0.1666667  -0.5000000), wk =   0.0277778
        k(   40) = (   0.0833333   0.2500000   0.2500000), wk =   0.0277778
        k(   41) = (   0.0833333   0.2500000   0.3333333), wk =   0.0555556
        k(   42) = (   0.0833333   0.2500000   0.4166667), wk =   0.0555556
        k(   43) = (   0.0833333   0.2500000  -0.5000000), wk =   0.0277778
        k(   44) = (   0.0833333   0.3333333   0.3333333), wk =   0.0277778
        k(   45) = (   0.0833333   0.3333333   0.4166667), wk =   0.0555556
        k(   46) = (   0.0833333   0.3333333  -0.5000000), wk =   0.0277778
        k(   47) = (   0.0833333   0.4166667   0.4166667), wk =   0.0277778
        k(   48) = (   0.0833333   0.4166667  -0.5000000), wk =   0.0277778
        k(   49) = (   0.0833333  -0.5000000  -0.5000000), wk =   0.0069444
        k(   50) = (   0.1666667   0.1666667   0.1666667), wk =   0.0092593
        k(   51) = (   0.1666667   0.1666667   0.2500000), wk =   0.0277778
        k(   52) = (   0.1666667   0.1666667   0.3333333), wk =   0.0277778
        k(   53) = (   0.1666667   0.1666667   0.4166667), wk =   0.0277778
        k(   54) = (   0.1666667   0.1666667  -0.5000000), wk =   0.0138889
        k(   55) = (   0.1666667   0.2500000   0.2500000), wk =   0.0277778
        k(   56) = (   0.1666667   0.2500000   0.3333333), wk =   0.0555556
        k(   57) = (   0.1666667   0.2500000   0.4166667), wk =   0.0555556
        k(   58) = (   0.1666667   0.2500000  -0.5000000), wk =   0.0277778
        k(   59) = (   0.1666667   0.3333333   0.3333333), wk =   0.0277778
        k(   60) = (   0.1666667   0.3333333   0.4166667), wk =   0.0555556
        k(   61) = (   0.1666667   0.3333333  -0.5000000), wk =   0.0277778
        k(   62) = (   0.1666667   0.4166667   0.4166667), wk =   0.0277778
        k(   63) = (   0.1666667   0.4166667  -0.5000000), wk =   0.0277778
        k(   64) = (   0.1666667  -0.5000000  -0.5000000), wk =   0.0069444
        k(   65) = (   0.2500000   0.2500000   0.2500000), wk =   0.0092593
        k(   66) = (   0.2500000   0.2500000   0.3333333), wk =   0.0277778
        k(   67) = (   0.2500000   0.2500000   0.4166667), wk =   0.0277778
        k(   68) = (   0.2500000   0.2500000  -0.5000000), wk =   0.0138889
        k(   69) = (   0.2500000   0.3333333   0.3333333), wk =   0.0277778
        k(   70) = (   0.2500000   0.3333333   0.4166667), wk =   0.0555556
        k(   71) = (   0.2500000   0.3333333  -0.5000000), wk =   0.0277778
        k(   72) = (   0.2500000   0.4166667   0.4166667), wk =   0.0277778
        k(   73) = (   0.2500000   0.4166667  -0.5000000), wk =   0.0277778
        k(   74) = (   0.2500000  -0.5000000  -0.5000000), wk =   0.0069444
        k(   75) = (   0.3333333   0.3333333   0.3333333), wk =   0.0092593
        k(   76) = (   0.3333333   0.3333333   0.4166667), wk =   0.0277778
        k(   77) = (   0.3333333   0.3333333  -0.5000000), wk =   0.0138889
        k(   78) = (   0.3333333   0.4166667   0.4166667), wk =   0.0277778
        k(   79) = (   0.3333333   0.4166667  -0.5000000), wk =   0.0277778
        k(   80) = (   0.3333333  -0.5000000  -0.5000000), wk =   0.0069444
        k(   81) = (   0.4166667   0.4166667   0.4166667), wk =   0.0092593
        k(   82) = (   0.4166667   0.4166667  -0.5000000), wk =   0.0138889
        k(   83) = (   0.4166667  -0.5000000  -0.5000000), wk =   0.0069444
        k(   84) = (  -0.5000000  -0.5000000  -0.5000000), wk =   0.0011574

     Dense  grid:    57873 G-vectors     FFT dimensions: (  50,  50,  50)

     Smooth grid:    13301 G-vectors     FFT dimensions: (  30,  30,  30)

     Estimated max dynamical RAM per process >      62.66 MB

     Estimated total dynamical RAM >     250.65 MB

     Initial potential from superposition of free atoms

     starting charge       6.9972, renormalised to       7.0000
     Starting wfcs are    8 randomized atomic wfcs +    2 random wfcs

     total cpu time spent up to now is        1.4 secs

     per-process dynamical memory:    29.3 Mb

     Self-consistent Calculation

     iteration #  1     ecut=    60.00 Ry     beta= 0.70
     CG style diagonalization
     c_bands:  1 eigenvalues not converged
     ethr =  1.00E-10,  avg # of iterations = 46.1

     total cpu time spent up to now is       27.4 secs

     total energy              =     -16.41982644 Ry
     estimated scf accuracy    <       0.01024702 Ry

     iteration #  2     ecut=    60.00 Ry     beta= 0.70
     CG style diagonalization
     ethr =  1.46E-04,  avg # of iterations =  3.0

     total cpu time spent up to now is       29.3 secs

     total energy              =     -16.42026868 Ry
     estimated scf accuracy    <       0.00064148 Ry

     iteration #  3     ecut=    60.00 Ry     beta= 0.70
     CG style diagonalization
     ethr =  9.16E-06,  avg # of iterations =  3.0

     total cpu time spent up to now is       31.2 secs

     total energy              =     -16.42033154 Ry
     estimated scf accuracy    <       0.00002998 Ry

     iteration #  4     ecut=    60.00 Ry     beta= 0.70
     CG style diagonalization
     ethr =  4.28E-07,  avg # of iterations =  3.5

     total cpu time spent up to now is       33.5 secs

     total energy              =     -16.42034597 Ry
     estimated scf accuracy    <       0.00000150 Ry

     iteration #  5     ecut=    60.00 Ry     beta= 0.70
     CG style diagonalization
     ethr =  2.14E-08,  avg # of iterations =  3.4

     total cpu time spent up to now is       35.6 secs

     total energy              =     -16.42034558 Ry
     estimated scf accuracy    <       0.00000247 Ry

     iteration #  6     ecut=    60.00 Ry     beta= 0.70
     CG style diagonalization
     ethr =  2.14E-08,  avg # of iterations =  3.0

     total cpu time spent up to now is       37.6 secs

     total energy              =     -16.42034570 Ry
     estimated scf accuracy    <       0.00000001 Ry

     iteration #  7     ecut=    60.00 Ry     beta= 0.70
     CG style diagonalization
     ethr =  1.67E-10,  avg # of iterations =  3.7

     total cpu time spent up to now is       39.9 secs

     total energy              =     -16.42034573 Ry
     estimated scf accuracy    <          1.0E-09 Ry

     iteration #  8     ecut=    60.00 Ry     beta= 0.70
     CG style diagonalization
     ethr =  1.45E-11,  avg # of iterations =  3.1

     total cpu time spent up to now is       41.9 secs

     total energy              =     -16.42034573 Ry
     estimated scf accuracy    <          1.9E-10 Ry

     iteration #  9     ecut=    60.00 Ry     beta= 0.70
     CG style diagonalization
     ethr =  2.70E-12,  avg # of iterations =  3.2

     total cpu time spent up to now is       43.9 secs

     End of self-consistent calculation

          k = 0.0000 0.0000 0.0000 (  1743 PWs)   bands (ev):

    -3.7219   9.4762   9.4762   9.4762  11.6884  11.6884  12.1699  21.7460
    21.7460  21.9738

          k = 0.0000 0.0000 0.0833 (  1691 PWs)   bands (ev):

    -3.6216   8.1620   9.5625   9.5625  11.7911  12.0854  13.3417  20.2880
    20.2880  21.4719

          k = 0.0000 0.0000 0.1667 (  1683 PWs)   bands (ev):

    -3.3218   6.2658   9.8198   9.8198  12.0991  12.3910  15.6769  18.6384
    18.6384  20.4155

          k = 0.0000 0.0000 0.2500 (  1687 PWs)   bands (ev):

    -2.8261   4.4646  10.2415  10.2415  12.6115  12.8628  17.0586  17.0586
    17.9947  19.4505

          k = 0.0000 0.0000 0.3333 (  1675 PWs)   bands (ev):

    -2.1449   2.8364  10.8075  10.8075  13.3259  13.4997  15.6377  15.6377
    17.6992  18.2772

          k = 0.0000 0.0000 0.4167 (  1670 PWs)   bands (ev):

    -1.3190   1.4385  11.4436  11.4436  14.2321  14.2601  14.4801  14.4801
    16.6113  16.7691

          k = 0.0000 0.0000-0.5000 (  1654 PWs)   bands (ev):

    -0.7135   0.6419  11.8153  11.8153  13.9334  13.9334  14.8180  15.0873
    15.7128  15.9322

          k = 0.0000 0.0833 0.0833 (  1685 PWs)   bands (ev):

    -3.5214   8.2122   8.2962   9.6489  12.0319  13.3253  13.5179  19.1914
    20.0101  21.0680

          k = 0.0000 0.0833 0.1667 (  1680 PWs)   bands (ev):

    -3.2218   6.3594   8.5279   9.9062  12.3371  13.6966  15.7506  17.5585
    18.6776  20.7372

          k = 0.0000 0.0833 0.2500 (  1680 PWs)   bands (ev):

    -2.7265   4.5601   8.9754  10.3279  12.8300  14.1379  15.8980  17.1365
    18.2128  19.6677

          k = 0.0000 0.0833 0.3333 (  1674 PWs)   bands (ev):

    -2.0458   2.9331   9.5826  10.8938  13.5018  14.2646  14.9490  15.7240
    17.9907  19.3618

          k = 0.0000 0.0833 0.4167 (  1672 PWs)   bands (ev):

    -1.2208   1.5365  10.2873  11.5295  13.1214  14.3505  14.5692  15.6035
    16.7760  18.1095

          k = 0.0000 0.0833-0.5000 (  1672 PWs)   bands (ev):

    -0.6165   0.7411  10.7348  11.9005  12.5081  14.0236  15.0256  15.9152
    16.1890  17.3888

          k = 0.0000 0.1667 0.1667 (  1691 PWs)   bands (ev):

    -2.9229   6.5957   6.6862  10.1637  12.6393  15.5012  16.0387  16.3612
    18.5140  19.7803

          k = 0.0000 0.1667 0.2500 (  1681 PWs)   bands (ev):

    -2.4287   4.8451   7.1039  10.5854  13.1224  14.0531  16.5409  17.3436
    18.4807  19.7872

          k = 0.0000 0.1667 0.3333 (  1661 PWs)   bands (ev):

    -1.7497   3.2221   7.7335  11.1508  12.5385  13.8111  15.9783  17.1114
    18.2583  20.3307

          k = 0.0000 0.1667 0.4167 (  1664 PWs)   bands (ev):

    -0.9273   1.8292   8.4774  11.2650  11.7846  14.6341  14.8352  16.9928
    17.8524  20.2403

          k = 0.0000 0.1667-0.5000 (  1662 PWs)   bands (ev):

    -0.3264   1.0376   8.9739  10.5896  12.1530  14.2943  15.3144  16.1844
    18.2929  19.6929

          k = 0.0000 0.2500 0.2500 (  1644 PWs)   bands (ev):

    -1.9365   5.2859   5.3467  11.0067  12.3496  13.6240  17.3741  18.5703
    18.7732  18.8932

          k = 0.0000 0.2500 0.3333 (  1652 PWs)   bands (ev):

    -1.2604   3.6992   5.9596  10.8106  11.5705  14.2848  16.3723  18.5091
    18.7364  19.4933

          k = 0.0000 0.2500 0.4167 (  1658 PWs)   bands (ev):

    -0.4423   2.3126   6.7249   9.4992  12.1997  15.1024  15.2734  17.4139
    19.4043  19.9384

          k = 0.0000 0.2500-0.5000 (  1658 PWs)   bands (ev):

     0.1530   1.5273   7.2488   8.7923  12.5619  14.7447  15.7796  16.6122
    19.9036  20.1658

          k = 0.0000 0.3333 0.3333 (  1654 PWs)   bands (ev):

    -0.5885   4.3400   4.3648   9.2416  12.1299  14.9392  16.6195  17.6487
    18.6353  19.9683

          k = 0.0000 0.3333 0.4167 (  1658 PWs)   bands (ev):

     0.2233   2.9750   5.1335   7.9057  12.7476  15.7447  15.8630  17.9116
    17.9833  20.0528

          k = 0.0000 0.3333-0.5000 (  1670 PWs)   bands (ev):

     0.8106   2.1986   5.6773   7.1762  13.0958  15.3729  16.4207  17.1638
    18.4675  19.7777

          k = 0.0000 0.4167 0.4167 (  1660 PWs)   bands (ev):

     1.0261   3.7700   3.7703   6.5480  13.3385  16.3824  16.5343  17.0809
    18.1857  19.3118

          k = 0.0000 0.4167-0.5000 (  1668 PWs)   bands (ev):

     1.6026   3.0060   4.3308   5.7992  13.6569  16.1676  17.2245  17.3612
    17.7355  18.4425

          k = 0.0000-0.5000-0.5000 (  1652 PWs)   bands (ev):

     2.1678   3.5801   3.5801   5.0349  13.9462  16.8896  16.8896  17.5399
    18.0270  18.0270

          k = 0.0833 0.0833 0.0833 (  1686 PWs)   bands (ev):

    -3.4213   8.3035   8.3035   8.4321  13.4213  13.4213  13.6749  18.9402
    19.4952  19.4952

          k = 0.0833 0.0833 0.1667 (  1679 PWs)   bands (ev):

    -3.1219   6.4529   8.5764   8.6635  13.7062  13.8564  15.8234  17.5681
    17.7113  19.5853

          k = 0.0833 0.0833 0.2500 (  1681 PWs)   bands (ev):

    -2.6270   4.6554   9.0260   9.1082  14.1585  14.2868  15.9171  16.0618
    18.4127  19.7693

          k = 0.0833 0.0833 0.3333 (  1668 PWs)   bands (ev):

    -1.9468   3.0297   9.6377   9.7095  14.2782  14.4001  14.9914  15.1038
    18.8990  19.7417

          k = 0.0833 0.0833 0.4167 (  1668 PWs)   bands (ev):

    -1.1227   1.6343  10.3532  10.4014  13.1651  13.2674  15.6172  15.7885
    18.0065  18.3471

          k = 0.0833 0.0833-0.5000 (  1674 PWs)   bands (ev):

    -0.5195   0.8402  10.8160  10.8317  12.5326  12.6717  16.0657  16.4394
    17.4558  17.4941

          k = 0.0833 0.1667 0.1667 (  1680 PWs)   bands (ev):

    -2.8232   6.6888   6.7798   8.8932  14.0541  15.5791  16.1078  16.4491
    17.6793  18.1813

          k = 0.0833 0.1667 0.2500 (  1677 PWs)   bands (ev):

    -2.3294   4.9403   7.1970   9.3396  14.1161  14.5120  16.2337  16.6283
    18.2699  18.8217

          k = 0.0833 0.1667 0.3333 (  1669 PWs)   bands (ev):

    -1.6509   3.3186   7.8262   9.9446  12.6340  14.6040  15.3190  17.1893
    18.6954  20.0401

          k = 0.0833 0.1667 0.4167 (  1664 PWs)   bands (ev):

    -0.8293   1.9268   8.5696  10.6449  11.3587  13.4895  15.9530  17.8299
    18.3619  19.8593

          k = 0.0833 0.1667-0.5000 (  1662 PWs)   bands (ev):

    -0.2294   1.1364   9.0656  10.6817  11.0891  12.8807  16.4560  17.7203
    18.3368  19.7427

          k = 0.0833 0.2500 0.2500 (  1664 PWs)   bands (ev):

    -1.8375   5.3795   5.4429   9.7847  12.4457  14.9240  16.5461  16.8363
    18.9951  19.3204

          k = 0.0833 0.2500 0.3333 (  1665 PWs)   bands (ev):

    -1.1619   3.7953   6.0541  10.3861  10.9063  15.0192  15.7644  17.2679
    19.6298  20.1681

          k = 0.0833 0.2500 0.4167 (  1661 PWs)   bands (ev):

    -0.3445   2.4098   6.8187   9.5926  11.0857  13.9338  16.3427  17.8705
    19.1692  20.1117

          k = 0.0833 0.2500-0.5000 (  1666 PWs)   bands (ev):

     0.2499   1.6255   7.3420   8.8866  11.5227  13.3331  16.7774  18.0887
    18.7485  20.1395

          k = 0.0833 0.3333 0.3333 (  1658 PWs)   bands (ev):

    -0.4904   4.4338   4.4624   9.3352  10.9878  15.3989  15.9636  16.4992
    20.2381  20.4179

          k = 0.0833 0.3333 0.4167 (  1657 PWs)   bands (ev):

     0.3208   3.0716   5.2285   8.0005  11.6763  14.5342  16.3061  17.2435
    19.2124  19.6950

          k = 0.0833 0.3333-0.5000 (  1662 PWs)   bands (ev):

     0.9075   2.2960   5.7713   7.2721  12.1031  13.9539  16.6343  18.1647
    18.1796  19.2009

          k = 0.0833 0.4167 0.4167 (  1666 PWs)   bands (ev):

     1.1233   3.8641   3.8674   6.6441  12.3478  15.1201  15.4147  17.5334
    18.4219  19.9936

          k = 0.0833 0.4167-0.5000 (  1668 PWs)   bands (ev):

     1.6996   3.1020   4.4251   5.8967  12.7526  14.6996  15.7414  17.2133
    18.6635  19.5229

          k = 0.0833-0.5000-0.5000 (  1656 PWs)   bands (ev):

     2.2654   3.6739   3.6739   5.1346  13.1308  15.2296  15.2296  16.5405
    19.3151  19.8356

          k = 0.1667 0.1667 0.1667 (  1683 PWs)   bands (ev):

    -2.5251   6.9671   6.9671   7.1122  15.6598  15.9332  15.9332  16.7148
    16.7572  16.7572

          k = 0.1667 0.1667 0.2500 (  1667 PWs)   bands (ev):

    -2.0324   5.2245   7.4268   7.5281  14.3853  14.4065  16.2682  17.0119
    17.1521  19.0255

          k = 0.1667 0.1667 0.3333 (  1664 PWs)   bands (ev):

    -1.3556   3.6068   8.0562   8.1544  12.8726  12.9426  16.7637  17.6356
    17.7558  21.0574

          k = 0.1667 0.1667 0.4167 (  1670 PWs)   bands (ev):

    -0.5363   2.2186   8.8056   8.8869  11.5693  11.7026  17.2617  18.4118
    18.5125  20.5280

          k = 0.1667 0.1667-0.5000 (  1664 PWs)   bands (ev):

     0.0606   1.4316   9.3159   9.3635  10.8733  11.0549  17.4997  18.9777
    19.2080  19.7373

          k = 0.1667 0.2500 0.2500 (  1666 PWs)   bands (ev):

    -1.5415   5.6595   5.7298   7.9384  12.7196  14.7485  14.9295  17.3947
    19.1749  19.6347

          k = 0.1667 0.2500 0.3333 (  1660 PWs)   bands (ev):

    -0.8674   4.0825   6.3363   8.5642  11.1811  13.3551  15.4253  17.9171
    19.6006  20.8741

          k = 0.1667 0.2500 0.4167 (  1671 PWs)   bands (ev):

    -0.0521   2.7004   7.0990   9.3009   9.8732  12.0922  16.0798  18.2936
    19.3986  21.0209

          k = 0.1667 0.2500-0.5000 (  1664 PWs)   bands (ev):

     0.5397   1.9190   7.6203   9.1673   9.7910  11.4269  16.4691  18.1442
    19.5409  20.7675

          k = 0.1667 0.3333 0.3333 (  1657 PWs)   bands (ev):

    -0.1972   4.7144   4.7535   9.1855   9.6175  13.9037  14.0219  18.0474
    19.3069  22.4251

          k = 0.1667 0.3333 0.4167 (  1664 PWs)   bands (ev):

     0.6124   3.3603   5.5121   8.2832   9.9205  12.7081  14.6660  17.3058
    19.6128  21.8574

          k = 0.1667 0.3333-0.5000 (  1676 PWs)   bands (ev):

     1.1972   2.5869   6.0524   7.5578  10.4034  12.0500  15.1143  16.7512
    20.0536  21.2584

          k = 0.1667 0.4167 0.4167 (  1673 PWs)   bands (ev):

     1.4139   4.1448   4.1584   6.9309  10.6450  13.3999  13.4654  16.1493
    20.2486  22.3409

          k = 0.1667 0.4167-0.5000 (  1666 PWs)   bands (ev):

     1.9896   3.3888   4.7072   6.1877  11.1185  12.7865  13.9087  15.5168
    20.7383  21.8571

          k = 0.1667-0.5000-0.5000 (  1672 PWs)   bands (ev):

     2.5570   3.9547   3.9547   5.4319  11.5806  13.2787  13.2787  14.8552
    21.2588  22.2131

          k = 0.2500 0.2500 0.2500 (  1658 PWs)   bands (ev):

    -1.0524   6.1224   6.1224   6.2462  13.1666  13.1666  13.1709  18.8199
    20.0959  20.0959

          k = 0.2500 0.2500 0.3333 (  1670 PWs)   bands (ev):

    -0.3807   4.5564   6.7575   6.8496  11.5925  11.6809  13.7747  18.1765
    20.7129  20.9550

          k = 0.2500 0.2500 0.4167 (  1670 PWs)   bands (ev):

     0.4310   3.1800   7.5181   7.6076  10.2654  10.4041  14.4785  17.1618
    21.4111  21.4298

          k = 0.2500 0.2500-0.5000 (  1674 PWs)   bands (ev):

     1.0185   2.4036   8.0456   8.1150   9.5487   9.7224  14.9289  16.5816
    21.7758  21.8958

          k = 0.2500 0.3333 0.3333 (  1663 PWs)   bands (ev):

     0.2874   5.1784   5.2325   7.4409  10.0757  12.2417  12.2695  16.9182
    21.3375  23.1556

          k = 0.2500 0.3333 0.4167 (  1663 PWs)   bands (ev):

     1.0940   3.8369   5.9802   8.1957   8.7493  10.9625  12.9778  15.7318
    21.9813  23.7799

          k = 0.2500 0.3333-0.5000 (  1676 PWs)   bands (ev):

     1.6758   3.0672   6.5165   8.0273   8.7091  10.2697  13.4485  15.0998
    22.4170  23.6913

          k = 0.2500 0.4167 0.4167 (  1667 PWs)   bands (ev):

     1.8939   4.6092   4.6380   7.4027   8.9464  11.6796  11.7112  14.4908
    22.6406  24.6497

          k = 0.2500 0.4167-0.5000 (  1664 PWs)   bands (ev):

     2.4687   3.8623   5.1735   6.6659   9.4552  11.0077  12.1765  13.8380
    23.0766  24.2982

          k = 0.2500-0.5000-0.5000 (  1672 PWs)   bands (ev):

     3.0387   4.4192   4.4192   5.9197   9.9634  11.4914  11.4914  13.1784
    23.5021  24.6396

          k = 0.3333 0.3333 0.3333 (  1673 PWs)   bands (ev):

     0.9525   5.8156   5.8156   5.9239  10.6571  10.6571  10.7980  15.4828
    23.6296  23.9724

          k = 0.3333 0.3333 0.4167 (  1677 PWs)   bands (ev):

     1.7551   4.4892   6.5805   6.6640   9.3215   9.4466  11.4407  14.2394
    24.3378  24.5733

          k = 0.3333 0.3333-0.5000 (  1662 PWs)   bands (ev):

     2.3328   3.7248   7.1146   7.1928   8.5968   8.7414  11.9214  13.5858
    24.7401  24.8933

          k = 0.3333 0.4167 0.4167 (  1660 PWs)   bands (ev):

     2.5527   5.2471   5.2929   7.3883   8.0435  10.0911  10.1683  12.9701
    25.0897  26.2797

          k = 0.3333 0.4167-0.5000 (  1660 PWs)   bands (ev):

     3.1264   4.5110   5.8134   7.3140   7.9172   9.4176  10.6166  12.3065
    25.4625  26.6397

          k = 0.3333-0.5000-0.5000 (  1656 PWs)   bands (ev):

     3.6997   5.0572   5.0572   6.5792   8.4500   9.9019   9.9019  11.6428
    25.8074  26.9496

          k = 0.4167 0.4167 0.4167 (  1655 PWs)   bands (ev):

     3.3479   6.0135   6.0135   6.1066   8.7524   8.7524   8.8896  11.6837
    27.2002  27.3467

          k = 0.4167 0.4167-0.5000 (  1666 PWs)   bands (ev):

     3.9216   5.2865   6.5502   6.6174   8.0246   8.1201   9.2909  11.0136
    27.5643  27.6946

          k = 0.4167-0.5000-0.5000 (  1656 PWs)   bands (ev):

     4.5004   5.8240   5.8240   7.1271   7.3443   8.5623   8.5623  10.3450
    27.9282  29.0614

          k =-0.5000-0.5000-0.5000 (  1640 PWs)   bands (ev):

     5.0906   6.3613   6.3613   6.3613   7.8338   7.8338   7.8338   9.6769
    29.1316  29.1316

     the Fermi energy is     8.9249 ev

!    total energy              =     -16.42034573 Ry
     estimated scf accuracy    <          3.9E-12 Ry
     smearing contrib. (-TS)   =       0.00002197 Ry
     internal energy E=F+TS    =     -16.42036770 Ry

     The total energy is F=E-TS. E is the sum of the following terms:
     one-electron contribution =       7.29448923 Ry
     hartree contribution      =       0.14256436 Ry
     xc contribution           =      -8.74453257 Ry
     ewald contribution        =     -15.11288871 Ry

     convergence has been achieved in   9 iterations

     Forces acting on atoms (cartesian axes, Ry/au):

     atom    1 type  1   force =     0.00000000    0.00000000    0.00000000
     atom    2 type  2   force =     0.00000000    0.00000000    0.00000000

     Total force =     0.000000     Total SCF correction =     0.000000


     Computing stress (Cartesian axis) and pressure

          total   stress  (Ry/bohr**3)                   (kbar)     P=       -0.01
  -0.00000006   0.00000000   0.00000000           -0.01        0.00        0.00
   0.00000000  -0.00000006   0.00000000            0.00       -0.01        0.00
   0.00000000   0.00000000  -0.00000006            0.00        0.00       -0.01


     Writing all to output data dir ./tmp/alsi-b2.save/ :
     XML data file, charge density, pseudopotentials, collected wavefunctions

     init_run     :      1.08s CPU      1.14s WALL (       1 calls)
     electrons    :     39.55s CPU     42.53s WALL (       1 calls)
     forces       :      0.35s CPU      0.39s WALL (       1 calls)
     stress       :      1.88s CPU      1.99s WALL (       1 calls)

     Called by init_run:
     wfcinit      :      0.39s CPU      0.42s WALL (       1 calls)
     potinit      :      0.11s CPU      0.12s WALL (       1 calls)
     hinit0       :      0.33s CPU      0.33s WALL (       1 calls)

     Called by electrons:
     c_bands      :     36.19s CPU     38.39s WALL (       9 calls)
     sum_band     :      2.37s CPU      2.84s WALL (       9 calls)
     v_of_rho     :      0.17s CPU      0.18s WALL (      10 calls)
     newd         :      0.89s CPU      1.22s WALL (      10 calls)
     mix_rho      :      0.02s CPU      0.02s WALL (       9 calls)

     Called by c_bands:
     init_us_2    :      0.36s CPU      0.38s WALL (    1764 calls)
     ccgdiagg     :     33.08s CPU     35.10s WALL (     756 calls)
     wfcrot       :      3.28s CPU      3.46s WALL (     756 calls)

     Called by *cgdiagg:
     h_psi        :     21.85s CPU     23.27s WALL (   54590 calls)
     s_psi        :      6.26s CPU      6.59s WALL (  108424 calls)

     Called by h_psi:
     h_psi:calbec :      4.43s CPU      4.74s WALL (   54590 calls)
     vloc_psi     :     13.82s CPU     14.72s WALL (   54590 calls)
                                        0.00s GPU  (   54590 calls)
     add_vuspsi   :      3.30s CPU      3.48s WALL (   54590 calls)
     hs_1psi      :     22.66s CPU     24.09s WALL (   53834 calls)
     s_1psi       :      7.10s CPU      7.49s WALL (   53834 calls)

     General routines
     calbec       :      9.45s CPU     10.03s WALL (  110608 calls)
     fft          :      0.18s CPU      0.19s WALL (     153 calls)
     ffts         :      0.08s CPU      0.08s WALL (      19 calls)
     fftw         :     13.12s CPU     13.99s WALL (  130348 calls)
     interpolate  :      0.08s CPU      0.09s WALL (      10 calls)

     Parallel routines

     PWSCF        :     43.16s CPU     46.37s WALL


   This run was terminated on:  22:44:25  22Sep2026            

=------------------------------------------------------------------------------=
   JOB DONE.
=------------------------------------------------------------------------------=
