
     Program PWSCF v.7.5 starts on 22Sep2026 at 21:48:38 

     This program is part of the open-source Quantum ESPRESSO suite
     for quantum simulation of materials; please cite
         "P. Giannozzi et al., J. Phys.:Condens. Matter 21 395502 (2009);
         "P. Giannozzi et al., J. Phys.:Condens. Matter 29 465901 (2017);
         "P. Giannozzi et al., J. Chem. Phys. 152 154105 (2020);
          URL http://www.quantum-espresso.org", 
     in publications or presentations arising from this work. More details at
     http://www.quantum-espresso.org/quote

     Parallel version (MPI), running on     8 processors

     MPI processes distributed on     1 nodes
     4896 MiB available memory on the printing compute node when the environment starts
 
     Reading input from al.scf.in

     Current dimensions of program PWSCF are:
     Max number of different atomic species (ntypx) = 10
     Max number of k-points (npk) =  40000
     Max angular momentum in pseudopotentials (lmaxx) =  4
     Message from routine setup:
     using ibrav=0 with symmetry is DISCOURAGED, use correct ibrav instead
 
     R & G space division:  proc/nbgrp/npool/nimage =       8
     Subspace diagonalization in iterative solution of the eigenvalue problem:
     a serial algorithm will be used

 
     Parallelization info
     --------------------
     sticks:   dense  smooth     PW     G-vecs:    dense   smooth      PW
     Min         154     154     45                 3570     3570     570
     Max         155     155     46                 3573     3573     573
     Sum        1237    1237    361                28571    28571    4573
 
     Using Slab Decomposition
 


     bravais-lattice index     =            0
     lattice parameter (alat)  =      10.5725  a.u.
     unit-cell volume          =     835.6372 (a.u.)^3
     number of atoms/cell      =            8
     number of atomic types    =            1
     number of electrons       =        24.00
     number of Kohn-Sham states=           18
     kinetic-energy cutoff     =      40.0000  Ry
     charge density cutoff     =     160.0000  Ry
     scf convergence threshold =      1.0E-12
     mixing beta               =       0.7000
     number of iterations used =            8  plain     mixing
     Exchange-correlation= SLA  PZ   NOGX NOGC
                           (   1   1   0   0   0   0   0)

     celldm(1)=  10.572497  celldm(2)=   0.000000  celldm(3)=   0.000000
     celldm(4)=   0.000000  celldm(5)=   0.000000  celldm(6)=   0.000000

     crystal axes: (cart. coord. in units of alat)
               a(1) = (  -0.707107   0.000000   0.707107 )  
               a(2) = (   0.000000   0.707107   0.707107 )  
               a(3) = (  -0.707107   0.707107   0.000000 )  

     reciprocal axes: (cart. coord. in units 2 pi/alat)
               b(1) = ( -0.707107 -0.707107  0.707107 )  
               b(2) = (  0.707107  0.707107  0.707107 )  
               b(3) = ( -0.707107  0.707107 -0.707107 )  


     PseudoPot. # 1 for Al read from file:
     <工作目录>/pseudo/Al.pz-vbc.UPF
     MD5 check sum: f06ceae8da0fe5c02c98e3688433298c
     Pseudo is Norm-conserving, Zval =  3.0
     Generated by new atomic code, or converted to UPF format
     Using radial grid of  171 points,  2 beta functions with: 
                l(1) =   0
                l(2) =   1

     atomic species   valence    mass     pseudopotential
     Al                3.00    26.98154     Al( 1.00)

      4 Sym. Ops. (no inversion) found


                                    s                        frac. trans.

      isym =  1     identity                                     

 cryst.   s( 1) = (     1          0          0      )
                  (     0          1          0      )
                  (     0          0          1      )

 cart.    s( 1) = (  1.0000000  0.0000000  0.0000000 )
                  (  0.0000000  1.0000000  0.0000000 )
                  (  0.0000000  0.0000000  1.0000000 )


      isym =  2     180 deg rotation - cart. axis [-1,0,1]       

 cryst.   s( 2) = (     1          0          0      )
                  (     1         -1          0      )
                  (     1          0         -1      )

 cart.    s( 2) = (  0.0000000  0.0000000 -1.0000000 )
                  (  0.0000000 -1.0000000  0.0000000 )
                  ( -1.0000000  0.0000000  0.0000000 )


      isym =  3     inv. 180 deg rotation - cart. axis [0,1,0]   

 cryst.   s( 3) = (     1          0          0      )
                  (     1          0         -1      )
                  (     1         -1          0      )

 cart.    s( 3) = (  1.0000000  0.0000000  0.0000000 )
                  (  0.0000000 -1.0000000  0.0000000 )
                  (  0.0000000  0.0000000  1.0000000 )


      isym =  4     inv. 180 deg rotation - cart. axis [1,0,1]   

 cryst.   s( 4) = (     1          0          0      )
                  (     0          0          1      )
                  (     0          1          0      )

 cart.    s( 4) = (  0.0000000  0.0000000 -1.0000000 )
                  (  0.0000000  1.0000000  0.0000000 )
                  ( -1.0000000  0.0000000  0.0000000 )


   Cartesian axes

     site n.     atom                  positions (alat units)
         1        Al     tau(   1) = (  -0.0012639   0.0000000   0.0012639  )
         2        Al     tau(   2) = (  -0.3535534   0.0000000   0.3535534  )
         3        Al     tau(   3) = (   0.0000000   0.3535534   0.3535534  )
         4        Al     tau(   4) = (  -0.3535534   0.3535534   0.7071068  )
         5        Al     tau(   5) = (  -0.3535534   0.3535534   0.0000000  )
         6        Al     tau(   6) = (  -0.7071068   0.3535534   0.3535534  )
         7        Al     tau(   7) = (  -0.3535534   0.7071068   0.3535534  )
         8        Al     tau(   8) = (  -0.7071068   0.7071068   0.7071068  )

   Crystallographic axes

     site n.     atom                  positions (cryst. coord.)
         1        Al     tau(   1) = (  0.0017874  0.0000000  0.0000000  )
         2        Al     tau(   2) = (  0.5000000  0.0000000  0.0000000  )
         3        Al     tau(   3) = (  0.0000000  0.5000000  0.0000000  )
         4        Al     tau(   4) = (  0.5000000  0.5000000  0.0000000  )
         5        Al     tau(   5) = (  0.0000000  0.0000000  0.5000000  )
         6        Al     tau(   6) = (  0.5000000  0.0000000  0.5000000  )
         7        Al     tau(   7) = (  0.0000000  0.5000000  0.5000000  )
         8        Al     tau(   8) = (  0.5000000  0.5000000  0.5000000  )

     number of k points=   125  Marzari-Vanderbilt smearing, width (Ry)=  0.0200
                       cart. coord. in units 2pi/alat
        k(    1) = (   0.0000000   0.0000000   0.0000000), wk =   0.0027435
        k(    2) = (  -0.0785674   0.0785674  -0.0785674), wk =   0.0109739
        k(    3) = (  -0.1571348   0.1571348  -0.1571348), wk =   0.0109739
        k(    4) = (  -0.2357023   0.2357023  -0.2357023), wk =   0.0109739
        k(    5) = (  -0.3142697   0.3142697  -0.3142697), wk =   0.0109739
        k(    6) = (   0.0000000   0.1571348   0.0000000), wk =   0.0054870
        k(    7) = (  -0.0785674   0.2357023  -0.0785674), wk =   0.0109739
        k(    8) = (  -0.1571348   0.3142697  -0.1571348), wk =   0.0109739
        k(    9) = (  -0.2357023   0.3928371  -0.2357023), wk =   0.0109739
        k(   10) = (   0.3928371  -0.2357023   0.3928371), wk =   0.0109739
        k(   11) = (   0.3142697  -0.1571348   0.3142697), wk =   0.0109739
        k(   12) = (   0.2357023  -0.0785674   0.2357023), wk =   0.0109739
        k(   13) = (   0.1571348  -0.0000000   0.1571348), wk =   0.0054870
        k(   14) = (   0.0000000   0.3142697   0.0000000), wk =   0.0054870
        k(   15) = (  -0.0785674   0.3928371  -0.0785674), wk =   0.0109739
        k(   16) = (  -0.1571348   0.4714045  -0.1571348), wk =   0.0109739
        k(   17) = (   0.4714045  -0.1571348   0.4714045), wk =   0.0109739
        k(   18) = (   0.3928371  -0.0785674   0.3928371), wk =   0.0109739
        k(   19) = (   0.3142697  -0.0000000   0.3142697), wk =   0.0054870
        k(   20) = (   0.0000000   0.4714045   0.0000000), wk =   0.0054870
        k(   21) = (  -0.0785674   0.5499719  -0.0785674), wk =   0.0109739
        k(   22) = (   0.5499719  -0.0785674   0.5499719), wk =   0.0109739
        k(   23) = (   0.4714045  -0.0000000   0.4714045), wk =   0.0054870
        k(   24) = (   0.0000000   0.6285394   0.0000000), wk =   0.0054870
        k(   25) = (   0.6285394   0.0000000   0.6285394), wk =   0.0054870
        k(   26) = (  -0.1571348   0.3142697   0.0000000), wk =   0.0219479
        k(   27) = (  -0.2357023   0.3928371  -0.0785674), wk =   0.0219479
        k(   28) = (   0.3928371  -0.2357023   0.5499719), wk =   0.0219479
        k(   29) = (  -0.1571348   0.4714045   0.0000000), wk =   0.0219479
        k(   30) = (   0.4714045  -0.1571348   0.6285394), wk =   0.0219479
        k(   31) = (   0.3928371  -0.0785674   0.5499719), wk =   0.0219479
        k(   32) = (   0.3142697  -0.0000000   0.4714045), wk =   0.0109739
        k(   33) = (   0.5499719  -0.0785674   0.7071068), wk =   0.0219479
        k(   34) = (   0.4714045   0.0000000   0.6285394), wk =   0.0109739
        k(   35) = (   0.3928371  -0.0785674   0.7071068), wk =   0.0219479
        k(   36) = (  -0.0785674   0.0785674   0.0785674), wk =   0.0109739
        k(   37) = (  -0.1571348   0.1571348   0.1571348), wk =   0.0109739
        k(   38) = (  -0.2357023   0.2357023   0.2357023), wk =   0.0109739
        k(   39) = (  -0.3142697   0.3142697   0.3142697), wk =   0.0109739
        k(   40) = (   0.1571348   0.0000000   0.0000000), wk =   0.0109739
        k(   41) = (   0.2357023  -0.0785674   0.0785674), wk =   0.0219479
        k(   42) = (  -0.2357023   0.0785674   0.0785674), wk =   0.0219479
        k(   43) = (   0.0785674  -0.2357023  -0.0785674), wk =   0.0109739
        k(   44) = (   0.3142697  -0.1571348   0.1571348), wk =   0.0219479
        k(   45) = (  -0.3142697   0.1571348   0.1571348), wk =   0.0219479
        k(   46) = (   0.1571348  -0.3142697  -0.1571348), wk =   0.0109739
        k(   47) = (   0.3928371  -0.2357023   0.2357023), wk =   0.0219479
        k(   48) = (  -0.3928371   0.2357023   0.2357023), wk =   0.0219479
        k(   49) = (   0.2357023  -0.3928371  -0.2357023), wk =   0.0109739
        k(   50) = (  -0.2357023   0.3928371  -0.3928371), wk =   0.0219479
        k(   51) = (   0.2357023  -0.3928371  -0.3928371), wk =   0.0219479
        k(   52) = (  -0.3928371   0.2357023   0.3928371), wk =   0.0109739
        k(   53) = (  -0.1571348   0.3142697  -0.3142697), wk =   0.0219479
        k(   54) = (   0.1571348  -0.3142697  -0.3142697), wk =   0.0219479
        k(   55) = (  -0.3142697   0.1571348   0.3142697), wk =   0.0109739
        k(   56) = (  -0.0785674   0.2357023  -0.2357023), wk =   0.0219479
        k(   57) = (   0.0785674  -0.2357023  -0.2357023), wk =   0.0219479
        k(   58) = (  -0.2357023   0.0785674   0.2357023), wk =   0.0109739
        k(   59) = (  -0.0000000   0.1571348  -0.1571348), wk =   0.0219479
        k(   60) = (  -0.1571348   0.0000000   0.1571348), wk =   0.0054870
        k(   61) = (   0.3142697   0.0000000   0.0000000), wk =   0.0109739
        k(   62) = (   0.3928371  -0.0785674   0.0785674), wk =   0.0219479
        k(   63) = (  -0.3928371   0.0785674   0.0785674), wk =   0.0219479
        k(   64) = (   0.0785674  -0.3928371  -0.0785674), wk =   0.0109739
        k(   65) = (   0.4714045  -0.1571348   0.1571348), wk =   0.0219479
        k(   66) = (  -0.4714045   0.1571348   0.1571348), wk =   0.0219479
        k(   67) = (   0.1571348  -0.4714045  -0.1571348), wk =   0.0109739
        k(   68) = (  -0.1571348   0.4714045  -0.4714045), wk =   0.0219479
        k(   69) = (   0.1571348  -0.4714045  -0.4714045), wk =   0.0219479
        k(   70) = (  -0.4714045   0.1571348   0.4714045), wk =   0.0109739
        k(   71) = (  -0.0785674   0.3928371  -0.3928371), wk =   0.0219479
        k(   72) = (   0.0785674  -0.3928371  -0.3928371), wk =   0.0219479
        k(   73) = (  -0.3928371   0.0785674   0.3928371), wk =   0.0109739
        k(   74) = (  -0.0000000   0.3142697  -0.3142697), wk =   0.0219479
        k(   75) = (  -0.3142697   0.0000000   0.3142697), wk =   0.0054870
        k(   76) = (   0.4714045   0.0000000   0.0000000), wk =   0.0109739
        k(   77) = (   0.5499719  -0.0785674   0.0785674), wk =   0.0219479
        k(   78) = (  -0.5499719   0.0785674   0.0785674), wk =   0.0219479
        k(   79) = (   0.0785674  -0.5499719  -0.0785674), wk =   0.0109739
        k(   80) = (  -0.0785674   0.5499719  -0.5499719), wk =   0.0219479
        k(   81) = (   0.0785674  -0.5499719  -0.5499719), wk =   0.0219479
        k(   82) = (  -0.5499719   0.0785674   0.5499719), wk =   0.0109739
        k(   83) = (   0.0000000   0.4714045  -0.4714045), wk =   0.0219479
        k(   84) = (  -0.4714045   0.0000000   0.4714045), wk =   0.0054870
        k(   85) = (   0.6285394   0.0000000   0.0000000), wk =   0.0109739
        k(   86) = (   0.0000000   0.6285394  -0.6285394), wk =   0.0219479
        k(   87) = (  -0.6285394   0.0000000   0.6285394), wk =   0.0054870
        k(   88) = (   0.3142697  -0.1571348  -0.0000000), wk =   0.0219479
        k(   89) = (   0.1571348   0.0000000   0.3142697), wk =   0.0109739
        k(   90) = (   0.1571348  -0.0000000  -0.3142697), wk =   0.0109739
        k(   91) = (   0.3928371  -0.2357023   0.0785674), wk =   0.0219479
        k(   92) = (  -0.3928371   0.2357023   0.0785674), wk =   0.0219479
        k(   93) = (   0.2357023  -0.3928371  -0.0785674), wk =   0.0219479
        k(   94) = (   0.2357023  -0.0785674   0.3928371), wk =   0.0219479
        k(   95) = (   0.2357023   0.0785674  -0.3928371), wk =   0.0219479
        k(   96) = (  -0.2357023   0.3928371  -0.5499719), wk =   0.0219479
        k(   97) = (   0.2357023  -0.3928371  -0.5499719), wk =   0.0219479
        k(   98) = (  -0.3928371   0.2357023   0.5499719), wk =   0.0219479
        k(   99) = (  -0.3928371   0.5499719  -0.2357023), wk =   0.0219479
        k(  100) = (  -0.3928371  -0.5499719   0.2357023), wk =   0.0219479
        k(  101) = (   0.4714045  -0.1571348   0.0000000), wk =   0.0219479
        k(  102) = (   0.1571348   0.0000000   0.4714045), wk =   0.0109739
        k(  103) = (   0.1571348   0.0000000  -0.4714045), wk =   0.0109739
        k(  104) = (  -0.1571348   0.4714045  -0.6285394), wk =   0.0219479
        k(  105) = (   0.1571348  -0.4714045  -0.6285394), wk =   0.0219479
        k(  106) = (  -0.4714045   0.1571348   0.6285394), wk =   0.0219479
        k(  107) = (  -0.4714045   0.6285394  -0.1571348), wk =   0.0219479
        k(  108) = (  -0.4714045  -0.6285394   0.1571348), wk =   0.0219479
        k(  109) = (  -0.0785674   0.3928371  -0.5499719), wk =   0.0219479
        k(  110) = (   0.0785674  -0.3928371  -0.5499719), wk =   0.0219479
        k(  111) = (  -0.3928371   0.0785674   0.5499719), wk =   0.0219479
        k(  112) = (  -0.3928371   0.5499719  -0.0785674), wk =   0.0219479
        k(  113) = (  -0.3928371  -0.5499719   0.0785674), wk =   0.0219479
        k(  114) = (  -0.0000000   0.3142697  -0.4714045), wk =   0.0219479
        k(  115) = (  -0.3142697   0.0000000   0.4714045), wk =   0.0109739
        k(  116) = (  -0.3142697   0.4714045   0.0000000), wk =   0.0219479
        k(  117) = (  -0.0785674   0.5499719  -0.7071068), wk =   0.0219479
        k(  118) = (  -0.5499719   0.7071068  -0.0785674), wk =   0.0109739
        k(  119) = (  -0.5499719  -0.7071068   0.0785674), wk =   0.0109739
        k(  120) = (   0.0000000   0.4714045  -0.6285394), wk =   0.0219479
        k(  121) = (  -0.4714045   0.0000000   0.6285394), wk =   0.0109739
        k(  122) = (  -0.4714045   0.6285394   0.0000000), wk =   0.0219479
        k(  123) = (  -0.0785674   0.3928371  -0.7071068), wk =   0.0219479
        k(  124) = (  -0.3928371   0.7071068  -0.0785674), wk =   0.0109739
        k(  125) = (  -0.3928371  -0.7071068   0.0785674), wk =   0.0109739

                       cryst. coord.
        k(    1) = (   0.0000000   0.0000000   0.0000000), wk =   0.0027435
        k(    2) = (   0.0000000   0.0000000   0.1111111), wk =   0.0109739
        k(    3) = (   0.0000000   0.0000000   0.2222222), wk =   0.0109739
        k(    4) = (   0.0000000   0.0000000   0.3333333), wk =   0.0109739
        k(    5) = (   0.0000000   0.0000000   0.4444444), wk =   0.0109739
        k(    6) = (   0.0000000   0.1111111   0.1111111), wk =   0.0054870
        k(    7) = (   0.0000000   0.1111111   0.2222222), wk =   0.0109739
        k(    8) = (   0.0000000   0.1111111   0.3333333), wk =   0.0109739
        k(    9) = (   0.0000000   0.1111111   0.4444444), wk =   0.0109739
        k(   10) = (   0.0000000   0.1111111  -0.4444444), wk =   0.0109739
        k(   11) = (   0.0000000   0.1111111  -0.3333333), wk =   0.0109739
        k(   12) = (   0.0000000   0.1111111  -0.2222222), wk =   0.0109739
        k(   13) = (   0.0000000   0.1111111  -0.1111111), wk =   0.0054870
        k(   14) = (   0.0000000   0.2222222   0.2222222), wk =   0.0054870
        k(   15) = (   0.0000000   0.2222222   0.3333333), wk =   0.0109739
        k(   16) = (   0.0000000   0.2222222   0.4444444), wk =   0.0109739
        k(   17) = (   0.0000000   0.2222222  -0.4444444), wk =   0.0109739
        k(   18) = (   0.0000000   0.2222222  -0.3333333), wk =   0.0109739
        k(   19) = (   0.0000000   0.2222222  -0.2222222), wk =   0.0054870
        k(   20) = (   0.0000000   0.3333333   0.3333333), wk =   0.0054870
        k(   21) = (   0.0000000   0.3333333   0.4444444), wk =   0.0109739
        k(   22) = (   0.0000000   0.3333333  -0.4444444), wk =   0.0109739
        k(   23) = (   0.0000000   0.3333333  -0.3333333), wk =   0.0054870
        k(   24) = (   0.0000000   0.4444444   0.4444444), wk =   0.0054870
        k(   25) = (   0.0000000   0.4444444  -0.4444444), wk =   0.0054870
        k(   26) = (   0.1111111   0.2222222   0.3333333), wk =   0.0219479
        k(   27) = (   0.1111111   0.2222222   0.4444444), wk =   0.0219479
        k(   28) = (   0.1111111   0.2222222  -0.4444444), wk =   0.0219479
        k(   29) = (   0.1111111   0.3333333   0.4444444), wk =   0.0219479
        k(   30) = (   0.1111111   0.3333333  -0.4444444), wk =   0.0219479
        k(   31) = (   0.1111111   0.3333333  -0.3333333), wk =   0.0219479
        k(   32) = (   0.1111111   0.3333333  -0.2222222), wk =   0.0109739
        k(   33) = (   0.1111111   0.4444444  -0.4444444), wk =   0.0219479
        k(   34) = (   0.1111111   0.4444444  -0.3333333), wk =   0.0109739
        k(   35) = (   0.2222222   0.4444444  -0.3333333), wk =   0.0219479
        k(   36) = (   0.1111111   0.1111111   0.1111111), wk =   0.0109739
        k(   37) = (   0.2222222   0.2222222   0.2222222), wk =   0.0109739
        k(   38) = (   0.3333333   0.3333333   0.3333333), wk =   0.0109739
        k(   39) = (   0.4444444   0.4444444   0.4444444), wk =   0.0109739
        k(   40) = (  -0.1111111   0.0000000  -0.1111111), wk =   0.0109739
        k(   41) = (  -0.1111111   0.0000000  -0.2222222), wk =   0.0219479
        k(   42) = (   0.2222222   0.1111111   0.2222222), wk =   0.0219479
        k(   43) = (  -0.1111111  -0.2222222  -0.2222222), wk =   0.0109739
        k(   44) = (  -0.1111111   0.0000000  -0.3333333), wk =   0.0219479
        k(   45) = (   0.3333333   0.2222222   0.3333333), wk =   0.0219479
        k(   46) = (  -0.2222222  -0.3333333  -0.3333333), wk =   0.0109739
        k(   47) = (  -0.1111111   0.0000000  -0.4444444), wk =   0.0219479
        k(   48) = (   0.4444444   0.3333333   0.4444444), wk =   0.0219479
        k(   49) = (  -0.3333333  -0.4444444  -0.4444444), wk =   0.0109739
        k(   50) = (  -0.1111111   0.0000000   0.4444444), wk =   0.0219479
        k(   51) = (  -0.4444444  -0.5555556  -0.4444444), wk =   0.0219479
        k(   52) = (   0.5555556   0.4444444   0.4444444), wk =   0.0109739
        k(   53) = (  -0.1111111   0.0000000   0.3333333), wk =   0.0219479
        k(   54) = (  -0.3333333  -0.4444444  -0.3333333), wk =   0.0219479
        k(   55) = (   0.4444444   0.3333333   0.3333333), wk =   0.0109739
        k(   56) = (  -0.1111111   0.0000000   0.2222222), wk =   0.0219479
        k(   57) = (  -0.2222222  -0.3333333  -0.2222222), wk =   0.0219479
        k(   58) = (   0.3333333   0.2222222   0.2222222), wk =   0.0109739
        k(   59) = (  -0.1111111   0.0000000   0.1111111), wk =   0.0219479
        k(   60) = (   0.2222222   0.1111111   0.1111111), wk =   0.0054870
        k(   61) = (  -0.2222222   0.0000000  -0.2222222), wk =   0.0109739
        k(   62) = (  -0.2222222   0.0000000  -0.3333333), wk =   0.0219479
        k(   63) = (   0.3333333   0.1111111   0.3333333), wk =   0.0219479
        k(   64) = (  -0.1111111  -0.3333333  -0.3333333), wk =   0.0109739
        k(   65) = (  -0.2222222   0.0000000  -0.4444444), wk =   0.0219479
        k(   66) = (   0.4444444   0.2222222   0.4444444), wk =   0.0219479
        k(   67) = (  -0.2222222  -0.4444444  -0.4444444), wk =   0.0109739
        k(   68) = (  -0.2222222   0.0000000   0.4444444), wk =   0.0219479
        k(   69) = (  -0.4444444  -0.6666667  -0.4444444), wk =   0.0219479
        k(   70) = (   0.6666667   0.4444444   0.4444444), wk =   0.0109739
        k(   71) = (  -0.2222222   0.0000000   0.3333333), wk =   0.0219479
        k(   72) = (  -0.3333333  -0.5555556  -0.3333333), wk =   0.0219479
        k(   73) = (   0.5555556   0.3333333   0.3333333), wk =   0.0109739
        k(   74) = (  -0.2222222   0.0000000   0.2222222), wk =   0.0219479
        k(   75) = (   0.4444444   0.2222222   0.2222222), wk =   0.0054870
        k(   76) = (  -0.3333333   0.0000000  -0.3333333), wk =   0.0109739
        k(   77) = (  -0.3333333   0.0000000  -0.4444444), wk =   0.0219479
        k(   78) = (   0.4444444   0.1111111   0.4444444), wk =   0.0219479
        k(   79) = (  -0.1111111  -0.4444444  -0.4444444), wk =   0.0109739
        k(   80) = (  -0.3333333   0.0000000   0.4444444), wk =   0.0219479
        k(   81) = (  -0.4444444  -0.7777778  -0.4444444), wk =   0.0219479
        k(   82) = (   0.7777778   0.4444444   0.4444444), wk =   0.0109739
        k(   83) = (  -0.3333333   0.0000000   0.3333333), wk =   0.0219479
        k(   84) = (   0.6666667   0.3333333   0.3333333), wk =   0.0054870
        k(   85) = (  -0.4444444   0.0000000  -0.4444444), wk =   0.0109739
        k(   86) = (  -0.4444444   0.0000000   0.4444444), wk =   0.0219479
        k(   87) = (   0.8888889   0.4444444   0.4444444), wk =   0.0054870
        k(   88) = (  -0.2222222  -0.1111111  -0.3333333), wk =   0.0219479
        k(   89) = (   0.1111111   0.2222222  -0.1111111), wk =   0.0109739
        k(   90) = (  -0.3333333  -0.2222222  -0.1111111), wk =   0.0109739
        k(   91) = (  -0.2222222  -0.1111111  -0.4444444), wk =   0.0219479
        k(   92) = (   0.3333333   0.2222222   0.4444444), wk =   0.0219479
        k(   93) = (  -0.2222222  -0.3333333  -0.4444444), wk =   0.0219479
        k(   94) = (   0.1111111   0.2222222  -0.2222222), wk =   0.0219479
        k(   95) = (  -0.4444444  -0.2222222  -0.1111111), wk =   0.0219479
        k(   96) = (  -0.2222222  -0.1111111   0.4444444), wk =   0.0219479
        k(   97) = (  -0.5555556  -0.6666667  -0.4444444), wk =   0.0219479
        k(   98) = (   0.6666667   0.5555556   0.4444444), wk =   0.0219479
        k(   99) = (   0.1111111   0.2222222   0.6666667), wk =   0.0219479
        k(  100) = (   0.4444444  -0.2222222  -0.1111111), wk =   0.0219479
        k(  101) = (  -0.3333333  -0.1111111  -0.4444444), wk =   0.0219479
        k(  102) = (   0.2222222   0.3333333  -0.1111111), wk =   0.0109739
        k(  103) = (  -0.4444444  -0.3333333  -0.1111111), wk =   0.0109739
        k(  104) = (  -0.3333333  -0.1111111   0.4444444), wk =   0.0219479
        k(  105) = (  -0.5555556  -0.7777778  -0.4444444), wk =   0.0219479
        k(  106) = (   0.7777778   0.5555556   0.4444444), wk =   0.0219479
        k(  107) = (   0.2222222   0.3333333   0.7777778), wk =   0.0219479
        k(  108) = (   0.4444444  -0.3333333  -0.1111111), wk =   0.0219479
        k(  109) = (  -0.3333333  -0.1111111   0.3333333), wk =   0.0219479
        k(  110) = (  -0.4444444  -0.6666667  -0.3333333), wk =   0.0219479
        k(  111) = (   0.6666667   0.4444444   0.3333333), wk =   0.0219479
        k(  112) = (   0.2222222   0.3333333   0.6666667), wk =   0.0219479
        k(  113) = (   0.3333333  -0.3333333  -0.1111111), wk =   0.0219479
        k(  114) = (  -0.3333333  -0.1111111   0.2222222), wk =   0.0219479
        k(  115) = (   0.5555556   0.3333333   0.2222222), wk =   0.0109739
        k(  116) = (   0.2222222   0.3333333   0.5555556), wk =   0.0219479
        k(  117) = (  -0.4444444  -0.1111111   0.4444444), wk =   0.0219479
        k(  118) = (   0.3333333   0.4444444   0.8888889), wk =   0.0109739
        k(  119) = (   0.4444444  -0.4444444  -0.1111111), wk =   0.0109739
        k(  120) = (  -0.4444444  -0.1111111   0.3333333), wk =   0.0219479
        k(  121) = (   0.7777778   0.4444444   0.3333333), wk =   0.0109739
        k(  122) = (   0.3333333   0.4444444   0.7777778), wk =   0.0219479
        k(  123) = (  -0.4444444  -0.2222222   0.3333333), wk =   0.0219479
        k(  124) = (   0.2222222   0.4444444   0.7777778), wk =   0.0109739
        k(  125) = (   0.3333333  -0.4444444  -0.2222222), wk =   0.0109739

     Dense  grid:    28571 G-vectors     FFT dimensions: (  45,  45,  45)

     Dynamical RAM for                 wfc:       0.12 MB

     Dynamical RAM for     wfc (w. buffer):      15.43 MB

     Dynamical RAM for           str. fact:       0.05 MB

     Dynamical RAM for           local pot:       0.00 MB

     Dynamical RAM for          nlocal pot:       0.22 MB

     Dynamical RAM for                qrad:       0.09 MB

     Dynamical RAM for          rho,v,vnew:       0.44 MB

     Dynamical RAM for               rhoin:       0.15 MB

     Dynamical RAM for            rho*nmix:       0.87 MB

     Dynamical RAM for           G-vectors:       0.23 MB

     Dynamical RAM for          h,s,v(r/c):       0.06 MB

     Dynamical RAM for          <psi|beta>:       0.01 MB

     Dynamical RAM for                 psi:       0.24 MB

     Dynamical RAM for                hpsi:       0.24 MB

     Dynamical RAM for      wfcinit/wfcrot:       0.25 MB

     Estimated static dynamical RAM per process >      17.19 MB

     Estimated max dynamical RAM per process >      18.62 MB

     Estimated total dynamical RAM >     148.94 MB

     Initial potential from superposition of free atoms

     starting charge      23.9835, renormalised to      24.0000

     negative rho (up, down):  1.114E-04 0.000E+00
     Starting wfcs are   32 randomized atomic wfcs

     total cpu time spent up to now is        1.7 secs

     Self-consistent Calculation

     iteration #  1     ecut=    40.00 Ry     beta= 0.70
     Davidson diagonalization with overlap

---- Real-time Memory Report at c_bands before calling an iterative solver
            72 MiB given to the printing process from OS
             0 MiB allocation reported by mallinfo(arena+hblkhd)
          4222 MiB available memory on the node where the printing process lives
------------------
     ethr =  1.00E-02,  avg # of iterations =  3.6

     Threshold (ethr) on eigenvalues was too large:
     Diagonalizing with lowered threshold

     Davidson diagonalization with overlap

---- Real-time Memory Report at c_bands before calling an iterative solver
            75 MiB given to the printing process from OS
             0 MiB allocation reported by mallinfo(arena+hblkhd)
          3859 MiB available memory on the node where the printing process lives
------------------
     ethr =  1.75E-04,  avg # of iterations =  4.0

     negative rho (up, down):  8.241E-06 0.000E+00

     total cpu time spent up to now is        8.1 secs

     total energy              =     -33.52258645 Ry
     estimated scf accuracy    <       0.04596986 Ry

     iteration #  2     ecut=    40.00 Ry     beta= 0.70
     Davidson diagonalization with overlap

---- Real-time Memory Report at c_bands before calling an iterative solver
            75 MiB given to the printing process from OS
             0 MiB allocation reported by mallinfo(arena+hblkhd)
          3824 MiB available memory on the node where the printing process lives
------------------
     ethr =  1.92E-04,  avg # of iterations =  1.0

     total cpu time spent up to now is       10.2 secs

     total energy              =     -33.52295267 Ry
     estimated scf accuracy    <       0.00360571 Ry

     iteration #  3     ecut=    40.00 Ry     beta= 0.70
     Davidson diagonalization with overlap

---- Real-time Memory Report at c_bands before calling an iterative solver
            76 MiB given to the printing process from OS
             0 MiB allocation reported by mallinfo(arena+hblkhd)
          3801 MiB available memory on the node where the printing process lives
------------------
     ethr =  1.50E-05,  avg # of iterations =  2.3

     total cpu time spent up to now is       12.5 secs

     total energy              =     -33.52299643 Ry
     estimated scf accuracy    <       0.00001495 Ry

     iteration #  4     ecut=    40.00 Ry     beta= 0.70
     Davidson diagonalization with overlap

---- Real-time Memory Report at c_bands before calling an iterative solver
            76 MiB given to the printing process from OS
             0 MiB allocation reported by mallinfo(arena+hblkhd)
          3750 MiB available memory on the node where the printing process lives
------------------
     c_bands:  3 eigenvalues not converged
     ethr =  6.23E-08,  avg # of iterations =  4.3

     total cpu time spent up to now is       15.6 secs

     total energy              =     -33.52300447 Ry
     estimated scf accuracy    <       0.00000254 Ry

     iteration #  5     ecut=    40.00 Ry     beta= 0.70
     Davidson diagonalization with overlap

---- Real-time Memory Report at c_bands before calling an iterative solver
            76 MiB given to the printing process from OS
             0 MiB allocation reported by mallinfo(arena+hblkhd)
          3696 MiB available memory on the node where the printing process lives
------------------
     ethr =  1.06E-08,  avg # of iterations =  2.2

     total cpu time spent up to now is       18.0 secs

     total energy              =     -33.52300499 Ry
     estimated scf accuracy    <       0.00000007 Ry

     iteration #  6     ecut=    40.00 Ry     beta= 0.70
     Davidson diagonalization with overlap

---- Real-time Memory Report at c_bands before calling an iterative solver
            77 MiB given to the printing process from OS
             0 MiB allocation reported by mallinfo(arena+hblkhd)
          3655 MiB available memory on the node where the printing process lives
------------------
     ethr =  2.72E-10,  avg # of iterations =  2.5

     total cpu time spent up to now is       20.7 secs

     total energy              =     -33.52300501 Ry
     estimated scf accuracy    <          6.7E-09 Ry

     iteration #  7     ecut=    40.00 Ry     beta= 0.70
     Davidson diagonalization with overlap

---- Real-time Memory Report at c_bands before calling an iterative solver
            77 MiB given to the printing process from OS
             0 MiB allocation reported by mallinfo(arena+hblkhd)
          3621 MiB available memory on the node where the printing process lives
------------------
     ethr =  2.80E-11,  avg # of iterations =  2.2

     total cpu time spent up to now is       23.2 secs

     total energy              =     -33.52300501 Ry
     estimated scf accuracy    <          1.0E-10 Ry

     iteration #  8     ecut=    40.00 Ry     beta= 0.70
     Davidson diagonalization with overlap

---- Real-time Memory Report at c_bands before calling an iterative solver
            77 MiB given to the printing process from OS
             0 MiB allocation reported by mallinfo(arena+hblkhd)
          3574 MiB available memory on the node where the printing process lives
------------------
     ethr =  4.29E-13,  avg # of iterations =  3.7

     total cpu time spent up to now is       26.3 secs

     total energy              =     -33.52300501 Ry
     estimated scf accuracy    <          2.4E-11 Ry

     iteration #  9     ecut=    40.00 Ry     beta= 0.70
     Davidson diagonalization with overlap

---- Real-time Memory Report at c_bands before calling an iterative solver
            77 MiB given to the printing process from OS
             0 MiB allocation reported by mallinfo(arena+hblkhd)
          3540 MiB available memory on the node where the printing process lives
------------------
     ethr =  1.02E-13,  avg # of iterations =  1.7

     total cpu time spent up to now is       28.5 secs

     total energy              =     -33.52300501 Ry
     estimated scf accuracy    <          5.3E-12 Ry

     iteration # 10     ecut=    40.00 Ry     beta= 0.70
     Davidson diagonalization with overlap

---- Real-time Memory Report at c_bands before calling an iterative solver
            77 MiB given to the printing process from OS
             0 MiB allocation reported by mallinfo(arena+hblkhd)
          3500 MiB available memory on the node where the printing process lives
------------------
     ethr =  1.00E-13,  avg # of iterations =  1.2

     total cpu time spent up to now is       30.6 secs

     End of self-consistent calculation

          k = 0.0000 0.0000 0.0000 (  3527 PWs)   bands (ev):

    -3.1663   3.6442   3.6447   3.6449   3.6449   3.8948   3.8948   3.8949
     3.8954   5.3934   5.3934   5.3934   6.7306   6.7306   6.7307  13.5721
    13.5721  14.1800

     occupation numbers 
     1.0000   1.0000   1.0000   1.0000   1.0000   1.0000   1.0000   1.0000
     1.0000   1.0000   1.0000   1.0000   1.0000   1.0000   1.0000   0.0000
     0.0000   0.0000

          k =-0.0786 0.0786-0.0786 (  3593 PWs)   bands (ev):

    -3.0776   2.3461   3.3345   3.3378   3.3412   4.3612   4.3646   4.3679
     4.9447   4.9475   4.9503   5.3400   7.3286   7.3316   7.3346  12.4339
    12.4385  12.4432

     occupation numbers 
     1.0000   1.0000   1.0000   1.0000   1.0000   1.0000   1.0000   1.0000
     1.0000   1.0000   1.0000   1.0000   1.0000   1.0000   1.0000   0.0000
     0.0000   0.0000

          k =-0.1571 0.1571-0.1571 (  3584 PWs)   bands (ev):

    -2.8124   1.0821   3.0906   3.0940   3.0974   4.2893   4.2925   4.2958
     5.0928   5.0962   5.0996   7.0439   8.4408   8.4446   8.4485  10.9902
    10.9939  10.9976

     occupation numbers 
     1.0000   1.0000   1.0000   1.0000   1.0000   1.0000   1.0000   1.0000
     1.0000   1.0000   1.0000   1.0000   0.2486   0.2413   0.2339   0.0000
     0.0000   0.0000

          k =-0.2357 0.2357-0.2357 (  3561 PWs)   bands (ev):

    -2.3719  -0.0273   3.0075   3.0110   3.0144   3.7377   3.7410   3.7443
     5.9844   5.9879   5.9915   8.8860   9.3611   9.3673   9.3736   9.9914
     9.9925   9.9936

     occupation numbers 
     1.0000   1.0000   1.0000   1.0000   1.0000   1.0000   1.0000   1.0000
     1.0000   1.0000   1.0000   0.0006   0.0000   0.0000   0.0000   0.0000
     0.0000   0.0000

          k =-0.3143 0.3143-0.3143 (  3579 PWs)   bands (ev):

    -1.7586  -0.9757   3.0887   3.0922   3.0955   3.3339   3.3372   3.3406
     7.0252   7.0289   7.0326   8.1998   8.2040   8.2081  10.8591  11.3396
    11.3428  11.3460

     occupation numbers 
     1.0000   1.0000   1.0000   1.0000   1.0000   1.0000   1.0000   1.0000
     1.0000   1.0000   1.0000   0.8579   0.8485   0.8390   0.0000   0.0000
     0.0000   0.0000

          k = 0.0000 0.1571 0.0000 (  3591 PWs)   bands (ev):

    -3.0481   2.8636   2.8735   2.8735   2.8834   4.0758   4.8676   4.8776
     4.8777   4.8876   5.4964   5.4965   6.8424   6.8424   8.2397  12.0550
    12.0551  13.4840

     occupation numbers 
     1.0000   1.0000   1.0000   1.0000   1.0000   1.0000   1.0000   1.0000
     1.0000   1.0000   1.0000   1.0000   1.0000   1.0000   0.7609   0.0000
     0.0000   0.0000

          k =-0.0786 0.2357-0.0786 (  3592 PWs)   bands (ev):

    -2.8418   1.5616   2.5658   2.5714   3.3022   3.5564   4.5845   5.1573
     5.1619   5.5532   5.5589   6.5309   7.5433   7.5484   9.3581  10.8693
    10.8737  12.6529

     occupation numbers 
     1.0000   1.0000   1.0000   1.0000   1.0000   1.0000   1.0000   1.0000
     1.0000   1.0000   1.0000   1.0000   1.0012   1.0013   0.0000   0.0000
     0.0000   0.0000

          k =-0.1571 0.3143-0.1571 (  3573 PWs)   bands (ev):

    -2.4598   0.4009   2.4262   2.4318   2.6740   4.2744   4.5769   4.6146
     4.6199   6.3880   6.3939   8.3251   8.6895   8.6978   9.5462   9.5485
    10.5840  11.3635

     occupation numbers 
     1.0000   1.0000   1.0000   1.0000   1.0000   1.0000   1.0000   1.0000
     1.0000   1.0000   1.0000   0.5283   0.0162   0.0144   0.0000   0.0000
     0.0000   0.0000

          k =-0.2357 0.3928-0.2357 (  3573 PWs)   bands (ev):

    -1.9042  -0.6009   2.2033   2.4534   2.4591   4.1744   4.1798   4.4182
     5.4612   7.3714   7.3776   8.0471   8.0538   9.9371  10.2491  10.2770
    10.2816  12.1471

     occupation numbers 
     1.0000   1.0000   1.0000   1.0000   1.0000   1.0000   1.0000   1.0000
     1.0000   1.0000   1.0001   1.0699   1.0663   0.0000   0.0000   0.0000
     0.0000   0.0000

          k = 0.3928-0.2357 0.3928 (  3581 PWs)   bands (ev):

    -1.4388  -1.1780   1.8972   2.6464   2.6520   3.8823   3.8878   4.6078
     6.5991   6.8334   6.8393   8.4900   8.4969   8.7465  10.7032  11.6073
    11.8516  11.8567

     occupation numbers 
     1.0000   1.0000   1.0000   1.0000   1.0000   1.0000   1.0000   1.0000
     1.0000   1.0000   1.0000   0.1639   0.1539   0.0070   0.0000   0.0000
     0.0000   0.0000

          k = 0.3143-0.1571 0.3143 (  3572 PWs)   bands (ev):

    -2.1085  -0.2850   1.7578   3.0033   3.0088   3.7478   3.7533   4.9382
     5.7428   5.7484   7.6748   7.8422   9.2107   9.5963   9.7008   9.7095
    11.0260  11.0315

     occupation numbers 
     1.0000   1.0000   1.0000   1.0000   1.0000   1.0000   1.0000   1.0000
     1.0000   1.0000   1.0083   1.0455   0.0000   0.0000   0.0000   0.0000
     0.0000   0.0000

          k = 0.2357-0.0786 0.2357 (  3574 PWs)   bands (ev):

    -2.6065   0.7704   1.7862   3.5192   3.5246   3.7706   3.7760   4.8026
     4.8080   5.3709   6.7440   7.7126   7.7379   9.3979   9.5464   9.5536
    11.0901  11.0982

     occupation numbers 
     1.0000   1.0000   1.0000   1.0000   1.0000   1.0000   1.0000   1.0000
     1.0000   1.0000   1.0000   1.0132   1.0175   0.0000   0.0000   0.0000
     0.0000   0.0000

          k = 0.1571-0.0000 0.1571 (  3579 PWs)   bands (ev):

    -2.9301   1.9827   1.9828   3.8547   3.8548   4.1242   4.1243   4.1816
     4.1869   5.5995   5.9637   5.9637   6.9521   8.3415   8.3475  10.8828
    12.1558  12.1674

     occupation numbers 
     1.0000   1.0000   1.0000   1.0000   1.0000   1.0000   1.0000   1.0000
     1.0000   1.0000   1.0000   1.0000   1.0000   0.4836   0.4676   0.0000
     0.0000   0.0000

          k = 0.0000 0.3143 0.0000 (  3579 PWs)   bands (ev):

    -2.6946   2.1964   2.2064   2.2065   2.2162   2.4518   5.8056   5.8058
     6.1659   6.1760   6.1761   6.1865   7.1729   7.1729  10.4389  10.4878
    10.4878  12.2079

     occupation numbers 
     1.0000   1.0000   1.0000   1.0000   1.0000   1.0000   1.0000   1.0000
     1.0000   1.0000   1.0000   1.0000   1.0000   1.0000   0.0000   0.0000
     0.0000   0.0000

          k =-0.0786 0.3928-0.0786 (  3567 PWs)   bands (ev):

    -2.3718   0.9971   1.7557   2.0078   2.0135   3.0122   5.5800   5.5846
     5.9807   6.9468   6.9529   7.9146   7.9524   7.9584   9.4356   9.4383
    11.6635  12.0181

     occupation numbers 
     1.0000   1.0000   1.0000   1.0000   1.0000   1.0000   1.0000   1.0000
     1.0000   1.0000   1.0000   1.0699   1.0796   1.0806   0.0000   0.0000
     0.0000   0.0000

          k =-0.1571 0.4714-0.1571 (  3565 PWs)   bands (ev):

    -1.8750  -0.0558   1.2225   1.9793   1.9850   3.9721   5.1506   5.1559
     5.9430   7.8647   7.8712   8.0146   8.0217   9.3805   9.3834   9.7848
    11.7738  11.9728

     occupation numbers 
     1.0000   1.0000   1.0000   1.0000   1.0000   1.0000   1.0000   1.0000
     1.0000   1.0532   1.0555   1.0809   1.0793   0.0000   0.0000   0.0000
     0.0000   0.0000

          k = 0.4714-0.1571 0.4714 (  3570 PWs)   bands (ev):

    -1.2068  -0.9467   0.8553   2.1184   2.1241   4.8216   4.8270   5.0714
     6.0593   6.7933   6.7992   8.9065   8.9139  10.2462  10.5879  10.8627
    10.8671  11.7644

     occupation numbers 
     1.0000   1.0000   1.0000   1.0000   1.0000   1.0000   1.0000   1.0000
     1.0000   1.0000   1.0000   0.0004   0.0004   0.0000   0.0000   0.0000
     0.0000   0.0000

          k = 0.3928-0.0786 0.3928 (  3573 PWs)   bands (ev):

    -1.6712  -0.3709   0.6569   2.4238   2.4294   4.6316   4.6368   5.6693
     5.6746   6.1294   6.4402   8.7436   9.4952  10.0107  10.0198  10.4503
    12.0392  12.0508

     occupation numbers 
     1.0000   1.0000   1.0000   1.0000   1.0000   1.0000   1.0000   1.0000
     1.0000   1.0000   1.0000   0.0073   0.0000   0.0000   0.0000   0.0000
     0.0000   0.0000

          k = 0.3143-0.0000 0.3143 (  3567 PWs)   bands (ev):

    -2.2254   0.6284   0.6285   2.8927   2.8982   4.4842   4.4843   4.8022
     4.8023   6.2191   7.3691   8.1052   8.5322   8.5322  10.7873  10.7964
    10.9039  10.9149

     occupation numbers 
     1.0000   1.0000   1.0000   1.0000   1.0000   1.0000   1.0000   1.0000
     1.0000   1.0000   1.0000   1.0223   0.1093   0.1093   0.0000   0.0000
     0.0000   0.0000

          k = 0.0000 0.4714 0.0000 (  3567 PWs)   bands (ev):

    -2.1083   0.9966   1.7483   1.7582   1.7582   1.7681   6.3222   6.3224
     7.6460   7.6554   7.6567   7.6674   7.6989   7.7001   9.1288   9.1289
    10.9520  10.9521

     occupation numbers 
     1.0000   1.0000   1.0000   1.0000   1.0000   1.0000   1.0000   1.0000
     1.0056   1.0064   1.0065   1.0075   1.0112   1.0113   0.0000   0.0000
     0.0000   0.0000

          k =-0.0786 0.5500-0.0786 (  3562 PWs)   bands (ev):

    -1.6710   0.4011   0.6569   1.6710   1.6768   2.6797   6.2103   6.2150
     7.5357   8.0422   8.0502   8.4894   8.4966   8.6903   8.6904   9.4484
    10.8513  10.8546

     occupation numbers 
     1.0000   1.0000   1.0000   1.0000   1.0000   1.0000   1.0000   1.0000
     1.0010   1.0722   1.0683   0.1649   0.1544   0.0161   0.0160   0.0000
     0.0000   0.0000

          k = 0.5500-0.0786 0.5500 (  3567 PWs)   bands (ev):

    -1.0620  -0.2849  -0.0269   1.7549   1.7607   3.7559   5.8843   5.8895
     6.8974   6.9029   7.5021   9.3936   9.4022   9.9893   9.9923  10.0315
    11.3245  11.3283

     occupation numbers 
     1.0000   1.0000   1.0000   1.0000   1.0000   1.0000   1.0000   1.0000
     1.0000   1.0000   1.0006   0.0000   0.0000   0.0000   0.0000   0.0000
     0.0000   0.0000

          k = 0.4714-0.0000 0.4714 (  3578 PWs)   bands (ev):

    -1.0622  -0.2847  -0.2847   2.0065   2.0122   4.9778   5.5302   5.5302
     5.8848   5.8849   7.2553   8.8443  10.0672  10.0777  11.3757  11.3759
    11.4368  11.4369

     occupation numbers 
     1.0000   1.0000   1.0000   1.0000   1.0000   1.0000   1.0000   1.0000
     1.0000   1.0000   1.0000   0.0013   0.0000   0.0000   0.0000   0.0000
     0.0000   0.0000

          k = 0.0000 0.6285 0.0000 (  3551 PWs)   bands (ev):

    -1.2935  -0.2558   1.5234   1.5333   1.5333   1.5432   7.0472   7.0473
     7.9822   7.9823   8.3039   8.3040   9.1776   9.1894   9.1894   9.2012
     9.9653   9.9653

     occupation numbers 
     1.0000   1.0000   1.0000   1.0000   1.0000   1.0000   1.0000   1.0000
     1.0832   1.0832   0.5868   0.5865   0.0000   0.0000   0.0000   0.0000
     0.0000   0.0000

          k = 0.6285 0.0000 0.6285 (  3556 PWs)   bands (ev):

    -0.7444  -0.7444   0.5433   1.5585   1.5643   2.5685   6.9475   6.9475
     7.1654   7.1655   8.7132   9.0953   9.0953   9.6490   9.6594  10.1913
    10.1914  10.3690

     occupation numbers 
     1.0000   1.0000   1.0000   1.0000   1.0000   1.0000   1.0000   1.0000
     1.0000   1.0000   0.0115   0.0000   0.0000   0.0000   0.0000   0.0000
     0.0000   0.0000

          k =-0.1571 0.3143 0.0000 (  3578 PWs)   bands (ev):

    -2.5772   1.3033   1.3127   2.5626   3.3097   3.3192   4.5088   5.3065
     5.3161   5.9091   7.2483   7.2580   7.2694   8.6523   9.3849  10.5344
    10.5932  12.3201

     occupation numbers 
     1.0000   1.0000   1.0000   1.0000   1.0000   1.0000   1.0000   1.0000
     1.0000   1.0000   1.0000   1.0000   1.0000   0.0270   0.0000   0.0000
     0.0000   0.0000

          k =-0.2357 0.3928-0.0786 (  3570 PWs)   bands (ev):

    -2.1377   0.2014   1.2232   1.9800   3.2320   3.9597   4.2081   5.2366
     5.7907   6.1962   7.6902   8.1261   8.4335   9.0871   9.5175  10.0607
    11.4127  11.9424

     occupation numbers 
     1.0000   1.0000   1.0000   1.0000   1.0000   1.0000   1.0000   1.0000
     1.0000   1.0000   1.0101   0.9953   0.2633   0.0000   0.0000   0.0000
     0.0000   0.0000

          k = 0.3928-0.2357 0.5500 (  3579 PWs)   bands (ev):

    -1.5259  -0.7448   1.3075   1.5606   3.3132   3.5572   5.1122   5.4546
     5.4642   6.5202   7.2243   8.3714   9.1378   9.7088  10.2671  11.0458
    11.3311  11.4417

     occupation numbers 
     1.0000   1.0000   1.0000   1.0000   1.0000   1.0000   1.0000   1.0000
     1.0000   1.0000   1.0000   0.4056   0.0000   0.0000   0.0000   0.0000
     0.0000   0.0000

          k =-0.1571 0.4714 0.0000 (  3559 PWs)   bands (ev):

    -1.9916   0.8507   0.8602   1.1098   2.8690   2.8785   5.0473   6.4258
     6.7941   6.8041   7.5842   8.2568   8.7177   8.7281   9.1191   9.2336
    11.1047  12.2309

     occupation numbers 
     1.0000   1.0000   1.0000   1.0000   1.0000   1.0000   1.0000   1.0000
     1.0000   1.0000   1.0023   0.7157   0.0108   0.0092   0.0000   0.0000
     0.0000   0.0000

          k = 0.4714-0.1571 0.6285 (  3570 PWs)   bands (ev):

    -1.4386  -0.1416   0.6283   0.8840   2.9007   3.8917   4.6121   6.3379
     6.6403   6.7902   7.7469   8.3323   8.9381   9.6558  10.3400  10.6085
    10.9877  11.3236

     occupation numbers 
     1.0000   1.0000   1.0000   1.0000   1.0000   1.0000   1.0000   1.0000
     1.0000   1.0000   1.0193   0.5087   0.0002   0.0000   0.0000   0.0000
     0.0000   0.0000

          k = 0.3928-0.0786 0.5500 (  3567 PWs)   bands (ev):

    -0.9755  -0.7159   0.3156   1.0818   3.0926   4.3220   5.0554   5.2807
     6.2729   6.8727   7.2133   8.7623   9.3798  10.4309  10.6560  11.0141
    11.2307  11.2758

     occupation numbers 
     1.0000   1.0000   1.0000   1.0000   1.0000   1.0000   1.0000   1.0000
     1.0000   1.0000   1.0000   0.0054   0.0000   0.0000   0.0000   0.0000
     0.0000   0.0000

          k = 0.3143-0.0000 0.4714 (  3575 PWs)   bands (ev):

    -1.6421   0.1729   0.1729   1.4480   3.4474   4.1878   4.1878   6.1583
     6.1584   6.3439   6.7366   8.3114   9.5480   9.9894   9.9894  10.8400
    11.4364  11.8750

     occupation numbers 
     1.0000   1.0000   1.0000   1.0000   1.0000   1.0000   1.0000   1.0000
     1.0000   1.0000   1.0000   0.5660   0.0000   0.0000   0.0000   0.0000
     0.0000   0.0000

          k = 0.5500-0.0786 0.7071 (  3556 PWs)   bands (ev):

    -1.1776  -0.1413   0.6238   0.6333   2.6469   2.6564   5.7944   6.7323
     7.1511   8.0865   8.3398   8.3507   8.6716   9.3359  10.2367  10.2479
    10.4857  10.8809

     occupation numbers 
     1.0000   1.0000   1.0000   1.0000   1.0000   1.0000   1.0000   1.0000
     1.0000   1.0419   0.4882   0.4593   0.0208   0.0000   0.0000   0.0000
     0.0000   0.0000

          k = 0.4714 0.0000 0.6285 (  3561 PWs)   bands (ev):

    -0.5143  -0.5143  -0.2561   0.7705   2.7897   3.7829   5.4707   5.4707
     7.2908   7.2909   7.9832   8.9218   9.6050   9.7318   9.7319  10.5620
    10.8075  11.7115

     occupation numbers 
     1.0000   1.0000   1.0000   1.0000   1.0000   1.0000   1.0000   1.0000
     1.0000   1.0000   1.0832   0.0003   0.0000   0.0000   0.0000   0.0000
     0.0000   0.0000

          k = 0.3928-0.0786 0.7071 (  3571 PWs)   bands (ev):

    -0.8311  -0.0604  -0.0509   0.2017   3.9678   3.9774   4.2142   5.1879
     7.4628   7.7064   7.7171   8.3995   9.0444   9.9689  10.2210  10.2294
    11.4953  11.5068

     occupation numbers 
     1.0000   1.0000   1.0000   1.0000   1.0000   1.0000   1.0000   1.0000
     1.0003   1.0122   1.0139   0.3373   0.0000   0.0000   0.0000   0.0000
     0.0000   0.0000

          k =-0.0786 0.0786 0.0786 (  3593 PWs)   bands (ev):

    -3.0776   2.3461   3.3359   3.3379   3.3398   4.3626   4.3646   4.3664
     4.9460   4.9475   4.9492   5.3400   7.3299   7.3316   7.3334  12.4359
    12.4386  12.4412

     occupation numbers 
     1.0000   1.0000   1.0000   1.0000   1.0000   1.0000   1.0000   1.0000
     1.0000   1.0000   1.0000   1.0000   1.0000   1.0000   1.0000   0.0000
     0.0000   0.0000

          k =-0.1571 0.1571 0.1571 (  3584 PWs)   bands (ev):

    -2.8124   1.0821   3.0920   3.0940   3.0959   4.2906   4.2925   4.2943
     5.0943   5.0962   5.0983   7.0440   8.4424   8.4446   8.4469  10.9918
    10.9939  10.9961

     occupation numbers 
     1.0000   1.0000   1.0000   1.0000   1.0000   1.0000   1.0000   1.0000
     1.0000   1.0000   1.0000   1.0000   0.2455   0.2413   0.2370   0.0000
     0.0000   0.0000

          k =-0.2357 0.2357 0.2357 (  3561 PWs)   bands (ev):

    -2.3719  -0.0273   3.0090   3.0110   3.0129   3.7390   3.7410   3.7429
     5.9859   5.9879   5.9900   8.8860   9.3637   9.3673   9.3710   9.9919
     9.9925   9.9932

     occupation numbers 
     1.0000   1.0000   1.0000   1.0000   1.0000   1.0000   1.0000   1.0000
     1.0000   1.0000   1.0000   0.0006   0.0000   0.0000   0.0000   0.0000
     0.0000   0.0000

          k =-0.3143 0.3143 0.3143 (  3579 PWs)   bands (ev):

    -1.7586  -0.9757   3.0903   3.0922   3.0942   3.3352   3.3371   3.3391
     7.0267   7.0289   7.0310   8.2016   8.2040   8.2063  10.8592  11.3409
    11.3428  11.3446

     occupation numbers 
     1.0000   1.0000   1.0000   1.0000   1.0000   1.0000   1.0000   1.0000
     1.0000   1.0000   1.0000   0.8540   0.8485   0.8430   0.0000   0.0000
     0.0000   0.0000

          k = 0.1571 0.0000 0.0000 (  3591 PWs)   bands (ev):

    -3.0481   2.8673   2.8702   2.8768   2.8796   4.0758   4.8714   4.8742
     4.8811   4.8839   5.4965   5.4965   6.8424   6.8425   8.2397  12.0550
    12.0550  13.4840

     occupation numbers 
     1.0000   1.0000   1.0000   1.0000   1.0000   1.0000   1.0000   1.0000
     1.0000   1.0000   1.0000   1.0000   1.0000   1.0000   0.7609   0.0000
     0.0000   0.0000

          k = 0.2357-0.0786 0.0786 (  3592 PWs)   bands (ev):

    -2.8418   1.5616   2.5672   2.5700   3.3022   3.5564   4.5846   5.1584
     5.1607   5.5546   5.5575   6.5309   7.5446   7.5471   9.3581  10.8704
    10.8726  12.6528

     occupation numbers 
     1.0000   1.0000   1.0000   1.0000   1.0000   1.0000   1.0000   1.0000
     1.0000   1.0000   1.0000   1.0000   1.0012   1.0013   0.0000   0.0000
     0.0000   0.0000

          k =-0.2357 0.0786 0.0786 (  3592 PWs)   bands (ev):

    -2.8418   1.5616   2.5672   2.5700   3.3021   3.5565   4.5846   5.1583
     5.1606   5.5547   5.5576   6.5309   7.5446   7.5471   9.3581  10.8704
    10.8726  12.6528

     occupation numbers 
     1.0000   1.0000   1.0000   1.0000   1.0000   1.0000   1.0000   1.0000
     1.0000   1.0000   1.0000   1.0000   1.0012   1.0013   0.0000   0.0000
     0.0000   0.0000

          k = 0.0786-0.2357-0.0786 (  3592 PWs)   bands (ev):

    -2.8418   1.5616   2.5686   2.5687   3.3020   3.5566   4.5846   5.1593
     5.1595   5.5561   5.5562   6.5309   7.5458   7.5458   9.3581  10.8714
    10.8715  12.6529

     occupation numbers 
     1.0000   1.0000   1.0000   1.0000   1.0000   1.0000   1.0000   1.0000
     1.0000   1.0000   1.0000   1.0000   1.0012   1.0012   0.0000   0.0000
     0.0000   0.0000

          k = 0.3143-0.1571 0.1571 (  3573 PWs)   bands (ev):

    -2.4598   0.4009   2.4276   2.4305   2.6739   4.2745   4.5775   4.6156
     4.6182   6.3895   6.3924   8.3251   8.6915   8.6957   9.5468   9.5479
    10.5840  11.3635

     occupation numbers 
     1.0000   1.0000   1.0000   1.0000   1.0000   1.0000   1.0000   1.0000
     1.0000   1.0000   1.0000   0.5281   0.0158   0.0149   0.0000   0.0000
     0.0000   0.0000

          k =-0.3143 0.1571 0.1571 (  3573 PWs)   bands (ev):

    -2.4598   0.4009   2.4276   2.4305   2.6738   4.2745   4.5775   4.6156
     4.6182   6.3895   6.3925   8.3251   8.6915   8.6957   9.5468   9.5479
    10.5840  11.3635

     occupation numbers 
     1.0000   1.0000   1.0000   1.0000   1.0000   1.0000   1.0000   1.0000
     1.0000   1.0000   1.0000   0.5281   0.0158   0.0149   0.0000   0.0000
     0.0000   0.0000

          k = 0.1571-0.3143-0.1571 (  3573 PWs)   bands (ev):

    -2.4598   0.4009   2.4291   2.4291   2.6737   4.2745   4.5781   4.6166
     4.6166   6.3910   6.3910   8.3252   8.6936   8.6936   9.5474   9.5474
    10.5840  11.3635

     occupation numbers 
     1.0000   1.0000   1.0000   1.0000   1.0000   1.0000   1.0000   1.0000
     1.0000   1.0000   1.0000   0.5279   0.0153   0.0153   0.0000   0.0000
     0.0000   0.0000

          k = 0.3928-0.2357 0.2357 (  3573 PWs)   bands (ev):

    -1.9042  -0.6010   2.2035   2.4547   2.4576   4.1758   4.1785   4.4181
     5.4612   7.3729   7.3760   8.0487   8.0521   9.9371  10.2502  10.2776
    10.2800  12.1470

     occupation numbers 
     1.0000   1.0000   1.0000   1.0000   1.0000   1.0000   1.0000   1.0000
     1.0000   1.0000   1.0000   1.0691   1.0673   0.0000   0.0000   0.0000
     0.0000   0.0000

          k =-0.3928 0.2357 0.2357 (  3573 PWs)   bands (ev):

    -1.9042  -0.6009   2.2035   2.4548   2.4576   4.1758   4.1785   4.4180
     5.4612   7.3729   7.3760   8.0488   8.0521   9.9371  10.2504  10.2776
    10.2798  12.1470

     occupation numbers 
     1.0000   1.0000   1.0000   1.0000   1.0000   1.0000   1.0000   1.0000
     1.0000   1.0000   1.0000   1.0690   1.0673   0.0000   0.0000   0.0000
     0.0000   0.0000

          k = 0.2357-0.3928-0.2357 (  3573 PWs)   bands (ev):

    -1.9042  -0.6009   2.2036   2.4561   2.4561   4.1772   4.1772   4.4179
     5.4613   7.3745   7.3745   8.0504   8.0504   9.9371  10.2514  10.2782
    10.2783  12.1470

     occupation numbers 
     1.0000   1.0000   1.0000   1.0000   1.0000   1.0000   1.0000   1.0000
     1.0000   1.0000   1.0000   1.0682   1.0682   0.0000   0.0000   0.0000
     0.0000   0.0000

          k =-0.2357 0.3928-0.3928 (  3581 PWs)   bands (ev):

    -1.4388  -1.1780   1.8973   2.6477   2.6505   3.8837   3.8865   4.6078
     6.5991   6.8349   6.8378   8.4917   8.4952   8.7465  10.7032  11.6074
    11.8529  11.8555

     occupation numbers 
     1.0000   1.0000   1.0000   1.0000   1.0000   1.0000   1.0000   1.0000
     1.0000   1.0000   1.0000   0.1614   0.1564   0.0070   0.0000   0.0000
     0.0000   0.0000

          k = 0.2357-0.3928-0.3928 (  3581 PWs)   bands (ev):

    -1.4390  -1.1779   1.8973   2.6477   2.6505   3.8837   3.8864   4.6078
     6.5991   6.8349   6.8379   8.4917   8.4952   8.7465  10.7032  11.6073
    11.8530  11.8555

     occupation numbers 
     1.0000   1.0000   1.0000   1.0000   1.0000   1.0000   1.0000   1.0000
     1.0000   1.0000   1.0000   0.1614   0.1564   0.0070   0.0000   0.0000
     0.0000   0.0000

          k =-0.3928 0.2357 0.3928 (  3581 PWs)   bands (ev):

    -1.4390  -1.1779   1.8973   2.6491   2.6491   3.8851   3.8851   4.6077
     6.5992   6.8364   6.8364   8.4934   8.4934   8.7465  10.7032  11.6073
    11.8543  11.8543

     occupation numbers 
     1.0000   1.0000   1.0000   1.0000   1.0000   1.0000   1.0000   1.0000
     1.0000   1.0000   1.0000   0.1589   0.1589   0.0070   0.0000   0.0000
     0.0000   0.0000

          k =-0.1571 0.3143-0.3143 (  3572 PWs)   bands (ev):

    -2.1085  -0.2850   1.7578   3.0046   3.0074   3.7492   3.7520   4.9382
     5.7442   5.7470   7.6747   7.8423   9.2106   9.5965   9.7030   9.7073
    11.0274  11.0301

     occupation numbers 
     1.0000   1.0000   1.0000   1.0000   1.0000   1.0000   1.0000   1.0000
     1.0000   1.0000   1.0083   1.0456   0.0000   0.0000   0.0000   0.0000
     0.0000   0.0000

          k = 0.1571-0.3143-0.3143 (  3572 PWs)   bands (ev):

    -2.1085  -0.2850   1.7578   3.0047   3.0074   3.7492   3.7519   4.9382
     5.7442   5.7470   7.6748   7.8422   9.2106   9.5962   9.7031   9.7075
    11.0274  11.0301

     occupation numbers 
     1.0000   1.0000   1.0000   1.0000   1.0000   1.0000   1.0000   1.0000
     1.0000   1.0000   1.0083   1.0455   0.0000   0.0000   0.0000   0.0000
     0.0000   0.0000

          k =-0.3143 0.1571 0.3143 (  3572 PWs)   bands (ev):

    -2.1085  -0.2850   1.7578   3.0060   3.0060   3.7506   3.7506   4.9382
     5.7456   5.7456   7.6748   7.8423   9.2106   9.5964   9.7051   9.7053
    11.0288  11.0288

     occupation numbers 
     1.0000   1.0000   1.0000   1.0000   1.0000   1.0000   1.0000   1.0000
     1.0000   1.0000   1.0083   1.0456   0.0000   0.0000   0.0000   0.0000
     0.0000   0.0000

          k =-0.0786 0.2357-0.2357 (  3574 PWs)   bands (ev):

    -2.6065   0.7704   1.7863   3.5204   3.5231   3.7721   3.7747   4.8040
     4.8067   5.3709   6.7440   7.7115   7.7390   9.3978   9.5482   9.5518
    11.0921  11.0962

     occupation numbers 
     1.0000   1.0000   1.0000   1.0000   1.0000   1.0000   1.0000   1.0000
     1.0000   1.0000   1.0000   1.0130   1.0177   0.0000   0.0000   0.0000
     0.0000   0.0000

          k = 0.0786-0.2357-0.2357 (  3574 PWs)   bands (ev):

    -2.6065   0.7704   1.7863   3.5205   3.5232   3.7719   3.7746   4.8040
     4.8067   5.3708   6.7440   7.7126   7.7379   9.3978   9.5482   9.5518
    11.0921  11.0962

     occupation numbers 
     1.0000   1.0000   1.0000   1.0000   1.0000   1.0000   1.0000   1.0000
     1.0000   1.0000   1.0000   1.0132   1.0175   0.0000   0.0000   0.0000
     0.0000   0.0000

          k =-0.2357 0.0786 0.2357 (  3574 PWs)   bands (ev):

    -2.6065   0.7705   1.7863   3.5217   3.5217   3.7734   3.7734   4.8053
     4.8054   5.3708   6.7440   7.7113   7.7392   9.3978   9.5500   9.5501
    11.0942  11.0942

     occupation numbers 
     1.0000   1.0000   1.0000   1.0000   1.0000   1.0000   1.0000   1.0000
     1.0000   1.0000   1.0000   1.0130   1.0178   0.0000   0.0000   0.0000
     0.0000   0.0000

          k =-0.0000 0.1571-0.1571 (  3579 PWs)   bands (ev):

    -2.9301   1.9781   1.9875   3.8546   3.8547   4.1239   4.1240   4.1833
     4.1859   5.5995   5.9588   5.9686   6.9520   8.3430   8.3460  10.8828
    12.1587  12.1645

     occupation numbers 
     1.0000   1.0000   1.0000   1.0000   1.0000   1.0000   1.0000   1.0000
     1.0000   1.0000   1.0000   1.0000   1.0000   0.4796   0.4716   0.0000
     0.0000   0.0000

          k =-0.1571 0.0000 0.1571 (  3579 PWs)   bands (ev):

    -2.9301   1.9828   1.9828   3.8546   3.8548   4.1227   4.1242   4.1843
     4.1857   5.5994   5.9637   5.9638   6.9521   8.3445   8.3445  10.8828
    12.1616  12.1616

     occupation numbers 
     1.0000   1.0000   1.0000   1.0000   1.0000   1.0000   1.0000   1.0000
     1.0000   1.0000   1.0000   1.0000   1.0000   0.4756   0.4756   0.0000
     0.0000   0.0000

          k = 0.3143 0.0000 0.0000 (  3579 PWs)   bands (ev):

    -2.6946   2.2001   2.2031   2.2098   2.2125   2.4518   5.8057   5.8057
     6.1697   6.1727   6.1796   6.1825   7.1729   7.1729  10.4390  10.4878
    10.4878  12.2079

     occupation numbers 
     1.0000   1.0000   1.0000   1.0000   1.0000   1.0000   1.0000   1.0000
     1.0000   1.0000   1.0000   1.0000   1.0000   1.0000   0.0000   0.0000
     0.0000   0.0000

          k = 0.3928-0.0786 0.0786 (  3567 PWs)   bands (ev):

    -2.3718   0.9971   1.7559   2.0091   2.0120   3.0122   5.5812   5.5835
     5.9806   6.9484   6.9514   7.9153   7.9535   7.9565   9.4363   9.4376
    11.6635  12.0193

     occupation numbers 
     1.0000   1.0000   1.0000   1.0000   1.0000   1.0000   1.0000   1.0000
     1.0000   1.0000   1.0000   1.0701   1.0798   1.0803   0.0000   0.0000
     0.0000   0.0000

          k =-0.3928 0.0786 0.0786 (  3567 PWs)   bands (ev):

    -2.3718   0.9971   1.7559   2.0091   2.0120   3.0122   5.5812   5.5835
     5.9806   6.9484   6.9515   7.9152   7.9535   7.9566   9.4363   9.4376
    11.6635  12.0192

     occupation numbers 
     1.0000   1.0000   1.0000   1.0000   1.0000   1.0000   1.0000   1.0000
     1.0000   1.0000   1.0000   1.0701   1.0798   1.0803   0.0000   0.0000
     0.0000   0.0000

          k = 0.0786-0.3928-0.0786 (  3567 PWs)   bands (ev):

    -2.3718   0.9971   1.7560   2.0105   2.0105   3.0123   5.5824   5.5824
     5.9805   6.9499   6.9499   7.9161   7.9546   7.9547   9.4369   9.4370
    11.6636  12.0201

     occupation numbers 
     1.0000   1.0000   1.0000   1.0000   1.0000   1.0000   1.0000   1.0000
     1.0000   1.0000   1.0000   1.0703   1.0800   1.0800   0.0000   0.0000
     0.0000   0.0000

          k = 0.4714-0.1571 0.1571 (  3565 PWs)   bands (ev):

    -1.8750  -0.0558   1.2226   1.9807   1.9836   3.9721   5.1519   5.1546
     5.9430   7.8663   7.8696   8.0163   8.0199   9.3813   9.3827   9.7847
    11.7738  11.9728

     occupation numbers 
     1.0000   1.0000   1.0000   1.0000   1.0000   1.0000   1.0000   1.0000
     1.0000   1.0538   1.0549   1.0805   1.0798   0.0000   0.0000   0.0000
     0.0000   0.0000

          k =-0.4714 0.1571 0.1571 (  3565 PWs)   bands (ev):

    -1.8750  -0.0558   1.2225   1.9807   1.9836   3.9721   5.1519   5.1545
     5.9430   7.8663   7.8696   8.0164   8.0199   9.3813   9.3827   9.7848
    11.7738  11.9728

     occupation numbers 
     1.0000   1.0000   1.0000   1.0000   1.0000   1.0000   1.0000   1.0000
     1.0000   1.0538   1.0549   1.0805   1.0798   0.0000   0.0000   0.0000
     0.0000   0.0000

          k = 0.1571-0.4714-0.1571 (  3565 PWs)   bands (ev):

    -1.8750  -0.0558   1.2226   1.9821   1.9821   3.9722   5.1533   5.1533
     5.9430   7.8680   7.8680   8.0181   8.0181   9.3820   9.3821   9.7847
    11.7738  11.9728

     occupation numbers 
     1.0000   1.0000   1.0000   1.0000   1.0000   1.0000   1.0000   1.0000
     1.0000   1.0543   1.0544   1.0802   1.0802   0.0000   0.0000   0.0000
     0.0000   0.0000

          k =-0.1571 0.4714-0.4714 (  3570 PWs)   bands (ev):

    -1.2068  -0.9467   0.8554   2.1198   2.1226   4.8229   4.8256   5.0714
     6.0593   6.7948   6.7977   8.9084   8.9121  10.2461  10.5878  10.8638
    10.8660  11.7644

     occupation numbers 
     1.0000   1.0000   1.0000   1.0000   1.0000   1.0000   1.0000   1.0000
     1.0000   1.0000   1.0000   0.0004   0.0004   0.0000   0.0000   0.0000
     0.0000   0.0000

          k = 0.1571-0.4714-0.4714 (  3570 PWs)   bands (ev):

    -1.2069  -0.9466   0.8553   2.1198   2.1227   4.8229   4.8256   5.0714
     6.0593   6.7948   6.7977   8.9084   8.9121  10.2461  10.5878  10.8638
    10.8660  11.7644

     occupation numbers 
     1.0000   1.0000   1.0000   1.0000   1.0000   1.0000   1.0000   1.0000
     1.0000   1.0000   1.0000   0.0004   0.0004   0.0000   0.0000   0.0000
     0.0000   0.0000

          k =-0.4714 0.1571 0.4714 (  3570 PWs)   bands (ev):

    -1.2069  -0.9466   0.8554   2.1212   2.1212   4.8243   4.8243   5.0714
     6.0592   6.7962   6.7963   8.9102   8.9102  10.2461  10.5878  10.8649
    10.8650  11.7644

     occupation numbers 
     1.0000   1.0000   1.0000   1.0000   1.0000   1.0000   1.0000   1.0000
     1.0000   1.0000   1.0000   0.0004   0.0004   0.0000   0.0000   0.0000
     0.0000   0.0000

          k =-0.0786 0.3928-0.3928 (  3573 PWs)   bands (ev):

    -1.6712  -0.3709   0.6569   2.4252   2.4280   4.6329   4.6355   5.6707
     5.6733   6.1294   6.4402   8.7436   9.4952  10.0130  10.0175  10.4504
    12.0420  12.0478

     occupation numbers 
     1.0000   1.0000   1.0000   1.0000   1.0000   1.0000   1.0000   1.0000
     1.0000   1.0000   1.0000   0.0073   0.0000   0.0000   0.0000   0.0000
     0.0000   0.0000

          k = 0.0786-0.3928-0.3928 (  3573 PWs)   bands (ev):

    -1.6712  -0.3709   0.6569   2.4252   2.4280   4.6329   4.6355   5.6707
     5.6733   6.1293   6.4402   8.7436   9.4952  10.0130  10.0175  10.4504
    12.0420  12.0478

     occupation numbers 
     1.0000   1.0000   1.0000   1.0000   1.0000   1.0000   1.0000   1.0000
     1.0000   1.0000   1.0000   0.0073   0.0000   0.0000   0.0000   0.0000
     0.0000   0.0000

          k =-0.3928 0.0786 0.3928 (  3573 PWs)   bands (ev):

    -1.6712  -0.3709   0.6569   2.4266   2.4266   4.6342   4.6342   5.6720
     5.6720   6.1293   6.4402   8.7436   9.4952  10.0152  10.0152  10.4504
    12.0449  12.0449

     occupation numbers 
     1.0000   1.0000   1.0000   1.0000   1.0000   1.0000   1.0000   1.0000
     1.0000   1.0000   1.0000   0.0073   0.0000   0.0000   0.0000   0.0000
     0.0000   0.0000

          k =-0.0000 0.3143-0.3143 (  3567 PWs)   bands (ev):

    -2.2254   0.6238   0.6332   2.8940   2.8968   4.4842   4.4843   4.8023
     4.8024   6.2191   7.3690   8.1052   8.5271   8.5374  10.7896  10.7941
    10.9066  10.9122

     occupation numbers 
     1.0000   1.0000   1.0000   1.0000   1.0000   1.0000   1.0000   1.0000
     1.0000   1.0000   1.0000   1.0223   0.1151   0.1037   0.0000   0.0000
     0.0000   0.0000

          k =-0.3143 0.0000 0.3143 (  3567 PWs)   bands (ev):

    -2.2255   0.6285   0.6285   2.8954   2.8954   4.4843   4.4843   4.8022
     4.8023   6.2190   7.3690   8.1052   8.5323   8.5323  10.7918  10.7918
    10.9094  10.9094

     occupation numbers 
     1.0000   1.0000   1.0000   1.0000   1.0000   1.0000   1.0000   1.0000
     1.0000   1.0000   1.0000   1.0223   0.1093   0.1092   0.0000   0.0000
     0.0000   0.0000

          k = 0.4714 0.0000 0.0000 (  3567 PWs)   bands (ev):

    -2.1083   0.9966   1.7521   1.7549   1.7615   1.7644   6.3223   6.3223
     7.6494   7.6532   7.6602   7.6626   7.6994   7.6997   9.1288   9.1288
    10.9520  10.9521

     occupation numbers 
     1.0000   1.0000   1.0000   1.0000   1.0000   1.0000   1.0000   1.0000
     1.0059   1.0062   1.0068   1.0071   1.0112   1.0113   0.0000   0.0000
     0.0000   0.0000

          k = 0.5500-0.0786 0.0786 (  3562 PWs)   bands (ev):

    -1.6710   0.4010   0.6570   1.6724   1.6753   2.6797   6.2115   6.2138
     7.5357   8.0442   8.0482   8.4910   8.4946   8.6905   8.6906   9.4484
    10.8521  10.8538

     occupation numbers 
     1.0000   1.0000   1.0000   1.0000   1.0000   1.0000   1.0000   1.0000
     1.0010   1.0713   1.0693   0.1624   0.1572   0.0160   0.0160   0.0000
     0.0000   0.0000

          k =-0.5500 0.0786 0.0786 (  3562 PWs)   bands (ev):

    -1.6710   0.4011   0.6569   1.6724   1.6753   2.6797   6.2115   6.2138
     7.5357   8.0442   8.0482   8.4912   8.4948   8.6903   8.6904   9.4484
    10.8521  10.8538

     occupation numbers 
     1.0000   1.0000   1.0000   1.0000   1.0000   1.0000   1.0000   1.0000
     1.0010   1.0713   1.0693   0.1622   0.1569   0.0161   0.0160   0.0000
     0.0000   0.0000

          k = 0.0786-0.5500-0.0786 (  3562 PWs)   bands (ev):

    -1.6710   0.4010   0.6570   1.6738   1.6738   2.6798   6.2127   6.2127
     7.5357   8.0462   8.0462   8.4928   8.4929   8.6905   8.6906   9.4484
    10.8529  10.8529

     occupation numbers 
     1.0000   1.0000   1.0000   1.0000   1.0000   1.0000   1.0000   1.0000
     1.0010   1.0703   1.0703   0.1598   0.1597   0.0160   0.0160   0.0000
     0.0000   0.0000

          k =-0.0786 0.5500-0.5500 (  3567 PWs)   bands (ev):

    -1.0620  -0.2850  -0.0267   1.7563   1.7592   3.7559   5.8856   5.8882
     6.8988   6.9016   7.5021   9.3957   9.4000   9.9901   9.9916  10.0315
    11.3254  11.3273

     occupation numbers 
     1.0000   1.0000   1.0000   1.0000   1.0000   1.0000   1.0000   1.0000
     1.0000   1.0000   1.0006   0.0000   0.0000   0.0000   0.0000   0.0000
     0.0000   0.0000

          k = 0.0786-0.5500-0.5500 (  3567 PWs)   bands (ev):

    -1.0621  -0.2848  -0.0268   1.7563   1.7592   3.7559   5.8856   5.8881
     6.8988   6.9016   7.5021   9.3957   9.4001   9.9898   9.9914  10.0319
    11.3259  11.3276

     occupation numbers 
     1.0000   1.0000   1.0000   1.0000   1.0000   1.0000   1.0000   1.0000
     1.0000   1.0000   1.0006   0.0000   0.0000   0.0000   0.0000   0.0000
     0.0000   0.0000

          k =-0.5500 0.0786 0.5500 (  3567 PWs)   bands (ev):

    -1.0620  -0.2849  -0.0267   1.7577   1.7578   3.7559   5.8869   5.8869
     6.9002   6.9002   7.5020   9.3979   9.3979   9.9906   9.9908  10.0317
    11.3266  11.3268

     occupation numbers 
     1.0000   1.0000   1.0000   1.0000   1.0000   1.0000   1.0000   1.0000
     1.0000   1.0000   1.0006   0.0000   0.0000   0.0000   0.0000   0.0000
     0.0000   0.0000

          k = 0.0000 0.4714-0.4714 (  3578 PWs)   bands (ev):

    -1.0623  -0.2894  -0.2799   2.0079   2.0107   4.9778   5.5301   5.5302
     5.8848   5.8849   7.2553   8.8443  10.0698  10.0751  11.3757  11.3758
    11.4314  11.4423

     occupation numbers 
     1.0000   1.0000   1.0000   1.0000   1.0000   1.0000   1.0000   1.0000
     1.0000   1.0000   1.0000   0.0013   0.0000   0.0000   0.0000   0.0000
     0.0000   0.0000

          k =-0.4714 0.0000 0.4714 (  3578 PWs)   bands (ev):

    -1.0623  -0.2847  -0.2846   2.0093   2.0093   4.9779   5.5302   5.5303
     5.8848   5.8848   7.2553   8.8443  10.0724  10.0724  11.3757  11.3759
    11.4366  11.4368

     occupation numbers 
     1.0000   1.0000   1.0000   1.0000   1.0000   1.0000   1.0000   1.0000
     1.0000   1.0000   1.0000   0.0013   0.0000   0.0000   0.0000   0.0000
     0.0000   0.0000

          k = 0.6285 0.0000 0.0000 (  3551 PWs)   bands (ev):

    -1.2935  -0.2558   1.5271   1.5300   1.5366   1.5395   7.0472   7.0473
     7.9823   7.9823   8.3039   8.3039   9.1818   9.1860   9.1927   9.1970
     9.9653   9.9653

     occupation numbers 
     1.0000   1.0000   1.0000   1.0000   1.0000   1.0000   1.0000   1.0000
     1.0832   1.0832   0.5867   0.5867   0.0000   0.0000   0.0000   0.0000
     0.0000   0.0000

          k = 0.0000 0.6285-0.6285 (  3556 PWs)   bands (ev):

    -0.7491  -0.7397   0.5433   1.5599   1.5628   2.5685   6.9473   6.9474
     7.1655   7.1656   8.7132   9.0953   9.0953   9.6516   9.6568  10.1914
    10.1914  10.3690

     occupation numbers 
     1.0000   1.0000   1.0000   1.0000   1.0000   1.0000   1.0000   1.0000
     1.0000   1.0000   0.0115   0.0000   0.0000   0.0000   0.0000   0.0000
     0.0000   0.0000

          k =-0.6285 0.0000 0.6285 (  3556 PWs)   bands (ev):

    -0.7444  -0.7444   0.5433   1.5613   1.5613   2.5685   6.9475   6.9475
     7.1654   7.1654   8.7131   9.0953   9.0953   9.6541   9.6542  10.1913
    10.1915  10.3691

     occupation numbers 
     1.0000   1.0000   1.0000   1.0000   1.0000   1.0000   1.0000   1.0000
     1.0000   1.0000   0.0116   0.0000   0.0000   0.0000   0.0000   0.0000
     0.0000   0.0000

          k = 0.3143-0.1571-0.0000 (  3578 PWs)   bands (ev):

    -2.5772   1.3033   1.3127   2.5627   3.3097   3.3192   4.5088   5.3065
     5.3162   5.9091   7.2483   7.2580   7.2694   8.6523   9.3849  10.5344
    10.5932  12.3202

     occupation numbers 
     1.0000   1.0000   1.0000   1.0000   1.0000   1.0000   1.0000   1.0000
     1.0000   1.0000   1.0000   1.0000   1.0000   0.0270   0.0000   0.0000
     0.0000   0.0000

          k = 0.1571 0.0000 0.3143 (  3578 PWs)   bands (ev):

    -2.5772   1.3079   1.3080   2.5627   3.3144   3.3145   4.5089   5.3113
     5.3113   5.9091   7.2537   7.2537   7.2683   8.6523   9.3849  10.5344
    10.5931  12.3202

     occupation numbers 
     1.0000   1.0000   1.0000   1.0000   1.0000   1.0000   1.0000   1.0000
     1.0000   1.0000   1.0000   1.0000   1.0000   0.0270   0.0000   0.0000
     0.0000   0.0000

          k = 0.1571-0.0000-0.3143 (  3578 PWs)   bands (ev):

    -2.5772   1.3080   1.3080   2.5626   3.3145   3.3145   4.5088   5.3113
     5.3114   5.9090   7.2515   7.2537   7.2705   8.6523   9.3849  10.5344
    10.5932  12.3202

     occupation numbers 
     1.0000   1.0000   1.0000   1.0000   1.0000   1.0000   1.0000   1.0000
     1.0000   1.0000   1.0000   1.0000   1.0000   0.0270   0.0000   0.0000
     0.0000   0.0000

          k = 0.3928-0.2357 0.0786 (  3570 PWs)   bands (ev):

    -2.1377   0.2014   1.2232   1.9800   3.2320   3.9596   4.2081   5.2366
     5.7907   6.1962   7.6902   8.1261   8.4335   9.0871   9.5175  10.0607
    11.4127  11.9423

     occupation numbers 
     1.0000   1.0000   1.0000   1.0000   1.0000   1.0000   1.0000   1.0000
     1.0000   1.0000   1.0101   0.9953   0.2632   0.0000   0.0000   0.0000
     0.0000   0.0000

          k =-0.3928 0.2357 0.0786 (  3570 PWs)   bands (ev):

    -2.1377   0.2014   1.2232   1.9801   3.2320   3.9597   4.2081   5.2365
     5.7907   6.1962   7.6902   8.1261   8.4335   9.0870   9.5176  10.0607
    11.4127  11.9424

     occupation numbers 
     1.0000   1.0000   1.0000   1.0000   1.0000   1.0000   1.0000   1.0000
     1.0000   1.0000   1.0101   0.9953   0.2632   0.0000   0.0000   0.0000
     0.0000   0.0000

          k = 0.2357-0.3928-0.0786 (  3570 PWs)   bands (ev):

    -2.1377   0.2014   1.2232   1.9800   3.2320   3.9597   4.2081   5.2366
     5.7907   6.1962   7.6902   8.1261   8.4335   9.0870   9.5175  10.0607
    11.4127  11.9424

     occupation numbers 
     1.0000   1.0000   1.0000   1.0000   1.0000   1.0000   1.0000   1.0000
     1.0000   1.0000   1.0101   0.9953   0.2632   0.0000   0.0000   0.0000
     0.0000   0.0000

          k = 0.2357-0.0786 0.3928 (  3570 PWs)   bands (ev):

    -2.1377   0.2014   1.2231   1.9801   3.2320   3.9597   4.2080   5.2366
     5.7907   6.1962   7.6902   8.1261   8.4336   9.0870   9.5175  10.0607
    11.4127  11.9424

     occupation numbers 
     1.0000   1.0000   1.0000   1.0000   1.0000   1.0000   1.0000   1.0000
     1.0000   1.0000   1.0101   0.9953   0.2632   0.0000   0.0000   0.0000
     0.0000   0.0000

          k = 0.2357 0.0786-0.3928 (  3570 PWs)   bands (ev):

    -2.1377   0.2014   1.2232   1.9800   3.2320   3.9596   4.2081   5.2366
     5.7906   6.1962   7.6902   8.1261   8.4335   9.0871   9.5175  10.0607
    11.4127  11.9424

     occupation numbers 
     1.0000   1.0000   1.0000   1.0000   1.0000   1.0000   1.0000   1.0000
     1.0000   1.0000   1.0101   0.9952   0.2632   0.0000   0.0000   0.0000
     0.0000   0.0000

          k =-0.2357 0.3928-0.5500 (  3579 PWs)   bands (ev):

    -1.5259  -0.7448   1.3076   1.5605   3.3132   3.5572   5.1123   5.4590
     5.4598   6.5202   7.2243   8.3714   9.1378   9.7088  10.2671  11.0459
    11.3311  11.4417

     occupation numbers 
     1.0000   1.0000   1.0000   1.0000   1.0000   1.0000   1.0000   1.0000
     1.0000   1.0000   1.0000   0.4056   0.0000   0.0000   0.0000   0.0000
     0.0000   0.0000

          k = 0.2357-0.3928-0.5500 (  3579 PWs)   bands (ev):

    -1.5259  -0.7448   1.3075   1.5606   3.3132   3.5572   5.1122   5.4547
     5.4641   6.5202   7.2243   8.3714   9.1378   9.7088  10.2671  11.0458
    11.3311  11.4418

     occupation numbers 
     1.0000   1.0000   1.0000   1.0000   1.0000   1.0000   1.0000   1.0000
     1.0000   1.0000   1.0000   0.4056   0.0000   0.0000   0.0000   0.0000
     0.0000   0.0000

          k =-0.3928 0.2357 0.5500 (  3579 PWs)   bands (ev):

    -1.5259  -0.7448   1.3076   1.5605   3.3132   3.5572   5.1123   5.4590
     5.4597   6.5202   7.2243   8.3714   9.1378   9.7088  10.2671  11.0459
    11.3310  11.4418

     occupation numbers 
     1.0000   1.0000   1.0000   1.0000   1.0000   1.0000   1.0000   1.0000
     1.0000   1.0000   1.0000   0.4056   0.0000   0.0000   0.0000   0.0000
     0.0000   0.0000

          k =-0.3928 0.5500-0.2357 (  3579 PWs)   bands (ev):

    -1.5259  -0.7448   1.3075   1.5606   3.3132   3.5572   5.1122   5.4547
     5.4640   6.5202   7.2243   8.3714   9.1378   9.7089  10.2671  11.0458
    11.3311  11.4417

     occupation numbers 
     1.0000   1.0000   1.0000   1.0000   1.0000   1.0000   1.0000   1.0000
     1.0000   1.0000   1.0000   0.4056   0.0000   0.0000   0.0000   0.0000
     0.0000   0.0000

          k =-0.3928-0.5500 0.2357 (  3579 PWs)   bands (ev):

    -1.5259  -0.7448   1.3076   1.5605   3.3132   3.5572   5.1123   5.4590
     5.4597   6.5202   7.2243   8.3714   9.1379   9.7088  10.2671  11.0459
    11.3311  11.4418

     occupation numbers 
     1.0000   1.0000   1.0000   1.0000   1.0000   1.0000   1.0000   1.0000
     1.0000   1.0000   1.0000   0.4056   0.0000   0.0000   0.0000   0.0000
     0.0000   0.0000

          k = 0.4714-0.1571 0.0000 (  3559 PWs)   bands (ev):

    -1.9916   0.8507   0.8602   1.1098   2.8690   2.8785   5.0473   6.4258
     6.7941   6.8042   7.5842   8.2568   8.7177   8.7281   9.1191   9.2336
    11.1047  12.2309

     occupation numbers 
     1.0000   1.0000   1.0000   1.0000   1.0000   1.0000   1.0000   1.0000
     1.0000   1.0000   1.0023   0.7157   0.0108   0.0092   0.0000   0.0000
     0.0000   0.0000

          k = 0.1571 0.0000 0.4714 (  3559 PWs)   bands (ev):

    -1.9916   0.8552   0.8555   1.1099   2.8737   2.8737   5.0473   6.4257
     6.7991   6.7992   7.5842   8.2569   8.7228   8.7229   9.1191   9.2336
    11.1047  12.2309

     occupation numbers 
     1.0000   1.0000   1.0000   1.0000   1.0000   1.0000   1.0000   1.0000
     1.0000   1.0000   1.0023   0.7156   0.0100   0.0100   0.0000   0.0000
     0.0000   0.0000

          k = 0.1571 0.0000-0.4714 (  3559 PWs)   bands (ev):

    -1.9916   0.8555   0.8555   1.1096   2.8737   2.8737   5.0473   6.4258
     6.7991   6.7991   7.5842   8.2569   8.7229   8.7230   9.1190   9.2336
    11.1047  12.2309

     occupation numbers 
     1.0000   1.0000   1.0000   1.0000   1.0000   1.0000   1.0000   1.0000
     1.0000   1.0000   1.0023   0.7157   0.0100   0.0100   0.0000   0.0000
     0.0000   0.0000

          k =-0.1571 0.4714-0.6285 (  3570 PWs)   bands (ev):

    -1.4386  -0.1416   0.6285   0.8838   2.9006   3.8917   4.6121   6.3380
     6.6404   6.7901   7.7469   8.3323   8.9381   9.6557  10.3401  10.6084
    10.9877  11.3236

     occupation numbers 
     1.0000   1.0000   1.0000   1.0000   1.0000   1.0000   1.0000   1.0000
     1.0000   1.0000   1.0193   0.5087   0.0002   0.0000   0.0000   0.0000
     0.0000   0.0000

          k = 0.1571-0.4714-0.6285 (  3570 PWs)   bands (ev):

    -1.4387  -0.1415   0.6284   0.8840   2.9006   3.8917   4.6121   6.3379
     6.6403   6.7902   7.7469   8.3323   8.9381   9.6558  10.3400  10.6085
    10.9877  11.3236

     occupation numbers 
     1.0000   1.0000   1.0000   1.0000   1.0000   1.0000   1.0000   1.0000
     1.0000   1.0000   1.0193   0.5086   0.0002   0.0000   0.0000   0.0000
     0.0000   0.0000

          k =-0.4714 0.1571 0.6285 (  3570 PWs)   bands (ev):

    -1.4386  -0.1416   0.6285   0.8838   2.9006   3.8917   4.6121   6.3380
     6.6404   6.7901   7.7469   8.3322   8.9381   9.6557  10.3401  10.6084
    10.9877  11.3235

     occupation numbers 
     1.0000   1.0000   1.0000   1.0000   1.0000   1.0000   1.0000   1.0000
     1.0000   1.0000   1.0193   0.5087   0.0002   0.0000   0.0000   0.0000
     0.0000   0.0000

          k =-0.4714 0.6285-0.1571 (  3570 PWs)   bands (ev):

    -1.4386  -0.1416   0.6284   0.8839   2.9006   3.8916   4.6121   6.3379
     6.6403   6.7903   7.7469   8.3323   8.9382   9.6558  10.3400  10.6084
    10.9877  11.3236

     occupation numbers 
     1.0000   1.0000   1.0000   1.0000   1.0000   1.0000   1.0000   1.0000
     1.0000   1.0000   1.0193   0.5087   0.0002   0.0000   0.0000   0.0000
     0.0000   0.0000

          k =-0.4714-0.6285 0.1571 (  3570 PWs)   bands (ev):

    -1.4387  -0.1415   0.6285   0.8838   2.9007   3.8917   4.6121   6.3380
     6.6404   6.7901   7.7469   8.3323   8.9381   9.6558  10.3400  10.6084
    10.9877  11.3236

     occupation numbers 
     1.0000   1.0000   1.0000   1.0000   1.0000   1.0000   1.0000   1.0000
     1.0000   1.0000   1.0193   0.5087   0.0002   0.0000   0.0000   0.0000
     0.0000   0.0000

          k =-0.0786 0.3928-0.5500 (  3567 PWs)   bands (ev):

    -0.9755  -0.7159   0.3157   1.0818   3.0926   4.3220   5.0554   5.2807
     6.2729   6.8726   7.2134   8.7623   9.3798  10.4309  10.6559  11.0139
    11.2308  11.2759

     occupation numbers 
     1.0000   1.0000   1.0000   1.0000   1.0000   1.0000   1.0000   1.0000
     1.0000   1.0000   1.0000   0.0054   0.0000   0.0000   0.0000   0.0000
     0.0000   0.0000

          k = 0.0786-0.3928-0.5500 (  3567 PWs)   bands (ev):

    -0.9756  -0.7157   0.3156   1.0818   3.0926   4.3220   5.0554   5.2807
     6.2728   6.8727   7.2134   8.7623   9.3798  10.4309  10.6560  11.0140
    11.2300  11.2765

     occupation numbers 
     1.0000   1.0000   1.0000   1.0000   1.0000   1.0000   1.0000   1.0000
     1.0000   1.0000   1.0000   0.0054   0.0000   0.0000   0.0000   0.0000
     0.0000   0.0000

          k =-0.3928 0.0786 0.5500 (  3567 PWs)   bands (ev):

    -0.9757  -0.7157   0.3156   1.0817   3.0926   4.3220   5.0554   5.2807
     6.2729   6.8726   7.2133   8.7623   9.3798  10.4309  10.6560  11.0140
    11.2300  11.2766

     occupation numbers 
     1.0000   1.0000   1.0000   1.0000   1.0000   1.0000   1.0000   1.0000
     1.0000   1.0000   1.0000   0.0054   0.0000   0.0000   0.0000   0.0000
     0.0000   0.0000

          k =-0.3928 0.5500-0.0786 (  3567 PWs)   bands (ev):

    -0.9755  -0.7159   0.3156   1.0818   3.0926   4.3220   5.0554   5.2807
     6.2728   6.8727   7.2133   8.7623   9.3798  10.4309  10.6560  11.0140
    11.2307  11.2759

     occupation numbers 
     1.0000   1.0000   1.0000   1.0000   1.0000   1.0000   1.0000   1.0000
     1.0000   1.0000   1.0000   0.0054   0.0000   0.0000   0.0000   0.0000
     0.0000   0.0000

          k =-0.3928-0.5500 0.0786 (  3567 PWs)   bands (ev):

    -0.9756  -0.7158   0.3156   1.0817   3.0926   4.3220   5.0554   5.2807
     6.2729   6.8726   7.2133   8.7623   9.3798  10.4309  10.6560  11.0140
    11.2299  11.2767

     occupation numbers 
     1.0000   1.0000   1.0000   1.0000   1.0000   1.0000   1.0000   1.0000
     1.0000   1.0000   1.0000   0.0054   0.0000   0.0000   0.0000   0.0000
     0.0000   0.0000

          k =-0.0000 0.3143-0.4714 (  3575 PWs)   bands (ev):

    -1.6421   0.1682   0.1777   1.4480   3.4473   4.1830   4.1925   6.1534
     6.1633   6.3439   6.7366   8.3113   9.5480   9.9841   9.9947  10.8400
    11.4364  11.8750

     occupation numbers 
     1.0000   1.0000   1.0000   1.0000   1.0000   1.0000   1.0000   1.0000
     1.0000   1.0000   1.0000   0.5662   0.0000   0.0000   0.0000   0.0000
     0.0000   0.0000

          k =-0.3143 0.0000 0.4714 (  3575 PWs)   bands (ev):

    -1.6421   0.1729   0.1730   1.4480   3.4473   4.1878   4.1878   6.1584
     6.1584   6.3439   6.7365   8.3113   9.5480   9.9894   9.9894  10.8399
    11.4364  11.8750

     occupation numbers 
     1.0000   1.0000   1.0000   1.0000   1.0000   1.0000   1.0000   1.0000
     1.0000   1.0000   1.0000   0.5662   0.0000   0.0000   0.0000   0.0000
     0.0000   0.0000

          k =-0.3143 0.4714 0.0000 (  3575 PWs)   bands (ev):

    -1.6421   0.1682   0.1777   1.4480   3.4473   4.1830   4.1925   6.1534
     6.1632   6.3439   6.7366   8.3113   9.5480   9.9841   9.9947  10.8400
    11.4365  11.8750

     occupation numbers 
     1.0000   1.0000   1.0000   1.0000   1.0000   1.0000   1.0000   1.0000
     1.0000   1.0000   1.0000   0.5662   0.0000   0.0000   0.0000   0.0000
     0.0000   0.0000

          k =-0.0786 0.5500-0.7071 (  3556 PWs)   bands (ev):

    -1.1777  -0.1412   0.6238   0.6333   2.6469   2.6564   5.7943   6.7323
     7.1511   8.0865   8.3399   8.3507   8.6715   9.3358  10.2367  10.2479
    10.4857  10.8809

     occupation numbers 
     1.0000   1.0000   1.0000   1.0000   1.0000   1.0000   1.0000   1.0000
     1.0000   1.0419   0.4880   0.4591   0.0209   0.0000   0.0000   0.0000
     0.0000   0.0000

          k =-0.5500 0.7071-0.0786 (  3556 PWs)   bands (ev):

    -1.1776  -0.1413   0.6285   0.6286   2.6517   2.6517   5.7944   6.7323
     7.1511   8.0865   8.3451   8.3453   8.6717   9.3359  10.2422  10.2424
    10.4859  10.8851

     occupation numbers 
     1.0000   1.0000   1.0000   1.0000   1.0000   1.0000   1.0000   1.0000
     1.0000   1.0419   0.4739   0.4735   0.0208   0.0000   0.0000   0.0000
     0.0000   0.0000

          k =-0.5500-0.7071 0.0786 (  3556 PWs)   bands (ev):

    -1.1777  -0.1412   0.6285   0.6286   2.6517   2.6517   5.7943   6.7324
     7.1511   8.0865   8.3453   8.3453   8.6715   9.3359  10.2424  10.2424
    10.4857  10.8852

     occupation numbers 
     1.0000   1.0000   1.0000   1.0000   1.0000   1.0000   1.0000   1.0000
     1.0000   1.0419   0.4736   0.4735   0.0209   0.0000   0.0000   0.0000
     0.0000   0.0000

          k = 0.0000 0.4714-0.6285 (  3561 PWs)   bands (ev):

    -0.5191  -0.5096  -0.2560   0.7705   2.7897   3.7829   5.4659   5.4755
     7.2857   7.2961   7.9832   8.9218   9.6049   9.7282   9.7356  10.5620
    10.8074  11.7076

     occupation numbers 
     1.0000   1.0000   1.0000   1.0000   1.0000   1.0000   1.0000   1.0000
     1.0000   1.0000   1.0832   0.0003   0.0000   0.0000   0.0000   0.0000
     0.0000   0.0000

          k =-0.4714 0.0000 0.6285 (  3561 PWs)   bands (ev):

    -0.5145  -0.5143  -0.2559   0.7704   2.7897   3.7830   5.4707   5.4707
     7.2909   7.2909   7.9832   8.9218   9.6050   9.7318   9.7319  10.5620
    10.8074  11.7117

     occupation numbers 
     1.0000   1.0000   1.0000   1.0000   1.0000   1.0000   1.0000   1.0000
     1.0000   1.0000   1.0832   0.0003   0.0000   0.0000   0.0000   0.0000
     0.0000   0.0000

          k =-0.4714 0.6285 0.0000 (  3561 PWs)   bands (ev):

    -0.5191  -0.5096  -0.2560   0.7704   2.7897   3.7829   5.4659   5.4756
     7.2856   7.2961   7.9833   8.9217   9.6050   9.7282   9.7356  10.5619
    10.8075  11.7076

     occupation numbers 
     1.0000   1.0000   1.0000   1.0000   1.0000   1.0000   1.0000   1.0000
     1.0000   1.0000   1.0832   0.0003   0.0000   0.0000   0.0000   0.0000
     0.0000   0.0000

          k =-0.0786 0.3928-0.7071 (  3571 PWs)   bands (ev):

    -0.8311  -0.0604  -0.0509   0.2017   3.9678   3.9773   4.2142   5.1879
     7.4628   7.7064   7.7171   8.3996   9.0443   9.9688  10.2210  10.2294
    11.4953  11.5068

     occupation numbers 
     1.0000   1.0000   1.0000   1.0000   1.0000   1.0000   1.0000   1.0000
     1.0003   1.0122   1.0139   0.3372   0.0000   0.0000   0.0000   0.0000
     0.0000   0.0000

          k =-0.3928 0.7071-0.0786 (  3571 PWs)   bands (ev):

    -0.8311  -0.0559  -0.0556   0.2019   3.9726   3.9726   4.2142   5.1879
     7.4627   7.7117   7.7118   8.3995   9.0444   9.9689  10.2251  10.2252
    11.5010  11.5011

     occupation numbers 
     1.0000   1.0000   1.0000   1.0000   1.0000   1.0000   1.0000   1.0000
     1.0003   1.0130   1.0130   0.3373   0.0000   0.0000   0.0000   0.0000
     0.0000   0.0000

          k =-0.3928-0.7071 0.0786 (  3571 PWs)   bands (ev):

    -0.8312  -0.0556  -0.0555   0.2016   3.9726   3.9726   4.2142   5.1880
     7.4628   7.7117   7.7117   8.3995   9.0443   9.9688  10.2252  10.2253
    11.5011  11.5011

     occupation numbers 
     1.0000   1.0000   1.0000   1.0000   1.0000   1.0000   1.0000   1.0000
     1.0003   1.0130   1.0130   0.3373   0.0000   0.0000   0.0000   0.0000
     0.0000   0.0000

     the Fermi energy is     8.3734 ev

!    total energy              =     -33.52300501 Ry
     estimated scf accuracy    <          9.3E-14 Ry
     smearing contrib. (-TS)   =      -0.00054572 Ry
     internal energy E=F+TS    =     -33.52245929 Ry

     The total energy is F=E-TS. E is the sum of the following terms:
     one-electron contribution =      23.67156367 Ry
     hartree contribution      =       0.08037657 Ry
     xc contribution           =     -13.11785609 Ry
     ewald contribution        =     -44.15654344 Ry

     convergence has been achieved in  10 iterations

     Forces acting on atoms (cartesian axes, Ry/au):

     atom    1 type  1   force =     0.00138346    0.00000000   -0.00138346
     atom    2 type  1   force =    -0.00076857    0.00000000    0.00076857
     atom    3 type  1   force =     0.00007028    0.00039867    0.00036967
     atom    4 type  1   force =    -0.00036967   -0.00039867   -0.00007028
     atom    5 type  1   force =    -0.00036967    0.00039867   -0.00007028
     atom    6 type  1   force =     0.00007028   -0.00039867    0.00036967
     atom    7 type  1   force =     0.00002899    0.00000000   -0.00002899
     atom    8 type  1   force =    -0.00004509    0.00000000    0.00004509
     The non-local contrib.  to forces
     atom    1 type  1   force =     0.00347550    0.00000000   -0.00347550
     atom    2 type  1   force =    -0.00165261    0.00000000    0.00165261
     atom    3 type  1   force =    -0.00011536    0.00084780    0.00080448
     atom    4 type  1   force =    -0.00080448   -0.00084780    0.00011536
     atom    5 type  1   force =    -0.00080448    0.00084780    0.00011536
     atom    6 type  1   force =    -0.00011536   -0.00084780    0.00080448
     atom    7 type  1   force =     0.00004331   -0.00000000   -0.00004331
     atom    8 type  1   force =    -0.00002655   -0.00000000    0.00002655
     The ionic contribution  to forces
     atom    1 type  1   force =     0.00843969   -0.00000000   -0.00843969
     atom    2 type  1   force =    -0.00661548   -0.00000000    0.00661548
     atom    3 type  1   force =     0.00128920    0.00416214    0.00245301
     atom    4 type  1   force =    -0.00245301   -0.00416214   -0.00128920
     atom    5 type  1   force =    -0.00245301    0.00416214   -0.00128920
     atom    6 type  1   force =     0.00128920   -0.00416214    0.00245301
     atom    7 type  1   force =     0.00170907    0.00000000   -0.00170907
     atom    8 type  1   force =    -0.00120565    0.00000000    0.00120565
     The local contribution  to forces
     atom    1 type  1   force =    -0.01053183    0.00000000    0.01053183
     atom    2 type  1   force =     0.00749961    0.00000000   -0.00749961
     atom    3 type  1   force =    -0.00110360   -0.00461132   -0.00288787
     atom    4 type  1   force =     0.00288787    0.00461132    0.00110360
     atom    5 type  1   force =     0.00288787   -0.00461132    0.00110360
     atom    6 type  1   force =    -0.00110360    0.00461132   -0.00288787
     atom    7 type  1   force =    -0.00172338   -0.00000000    0.00172338
     atom    8 type  1   force =     0.00118711   -0.00000000   -0.00118711
     The core correction contribution to forces
     atom    1 type  1   force =     0.00000000    0.00000000    0.00000000
     atom    2 type  1   force =     0.00000000    0.00000000    0.00000000
     atom    3 type  1   force =     0.00000000    0.00000000    0.00000000
     atom    4 type  1   force =     0.00000000    0.00000000    0.00000000
     atom    5 type  1   force =     0.00000000    0.00000000    0.00000000
     atom    6 type  1   force =     0.00000000    0.00000000    0.00000000
     atom    7 type  1   force =     0.00000000    0.00000000    0.00000000
     atom    8 type  1   force =     0.00000000    0.00000000    0.00000000
     The Hubbard contrib.    to forces
     atom    1 type  1   force =     0.00000000    0.00000000    0.00000000
     atom    2 type  1   force =     0.00000000    0.00000000    0.00000000
     atom    3 type  1   force =     0.00000000    0.00000000    0.00000000
     atom    4 type  1   force =     0.00000000    0.00000000    0.00000000
     atom    5 type  1   force =     0.00000000    0.00000000    0.00000000
     atom    6 type  1   force =     0.00000000    0.00000000    0.00000000
     atom    7 type  1   force =     0.00000000    0.00000000    0.00000000
     atom    8 type  1   force =     0.00000000    0.00000000    0.00000000
     The SCF correction term to forces
     atom    1 type  1   force =     0.00000010   -0.00000000   -0.00000010
     atom    2 type  1   force =    -0.00000010    0.00000000    0.00000010
     atom    3 type  1   force =     0.00000005    0.00000005    0.00000005
     atom    4 type  1   force =    -0.00000005   -0.00000005   -0.00000005
     atom    5 type  1   force =    -0.00000005    0.00000005   -0.00000005
     atom    6 type  1   force =     0.00000005   -0.00000005    0.00000005
     atom    7 type  1   force =    -0.00000001    0.00000000    0.00000001
     atom    8 type  1   force =     0.00000001   -0.00000000   -0.00000001

     Total force =     0.002493     Total SCF correction =     0.000000


     Computing stress (Cartesian axis) and pressure

          total   stress  (Ry/bohr**3)                   (kbar)     P=       -0.77
  -0.00000524   0.00000000  -0.00000005           -0.77        0.00       -0.01
   0.00000000  -0.00000525   0.00000000            0.00       -0.77        0.00
  -0.00000005   0.00000000  -0.00000524           -0.01        0.00       -0.77

     kinetic stress (kbar)   1706.67      0.00     -0.00
                                0.00   1706.67      0.00
                               -0.00      0.00   1706.67

     local   stress (kbar)   -102.99     -0.00     -0.01
                               -0.00   -103.01      0.00
                               -0.01      0.00   -102.99

     nonloc. stress (kbar)   1681.69     -0.00     -0.00
                                0.00   1681.69     -0.00
                               -0.00      0.00   1681.69

     hartree stress (kbar)      4.72     -0.00      0.01
                               -0.00      4.72      0.00
                                0.01      0.00      4.72

     exc-cor stress (kbar)   -699.75      0.00      0.00
                                0.00   -699.75      0.00
                                0.00      0.00   -699.75

     corecor stress (kbar)      0.00      0.00      0.00
                                0.00      0.00      0.00
                                0.00      0.00      0.00

     ewald   stress (kbar)  -2591.10     -0.00      0.00
                               -0.00  -2591.09     -0.00
                                0.00     -0.00  -2591.10

     hubbard stress (kbar)      0.00      0.00      0.00
                                0.00      0.00      0.00
                                0.00      0.00      0.00

     DFT-D   stress (kbar)      0.00      0.00      0.00
                                0.00      0.00      0.00
                                0.00      0.00      0.00

     XDM     stress (kbar)      0.00      0.00      0.00
                                0.00      0.00      0.00
                                0.00      0.00      0.00

     dft-nl  stress (kbar)      0.00      0.00      0.00
                                0.00      0.00      0.00
                                0.00      0.00      0.00

     TS-vdW  stress (kbar)      0.00      0.00      0.00
                                0.00      0.00      0.00
                                0.00      0.00      0.00

     MDB     stress (kbar)      0.00      0.00      0.00
                                0.00      0.00      0.00
                                0.00      0.00      0.00

     3D-RISM stress (kbar)      0.00      0.00      0.00
                                0.00      0.00      0.00
                                0.00      0.00      0.00


     Writing all to output data dir ./tmp/al.save/ :
     XML data file, charge density, pseudopotentials, collected wavefunctions
 
     init_run     :      1.64s CPU      1.72s WALL (       1 calls)
     electrons    :     28.13s CPU     28.89s WALL (       1 calls)
     forces       :      0.08s CPU      0.09s WALL (       1 calls)
     stress       :      0.37s CPU      0.38s WALL (       1 calls)

     Called by init_run:
     wfcinit      :      1.62s CPU      1.69s WALL (       1 calls)
     wfcinit:atom :      0.01s CPU      0.02s WALL (     125 calls)
     wfcinit:wfcr :      1.56s CPU      1.61s WALL (     125 calls)
     potinit      :      0.00s CPU      0.00s WALL (       1 calls)
     hinit0       :      0.00s CPU      0.00s WALL (       1 calls)

     Called by electrons:
     c_bands      :     23.81s CPU     24.43s WALL (      11 calls)
     sum_band     :      4.30s CPU      4.43s WALL (      11 calls)
     v_of_rho     :      0.01s CPU      0.01s WALL (      11 calls)
     v_h          :      0.00s CPU      0.00s WALL (      11 calls)
     v_xc         :      0.01s CPU      0.01s WALL (      11 calls)
     mix_rho      :      0.01s CPU      0.01s WALL (      11 calls)

     Called by c_bands:
     init_us_2    :      0.28s CPU      0.28s WALL (    3125 calls)
     cegterg      :     23.31s CPU     23.91s WALL (    1375 calls)

     Called by sum_band:
     sum_band:wei :      0.04s CPU      0.04s WALL (      11 calls)
     sum_band:loo :      4.25s CPU      4.38s WALL (      11 calls)
     sum_band:buf :      0.03s CPU      0.03s WALL (    1375 calls)
     sum_band:ini :      0.12s CPU      0.12s WALL (    1375 calls)

     Called by *egterg:
     cdiaghg      :      1.14s CPU      1.17s WALL (    4855 calls)
     cegterg:over :      0.80s CPU      0.83s WALL (    3605 calls)
     cegterg:upda :      0.30s CPU      0.31s WALL (    3605 calls)
     cegterg:last :      0.45s CPU      0.46s WALL (    2654 calls)
     h_psi        :     21.66s CPU     22.25s WALL (    5105 calls)
     g_psi        :      0.07s CPU      0.07s WALL (    3605 calls)

     Called by h_psi:
     h_psi:calbec :      0.49s CPU      0.51s WALL (    5105 calls)
     vloc_psi     :     20.65s CPU     21.21s WALL (    5105 calls)
                                        0.00s GPU  (    5105 calls)
     add_vuspsi   :      0.43s CPU      0.44s WALL (    5105 calls)

     General routines
     calbec       :      0.71s CPU      0.72s WALL (    7230 calls)
     fft          :      0.01s CPU      0.01s WALL (      38 calls)
     ffts         :      0.00s CPU      0.00s WALL (      11 calls)
     fftw         :     22.66s CPU     23.27s WALL (  156406 calls)
 
     Parallel routines
 
     PWSCF        :     30.33s CPU     31.26s WALL

 
   This run was terminated on:  21:49: 9  22Sep2026            

=------------------------------------------------------------------------------=
   JOB DONE.
=------------------------------------------------------------------------------=
