
     Program PWSCF v.7.5 starts on 22Sep2026 at 21:35:14 

     This program is part of the open-source Quantum ESPRESSO suite
     for quantum simulation of materials; please cite
         "P. Giannozzi et al., J. Phys.:Condens. Matter 21 395502 (2009);
         "P. Giannozzi et al., J. Phys.:Condens. Matter 29 465901 (2017);
         "P. Giannozzi et al., J. Chem. Phys. 152 154105 (2020);
          URL http://www.quantum-espresso.org", 
     in publications or presentations arising from this work. More details at
     http://www.quantum-espresso.org/quote

     Parallel version (MPI), running on     8 processors

     MPI processes distributed on     1 nodes
     11935 MiB available memory on the printing compute node when the environment starts
 
     Reading input from al.scf.in

     Current dimensions of program PWSCF are:
     Max number of different atomic species (ntypx) = 10
     Max number of k-points (npk) =  40000
     Max angular momentum in pseudopotentials (lmaxx) =  4
     Message from routine setup:
     using ibrav=0 with symmetry is DISCOURAGED, use correct ibrav instead
 
     R & G space division:  proc/nbgrp/npool/nimage =       8
     Subspace diagonalization in iterative solution of the eigenvalue problem:
     a serial algorithm will be used

 
     Parallelization info
     --------------------
     sticks:   dense  smooth     PW     G-vecs:    dense   smooth      PW
     Min          39      39     13                  445      445      90
     Max          40      40     14                  447      447      91
     Sum         313     313    109                 3567     3567     725
 
     Using Slab Decomposition
 


     bravais-lattice index     =            0
     lattice parameter (alat)  =       5.2942  a.u.
     unit-cell volume          =     104.7680 (a.u.)^3
     number of atoms/cell      =            1
     number of atomic types    =            1
     number of electrons       =         3.00
     number of Kohn-Sham states=            6
     kinetic-energy cutoff     =      40.0000  Ry
     charge density cutoff     =     160.0000  Ry
     scf convergence threshold =      1.0E-12
     mixing beta               =       0.7000
     number of iterations used =            8  plain     mixing
     Exchange-correlation= SLA  PZ   NOGX NOGC
                           (   1   1   0   0   0   0   0)

     celldm(1)=   5.294184  celldm(2)=   0.000000  celldm(3)=   0.000000
     celldm(4)=   0.000000  celldm(5)=   0.000000  celldm(6)=   0.000000

     crystal axes: (cart. coord. in units of alat)
               a(1) = (  -0.708165   0.000000   0.706047 )  
               a(2) = (   0.000000   0.706047   0.706047 )  
               a(3) = (  -0.708165   0.706047   0.000000 )  

     reciprocal axes: (cart. coord. in units 2 pi/alat)
               b(1) = ( -0.706050 -0.708168  0.708168 )  
               b(2) = (  0.706050  0.708168  0.708168 )  
               b(3) = ( -0.706050  0.708168 -0.708168 )  


     PseudoPot. # 1 for Al read from file:
     <工作目录>/pseudo/Al.pz-vbc.UPF
     MD5 check sum: f06ceae8da0fe5c02c98e3688433298c
     Pseudo is Norm-conserving, Zval =  3.0
     Generated by new atomic code, or converted to UPF format
     Using radial grid of  171 points,  2 beta functions with: 
                l(1) =   0
                l(2) =   1

     atomic species   valence    mass     pseudopotential
     Al                3.00    26.98154     Al( 1.00)

     16 Sym. Ops., with inversion, found


                                    s                        frac. trans.

      isym =  1     identity                                     

 cryst.   s( 1) = (     1          0          0      )
                  (     0          1          0      )
                  (     0          0          1      )

 cart.    s( 1) = (  1.0000000  0.0000000  0.0000000 )
                  (  0.0000000  1.0000000  0.0000000 )
                  (  0.0000000  0.0000000  1.0000000 )


      isym =  2     180 deg rotation - cart. axis [0,0,1]        

 cryst.   s( 2) = (     0          1         -1      )
                  (     1          0         -1      )
                  (     0          0         -1      )

 cart.    s( 2) = ( -1.0000000  0.0000000  0.0000000 )
                  (  0.0000000 -1.0000000  0.0000000 )
                  (  0.0000000  0.0000000  1.0000000 )


      isym =  3     180 deg rotation - cart. axis [0,1,0]        

 cryst.   s( 3) = (    -1          0          0      )
                  (    -1          0          1      )
                  (    -1          1          0      )

 cart.    s( 3) = ( -1.0000000  0.0000000  0.0000000 )
                  (  0.0000000  1.0000000  0.0000000 )
                  (  0.0000000  0.0000000 -1.0000000 )


      isym =  4     180 deg rotation - cart. axis [1,0,0]        

 cryst.   s( 4) = (     0         -1          1      )
                  (     0         -1          0      )
                  (     1         -1          0      )

 cart.    s( 4) = (  1.0000000  0.0000000  0.0000000 )
                  (  0.0000000 -1.0000000  0.0000000 )
                  (  0.0000000  0.0000000 -1.0000000 )


      isym =  5     180 deg rotation - cart. axis [0,1,1]        

 cryst.   s( 5) = (    -1          1          0      )
                  (     0          1          0      )
                  (     0          1         -1      )

 cart.    s( 5) = ( -1.0000000  0.0000000  0.0000000 )
                  (  0.0000000  0.0000000  1.0000000 )
                  (  0.0000000  1.0000000  0.0000000 )


      isym =  6     180 deg rotation - cart. axis [0,1,-1]       

 cryst.   s( 6) = (     0          0         -1      )
                  (     0         -1          0      )
                  (    -1          0          0      )

 cart.    s( 6) = ( -1.0000000  0.0000000  0.0000000 )
                  (  0.0000000  0.0000000 -1.0000000 )
                  (  0.0000000 -1.0000000  0.0000000 )


      isym =  7      90 deg rotation - cart. axis [-1,0,0]       

 cryst.   s( 7) = (     0          0          1      )
                  (    -1          0          1      )
                  (     0         -1          1      )

 cart.    s( 7) = (  1.0000000  0.0000000  0.0000000 )
                  (  0.0000000  0.0000000  1.0000000 )
                  (  0.0000000 -1.0000000  0.0000000 )


      isym =  8      90 deg rotation - cart. axis [1,0,0]        

 cryst.   s( 8) = (     1         -1          0      )
                  (     1          0         -1      )
                  (     1          0          0      )

 cart.    s( 8) = (  1.0000000  0.0000000  0.0000000 )
                  (  0.0000000  0.0000000 -1.0000000 )
                  (  0.0000000  1.0000000  0.0000000 )


      isym =  9     inversion                                    

 cryst.   s( 9) = (    -1          0          0      )
                  (     0         -1          0      )
                  (     0          0         -1      )

 cart.    s( 9) = ( -1.0000000  0.0000000  0.0000000 )
                  (  0.0000000 -1.0000000  0.0000000 )
                  (  0.0000000  0.0000000 -1.0000000 )


      isym = 10     inv. 180 deg rotation - cart. axis [0,0,1]   

 cryst.   s(10) = (     0         -1          1      )
                  (    -1          0          1      )
                  (     0          0          1      )

 cart.    s(10) = (  1.0000000  0.0000000  0.0000000 )
                  (  0.0000000  1.0000000  0.0000000 )
                  (  0.0000000  0.0000000 -1.0000000 )


      isym = 11     inv. 180 deg rotation - cart. axis [0,1,0]   

 cryst.   s(11) = (     1          0          0      )
                  (     1          0         -1      )
                  (     1         -1          0      )

 cart.    s(11) = (  1.0000000  0.0000000  0.0000000 )
                  (  0.0000000 -1.0000000  0.0000000 )
                  (  0.0000000  0.0000000  1.0000000 )


      isym = 12     inv. 180 deg rotation - cart. axis [1,0,0]   

 cryst.   s(12) = (     0          1         -1      )
                  (     0          1          0      )
                  (    -1          1          0      )

 cart.    s(12) = ( -1.0000000  0.0000000  0.0000000 )
                  (  0.0000000  1.0000000  0.0000000 )
                  (  0.0000000  0.0000000  1.0000000 )


      isym = 13     inv. 180 deg rotation - cart. axis [0,1,1]   

 cryst.   s(13) = (     1         -1          0      )
                  (     0         -1          0      )
                  (     0         -1          1      )

 cart.    s(13) = (  1.0000000  0.0000000  0.0000000 )
                  (  0.0000000  0.0000000 -1.0000000 )
                  (  0.0000000 -1.0000000  0.0000000 )


      isym = 14     inv. 180 deg rotation - cart. axis [0,1,-1]  

 cryst.   s(14) = (     0          0          1      )
                  (     0          1          0      )
                  (     1          0          0      )

 cart.    s(14) = (  1.0000000  0.0000000  0.0000000 )
                  (  0.0000000  0.0000000  1.0000000 )
                  (  0.0000000  1.0000000  0.0000000 )


      isym = 15     inv.  90 deg rotation - cart. axis [-1,0,0]  

 cryst.   s(15) = (     0          0         -1      )
                  (     1          0         -1      )
                  (     0          1         -1      )

 cart.    s(15) = ( -1.0000000  0.0000000  0.0000000 )
                  (  0.0000000  0.0000000 -1.0000000 )
                  (  0.0000000  1.0000000  0.0000000 )


      isym = 16     inv.  90 deg rotation - cart. axis [1,0,0]   

 cryst.   s(16) = (    -1          1          0      )
                  (    -1          0          1      )
                  (    -1          0          0      )

 cart.    s(16) = ( -1.0000000  0.0000000  0.0000000 )
                  (  0.0000000  0.0000000  1.0000000 )
                  (  0.0000000 -1.0000000  0.0000000 )


   Cartesian axes

     site n.     atom                  positions (alat units)
         1        Al     tau(   1) = (   0.0000000   0.0000000   0.0000000  )

   Crystallographic axes

     site n.     atom                  positions (cryst. coord.)
         1        Al     tau(   1) = (  0.0000000  0.0000000  0.0000000  )

     number of k points=   349  Marzari-Vanderbilt smearing, width (Ry)=  0.0200
                       cart. coord. in units 2pi/alat
        k(    1) = (   0.0000000   0.0000000   0.0000000), wk =   0.0004883
        k(    2) = (  -0.0441281   0.0442605  -0.0442605), wk =   0.0039062
        k(    3) = (  -0.0882563   0.0885210  -0.0885210), wk =   0.0039062
        k(    4) = (  -0.1323844   0.1327815  -0.1327815), wk =   0.0039062
        k(    5) = (  -0.1765125   0.1770421  -0.1770421), wk =   0.0039062
        k(    6) = (  -0.2206407   0.2213026  -0.2213026), wk =   0.0039062
        k(    7) = (  -0.2647688   0.2655631  -0.2655631), wk =   0.0039062
        k(    8) = (  -0.3088969   0.3098236  -0.3098236), wk =   0.0039062
        k(    9) = (   0.3530250  -0.3540841   0.3540841), wk =   0.0019531
        k(   10) = (   0.0000000   0.0885210   0.0000000), wk =   0.0019531
        k(   11) = (  -0.0441281   0.1327815  -0.0442605), wk =   0.0078125
        k(   12) = (  -0.0882563   0.1770421  -0.0885210), wk =   0.0078125
        k(   13) = (  -0.1323844   0.2213026  -0.1327815), wk =   0.0078125
        k(   14) = (  -0.1765125   0.2655631  -0.1770421), wk =   0.0078125
        k(   15) = (  -0.2206407   0.3098236  -0.2213026), wk =   0.0078125
        k(   16) = (  -0.2647688   0.3540841  -0.2655631), wk =   0.0078125
        k(   17) = (   0.3971532  -0.3098236   0.3983446), wk =   0.0078125
        k(   18) = (   0.3530250  -0.2655631   0.3540841), wk =   0.0078125
        k(   19) = (   0.3088969  -0.2213026   0.3098236), wk =   0.0078125
        k(   20) = (   0.2647688  -0.1770421   0.2655631), wk =   0.0078125
        k(   21) = (   0.2206407  -0.1327815   0.2213026), wk =   0.0078125
        k(   22) = (   0.1765125  -0.0885210   0.1770421), wk =   0.0078125
        k(   23) = (   0.1323844  -0.0442605   0.1327815), wk =   0.0078125
        k(   24) = (   0.0882563   0.0000000   0.0885210), wk =   0.0039062
        k(   25) = (   0.0000000   0.1770421   0.0000000), wk =   0.0019531
        k(   26) = (  -0.0441281   0.2213026  -0.0442605), wk =   0.0078125
        k(   27) = (  -0.0882563   0.2655631  -0.0885210), wk =   0.0078125
        k(   28) = (  -0.1323844   0.3098236  -0.1327815), wk =   0.0078125
        k(   29) = (  -0.1765125   0.3540841  -0.1770421), wk =   0.0078125
        k(   30) = (  -0.2206407   0.3983446  -0.2213026), wk =   0.0078125
        k(   31) = (   0.4412813  -0.2655631   0.4426051), wk =   0.0078125
        k(   32) = (   0.3971532  -0.2213026   0.3983446), wk =   0.0078125
        k(   33) = (   0.3530250  -0.1770421   0.3540841), wk =   0.0078125
        k(   34) = (   0.3088969  -0.1327815   0.3098236), wk =   0.0078125
        k(   35) = (   0.2647688  -0.0885210   0.2655631), wk =   0.0078125
        k(   36) = (   0.2206407  -0.0442605   0.2213026), wk =   0.0078125
        k(   37) = (   0.1765125   0.0000000   0.1770421), wk =   0.0039062
        k(   38) = (   0.0000000   0.2655631   0.0000000), wk =   0.0019531
        k(   39) = (  -0.0441281   0.3098236  -0.0442605), wk =   0.0078125
        k(   40) = (  -0.0882563   0.3540841  -0.0885210), wk =   0.0078125
        k(   41) = (  -0.1323844   0.3983446  -0.1327815), wk =   0.0078125
        k(   42) = (  -0.1765125   0.4426051  -0.1770421), wk =   0.0078125
        k(   43) = (   0.4854094  -0.2213026   0.4868657), wk =   0.0078125
        k(   44) = (   0.4412813  -0.1770421   0.4426051), wk =   0.0078125
        k(   45) = (   0.3971532  -0.1327815   0.3983446), wk =   0.0078125
        k(   46) = (   0.3530250  -0.0885210   0.3540841), wk =   0.0078125
        k(   47) = (   0.3088969  -0.0442605   0.3098236), wk =   0.0078125
        k(   48) = (   0.2647688   0.0000000   0.2655631), wk =   0.0039062
        k(   49) = (   0.0000000   0.3540841   0.0000000), wk =   0.0019531
        k(   50) = (  -0.0441281   0.3983446  -0.0442605), wk =   0.0078125
        k(   51) = (  -0.0882563   0.4426051  -0.0885210), wk =   0.0078125
        k(   52) = (  -0.1323844   0.4868657  -0.1327815), wk =   0.0078125
        k(   53) = (   0.5295376  -0.1770421   0.5311262), wk =   0.0078125
        k(   54) = (   0.4854094  -0.1327815   0.4868657), wk =   0.0078125
        k(   55) = (   0.4412813  -0.0885210   0.4426051), wk =   0.0078125
        k(   56) = (   0.3971532  -0.0442605   0.3983446), wk =   0.0078125
        k(   57) = (   0.3530250   0.0000000   0.3540841), wk =   0.0039062
        k(   58) = (   0.0000000   0.4426051   0.0000000), wk =   0.0019531
        k(   59) = (  -0.0441281   0.4868657  -0.0442605), wk =   0.0078125
        k(   60) = (  -0.0882563   0.5311262  -0.0885210), wk =   0.0078125
        k(   61) = (   0.5736657  -0.1327815   0.5753867), wk =   0.0078125
        k(   62) = (   0.5295376  -0.0885210   0.5311262), wk =   0.0078125
        k(   63) = (   0.4854094  -0.0442605   0.4868657), wk =   0.0078125
        k(   64) = (   0.4412813   0.0000000   0.4426051), wk =   0.0039062
        k(   65) = (   0.0000000   0.5311262   0.0000000), wk =   0.0019531
        k(   66) = (  -0.0441281   0.5753867  -0.0442605), wk =   0.0078125
        k(   67) = (   0.6177938  -0.0885210   0.6196472), wk =   0.0078125
        k(   68) = (   0.5736657  -0.0442605   0.5753867), wk =   0.0078125
        k(   69) = (   0.5295376   0.0000000   0.5311262), wk =   0.0039062
        k(   70) = (   0.0000000   0.6196472   0.0000000), wk =   0.0019531
        k(   71) = (   0.6619220  -0.0442605   0.6639077), wk =   0.0078125
        k(   72) = (   0.6177938   0.0000000   0.6196472), wk =   0.0039062
        k(   73) = (   0.0000000  -0.7081682   0.0000000), wk =   0.0009766
        k(   74) = (  -0.0882563   0.0000000   0.0000000), wk =   0.0009766
        k(   75) = (  -0.1323844   0.0442605  -0.0442605), wk =   0.0039062
        k(   76) = (  -0.1765125   0.0885210  -0.0885210), wk =   0.0039062
        k(   77) = (  -0.2206407   0.1327815  -0.1327815), wk =   0.0039062
        k(   78) = (  -0.2647688   0.1770421  -0.1770421), wk =   0.0039062
        k(   79) = (  -0.3088969   0.2213026  -0.2213026), wk =   0.0039062
        k(   80) = (  -0.3530250   0.2655631  -0.2655631), wk =   0.0039062
        k(   81) = (   0.3088969  -0.3983446   0.3983446), wk =   0.0039062
        k(   82) = (   0.2647688  -0.3540841   0.3540841), wk =   0.0039062
        k(   83) = (   0.2206407  -0.3098236   0.3098236), wk =   0.0039062
        k(   84) = (   0.1765125  -0.2655631   0.2655631), wk =   0.0039062
        k(   85) = (   0.1323844  -0.2213026   0.2213026), wk =   0.0039062
        k(   86) = (   0.0882563  -0.1770421   0.1770421), wk =   0.0039062
        k(   87) = (   0.0441281  -0.1327815   0.1327815), wk =   0.0039062
        k(   88) = (   0.0000000  -0.0885210   0.0885210), wk =   0.0019531
        k(   89) = (  -0.0882563   0.1770421   0.0000000), wk =   0.0039062
        k(   90) = (  -0.1323844   0.2213026  -0.0442605), wk =   0.0078125
        k(   91) = (  -0.1765125   0.2655631  -0.0885210), wk =   0.0078125
        k(   92) = (  -0.2206407   0.3098236  -0.1327815), wk =   0.0078125
        k(   93) = (  -0.2647688   0.3540841  -0.1770421), wk =   0.0078125
        k(   94) = (   0.3971532  -0.3098236   0.4868657), wk =   0.0078125
        k(   95) = (   0.3530250  -0.2655631   0.4426051), wk =   0.0039062
        k(   96) = (   0.0000000   0.1770421   0.0885210), wk =   0.0039062
        k(   97) = (  -0.0882563   0.2655631   0.0000000), wk =   0.0039062
        k(   98) = (  -0.1323844   0.3098236  -0.0442605), wk =   0.0078125
        k(   99) = (  -0.1765125   0.3540841  -0.0885210), wk =   0.0078125
        k(  100) = (  -0.2206407   0.3983446  -0.1327815), wk =   0.0078125
        k(  101) = (   0.4412813  -0.2655631   0.5311262), wk =   0.0078125
        k(  102) = (   0.3971532  -0.2213026   0.4868657), wk =   0.0078125
        k(  103) = (   0.3530250  -0.1770421   0.4426051), wk =   0.0078125
        k(  104) = (   0.3088969  -0.1327815   0.3983446), wk =   0.0078125
        k(  105) = (   0.2647688  -0.0885210   0.3540841), wk =   0.0078125
        k(  106) = (   0.2206407  -0.0442605   0.3098236), wk =   0.0078125
        k(  107) = (   0.1765125   0.0000000   0.2655631), wk =   0.0039062
        k(  108) = (   0.0441281   0.2213026   0.1327815), wk =   0.0078125
        k(  109) = (   0.0000000   0.2655631   0.0885210), wk =   0.0039062
        k(  110) = (  -0.0882563   0.3540841   0.0000000), wk =   0.0039062
        k(  111) = (  -0.1323844   0.3983446  -0.0442605), wk =   0.0078125
        k(  112) = (  -0.1765125   0.4426051  -0.0885210), wk =   0.0078125
        k(  113) = (   0.4854094  -0.2213026   0.5753867), wk =   0.0078125
        k(  114) = (   0.4412813  -0.1770421   0.5311262), wk =   0.0078125
        k(  115) = (   0.3971532  -0.1327815   0.4868657), wk =   0.0078125
        k(  116) = (   0.3530250  -0.0885210   0.4426051), wk =   0.0078125
        k(  117) = (   0.3088969  -0.0442605   0.3983446), wk =   0.0078125
        k(  118) = (   0.2647688   0.0000000   0.3540841), wk =   0.0039062
        k(  119) = (   0.0882563   0.2655631   0.1770421), wk =   0.0078125
        k(  120) = (   0.0441281   0.3098236   0.1327815), wk =   0.0078125
        k(  121) = (   0.0000000   0.3540841   0.0885210), wk =   0.0039062
        k(  122) = (  -0.0882563   0.4426051   0.0000000), wk =   0.0039062
        k(  123) = (  -0.1323844   0.4868657  -0.0442605), wk =   0.0078125
        k(  124) = (   0.5295376  -0.1770421   0.6196472), wk =   0.0078125
        k(  125) = (   0.4854094  -0.1327815   0.5753867), wk =   0.0078125
        k(  126) = (   0.4412813  -0.0885210   0.5311262), wk =   0.0078125
        k(  127) = (   0.3971532  -0.0442605   0.4868657), wk =   0.0078125
        k(  128) = (   0.3530250   0.0000000   0.4426051), wk =   0.0039062
        k(  129) = (   0.1323844   0.3098236   0.2213026), wk =   0.0078125
        k(  130) = (   0.0882563   0.3540841   0.1770421), wk =   0.0078125
        k(  131) = (   0.0441281   0.3983446   0.1327815), wk =   0.0078125
        k(  132) = (   0.0000000   0.4426051   0.0885210), wk =   0.0039062
        k(  133) = (  -0.0882563   0.5311262   0.0000000), wk =   0.0039062
        k(  134) = (   0.5736657  -0.1327815   0.6639077), wk =   0.0078125
        k(  135) = (   0.5295376  -0.0885210   0.6196472), wk =   0.0078125
        k(  136) = (   0.4854094  -0.0442605   0.5753867), wk =   0.0078125
        k(  137) = (   0.4412813   0.0000000   0.5311262), wk =   0.0039062
        k(  138) = (   0.1765125   0.3540841   0.2655631), wk =   0.0078125
        k(  139) = (   0.1323844   0.3983446   0.2213026), wk =   0.0078125
        k(  140) = (   0.0882563   0.4426051   0.1770421), wk =   0.0078125
        k(  141) = (   0.0441281   0.4868657   0.1327815), wk =   0.0078125
        k(  142) = (   0.0000000   0.5311262   0.0885210), wk =   0.0039062
        k(  143) = (   0.6177938  -0.0885210   0.7081682), wk =   0.0039062
        k(  144) = (   0.5736657  -0.0442605   0.6639077), wk =   0.0078125
        k(  145) = (   0.5295376   0.0000000   0.6196472), wk =   0.0039062
        k(  146) = (  -0.4854094  -0.3098236  -0.3983446), wk =   0.0078125
        k(  147) = (  -0.5295376  -0.2655631  -0.4426051), wk =   0.0078125
        k(  148) = (  -0.5736657  -0.2213026  -0.4868657), wk =   0.0078125
        k(  149) = (  -0.6177938  -0.1770421  -0.5311262), wk =   0.0078125
        k(  150) = (  -0.6619220  -0.1327815  -0.5753867), wk =   0.0078125
        k(  151) = (  -0.7060501  -0.0885210  -0.6196472), wk =   0.0039062
        k(  152) = (  -0.0882563  -0.7081682   0.0000000), wk =   0.0019531
        k(  153) = (  -0.4412813  -0.2655631  -0.3540841), wk =   0.0078125
        k(  154) = (  -0.4854094  -0.2213026  -0.3983446), wk =   0.0078125
        k(  155) = (  -0.5295376  -0.1770421  -0.4426051), wk =   0.0078125
        k(  156) = (  -0.5736657  -0.1327815  -0.4868657), wk =   0.0078125
        k(  157) = (  -0.6177938  -0.0885210  -0.5311262), wk =   0.0078125
        k(  158) = (  -0.6619220  -0.0442605  -0.5753867), wk =   0.0078125
        k(  159) = (   0.0000000  -0.7081682   0.0885210), wk =   0.0019531
        k(  160) = (  -0.3971532  -0.2213026  -0.3098236), wk =   0.0078125
        k(  161) = (  -0.4412813  -0.1770421  -0.3540841), wk =   0.0078125
        k(  162) = (  -0.4854094  -0.1327815  -0.3983446), wk =   0.0078125
        k(  163) = (  -0.5295376  -0.0885210  -0.4426051), wk =   0.0078125
        k(  164) = (  -0.5736657  -0.0442605  -0.4868657), wk =   0.0078125
        k(  165) = (  -0.6177938   0.0000000  -0.5311262), wk =   0.0039062
        k(  166) = (  -0.3530250  -0.1770421  -0.2655631), wk =   0.0078125
        k(  167) = (  -0.3971532  -0.1327815  -0.3098236), wk =   0.0078125
        k(  168) = (  -0.4412813  -0.0885210  -0.3540841), wk =   0.0078125
        k(  169) = (  -0.4854094  -0.0442605  -0.3983446), wk =   0.0078125
        k(  170) = (  -0.5295376   0.0000000  -0.4426051), wk =   0.0039062
        k(  171) = (  -0.3088969  -0.1327815  -0.2213026), wk =   0.0078125
        k(  172) = (  -0.3530250  -0.0885210  -0.2655631), wk =   0.0078125
        k(  173) = (  -0.3971532  -0.0442605  -0.3098236), wk =   0.0078125
        k(  174) = (  -0.4412813   0.0000000  -0.3540841), wk =   0.0039062
        k(  175) = (  -0.2647688  -0.0885210  -0.1770421), wk =   0.0078125
        k(  176) = (  -0.3088969  -0.0442605  -0.2213026), wk =   0.0078125
        k(  177) = (  -0.3530250   0.0000000  -0.2655631), wk =   0.0039062
        k(  178) = (  -0.2206407  -0.0442605  -0.1327815), wk =   0.0078125
        k(  179) = (  -0.2647688   0.0000000  -0.1770421), wk =   0.0039062
        k(  180) = (  -0.1765125   0.0000000  -0.0885210), wk =   0.0039062
        k(  181) = (  -0.1765125   0.0000000   0.0000000), wk =   0.0009766
        k(  182) = (  -0.2206407   0.0442605  -0.0442605), wk =   0.0039062
        k(  183) = (  -0.2647688   0.0885210  -0.0885210), wk =   0.0039062
        k(  184) = (  -0.3088969   0.1327815  -0.1327815), wk =   0.0039062
        k(  185) = (  -0.3530250   0.1770421  -0.1770421), wk =   0.0039062
        k(  186) = (  -0.3971532   0.2213026  -0.2213026), wk =   0.0039062
        k(  187) = (   0.2647688  -0.4426051   0.4426051), wk =   0.0039062
        k(  188) = (   0.2206407  -0.3983446   0.3983446), wk =   0.0039062
        k(  189) = (   0.1765125  -0.3540841   0.3540841), wk =   0.0039062
        k(  190) = (   0.1323844  -0.3098236   0.3098236), wk =   0.0039062
        k(  191) = (   0.0882563  -0.2655631   0.2655631), wk =   0.0039062
        k(  192) = (   0.0441281  -0.2213026   0.2213026), wk =   0.0039062
        k(  193) = (   0.0000000  -0.1770421   0.1770421), wk =   0.0019531
        k(  194) = (  -0.1765125   0.3540841   0.0000000), wk =   0.0039062
        k(  195) = (  -0.2206407   0.3983446  -0.0442605), wk =   0.0078125
        k(  196) = (   0.4412813  -0.2655631   0.6196472), wk =   0.0078125
        k(  197) = (   0.3971532  -0.2213026   0.5753867), wk =   0.0078125
        k(  198) = (   0.3530250  -0.1770421   0.5311262), wk =   0.0039062
        k(  199) = (  -0.0000000   0.2655631   0.1770421), wk =   0.0039062
        k(  200) = (  -0.1765125   0.4426051   0.0000000), wk =   0.0039062
        k(  201) = (   0.4854094  -0.2213026   0.6639077), wk =   0.0078125
        k(  202) = (   0.4412813  -0.1770421   0.6196472), wk =   0.0078125
        k(  203) = (   0.3971532  -0.1327815   0.5753867), wk =   0.0078125
        k(  204) = (   0.3530250  -0.0885210   0.5311262), wk =   0.0078125
        k(  205) = (   0.3088969  -0.0442605   0.4868657), wk =   0.0078125
        k(  206) = (   0.2647688  -0.0000000   0.4426051), wk =   0.0039062
        k(  207) = (   0.0441281   0.3098236   0.2213026), wk =   0.0078125
        k(  208) = (   0.0000000   0.3540841   0.1770421), wk =   0.0039062
        k(  209) = (   0.5295376  -0.1770421   0.7081682), wk =   0.0039062
        k(  210) = (   0.4854094  -0.1327815   0.6639077), wk =   0.0078125
        k(  211) = (   0.4412813  -0.0885210   0.6196472), wk =   0.0078125
        k(  212) = (   0.3971532  -0.0442605   0.5753867), wk =   0.0078125
        k(  213) = (   0.3530250   0.0000000   0.5311262), wk =   0.0039062
        k(  214) = (   0.0882563   0.3540841   0.2655631), wk =   0.0078125
        k(  215) = (   0.0441281   0.3983446   0.2213026), wk =   0.0078125
        k(  216) = (   0.0000000   0.4426051   0.1770421), wk =   0.0039062
        k(  217) = (   0.5295376  -0.0885210   0.7081682), wk =   0.0039062
        k(  218) = (   0.4854094  -0.0442605   0.6639077), wk =   0.0078125
        k(  219) = (   0.4412813   0.0000000   0.6196472), wk =   0.0039062
        k(  220) = (  -0.5736657  -0.3098236  -0.3983446), wk =   0.0078125
        k(  221) = (  -0.6177938  -0.2655631  -0.4426051), wk =   0.0078125
        k(  222) = (  -0.6619220  -0.2213026  -0.4868657), wk =   0.0078125
        k(  223) = (  -0.7060501  -0.1770421  -0.5311262), wk =   0.0039062
        k(  224) = (  -0.1765125  -0.7081682   0.0000000), wk =   0.0019531
        k(  225) = (  -0.5295376  -0.2655631  -0.3540841), wk =   0.0078125
        k(  226) = (  -0.5736657  -0.2213026  -0.3983446), wk =   0.0078125
        k(  227) = (  -0.6177938  -0.1770421  -0.4426051), wk =   0.0078125
        k(  228) = (  -0.6619220  -0.1327815  -0.4868657), wk =   0.0078125
        k(  229) = (  -0.7060501  -0.0885210  -0.5311262), wk =   0.0039062
        k(  230) = (  -0.4854094  -0.2213026  -0.3098236), wk =   0.0078125
        k(  231) = (  -0.5295376  -0.1770421  -0.3540841), wk =   0.0078125
        k(  232) = (  -0.5736657  -0.1327815  -0.3983446), wk =   0.0078125
        k(  233) = (  -0.6177938  -0.0885210  -0.4426051), wk =   0.0078125
        k(  234) = (  -0.6619220  -0.0442605  -0.4868657), wk =   0.0078125
        k(  235) = (   0.0000000  -0.7081682   0.1770421), wk =   0.0019531
        k(  236) = (  -0.4412813  -0.1770421  -0.2655631), wk =   0.0078125
        k(  237) = (  -0.4854094  -0.1327815  -0.3098236), wk =   0.0078125
        k(  238) = (  -0.5295376  -0.0885210  -0.3540841), wk =   0.0078125
        k(  239) = (  -0.5736657  -0.0442605  -0.3983446), wk =   0.0078125
        k(  240) = (  -0.6177938   0.0000000  -0.4426051), wk =   0.0039062
        k(  241) = (  -0.3971532  -0.1327815  -0.2213026), wk =   0.0078125
        k(  242) = (  -0.4412813  -0.0885210  -0.2655631), wk =   0.0078125
        k(  243) = (  -0.4854094  -0.0442605  -0.3098236), wk =   0.0078125
        k(  244) = (  -0.5295376   0.0000000  -0.3540841), wk =   0.0039062
        k(  245) = (  -0.3530250  -0.0885210  -0.1770421), wk =   0.0078125
        k(  246) = (  -0.3971532  -0.0442605  -0.2213026), wk =   0.0078125
        k(  247) = (  -0.4412813  -0.0000000  -0.2655631), wk =   0.0039062
        k(  248) = (  -0.3088969  -0.0442605  -0.1327815), wk =   0.0078125
        k(  249) = (  -0.3530250   0.0000000  -0.1770421), wk =   0.0039062
        k(  250) = (  -0.2647688   0.0000000  -0.0885210), wk =   0.0039062
        k(  251) = (  -0.2647688   0.0000000   0.0000000), wk =   0.0009766
        k(  252) = (  -0.3088969   0.0442605  -0.0442605), wk =   0.0039062
        k(  253) = (  -0.3530250   0.0885210  -0.0885210), wk =   0.0039062
        k(  254) = (  -0.3971532   0.1327815  -0.1327815), wk =   0.0039062
        k(  255) = (  -0.4412813   0.1770421  -0.1770421), wk =   0.0039062
        k(  256) = (   0.2206407  -0.4868657   0.4868657), wk =   0.0039062
        k(  257) = (   0.1765125  -0.4426051   0.4426051), wk =   0.0039062
        k(  258) = (   0.1323844  -0.3983446   0.3983446), wk =   0.0039062
        k(  259) = (   0.0882563  -0.3540841   0.3540841), wk =   0.0039062
        k(  260) = (   0.0441281  -0.3098236   0.3098236), wk =   0.0039062
        k(  261) = (   0.0000000  -0.2655631   0.2655631), wk =   0.0019531
        k(  262) = (   0.4412813  -0.1770421   0.7081682), wk =   0.0039062
        k(  263) = (   0.3971532  -0.1327815   0.6639077), wk =   0.0078125
        k(  264) = (   0.3530250  -0.0885210   0.6196472), wk =   0.0039062
        k(  265) = (   0.0000000   0.3540841   0.2655631), wk =   0.0039062
        k(  266) = (   0.4412813  -0.0885210   0.7081682), wk =   0.0039062
        k(  267) = (   0.3971532  -0.0442605   0.6639077), wk =   0.0078125
        k(  268) = (   0.3530250   0.0000000   0.6196472), wk =   0.0039062
        k(  269) = (  -0.6619220  -0.3098236  -0.3983446), wk =   0.0078125
        k(  270) = (  -0.7060501  -0.2655631  -0.4426051), wk =   0.0039062
        k(  271) = (  -0.2647688  -0.7081682   0.0000000), wk =   0.0019531
        k(  272) = (  -0.6177938  -0.2655631  -0.3540841), wk =   0.0078125
        k(  273) = (  -0.6619220  -0.2213026  -0.3983446), wk =   0.0078125
        k(  274) = (  -0.7060501  -0.1770421  -0.4426051), wk =   0.0039062
        k(  275) = (  -0.5736657  -0.2213026  -0.3098236), wk =   0.0078125
        k(  276) = (  -0.6177938  -0.1770421  -0.3540841), wk =   0.0078125
        k(  277) = (  -0.6619220  -0.1327815  -0.3983446), wk =   0.0078125
        k(  278) = (  -0.7060501  -0.0885210  -0.4426051), wk =   0.0039062
        k(  279) = (  -0.5295376  -0.1770421  -0.2655631), wk =   0.0078125
        k(  280) = (  -0.5736657  -0.1327815  -0.3098236), wk =   0.0078125
        k(  281) = (  -0.6177938  -0.0885210  -0.3540841), wk =   0.0078125
        k(  282) = (  -0.6619220  -0.0442605  -0.3983446), wk =   0.0078125
        k(  283) = (   0.0000000  -0.7081682   0.2655631), wk =   0.0019531
        k(  284) = (  -0.4854094  -0.1327815  -0.2213026), wk =   0.0078125
        k(  285) = (  -0.5295376  -0.0885210  -0.2655631), wk =   0.0078125
        k(  286) = (  -0.5736657  -0.0442605  -0.3098236), wk =   0.0078125
        k(  287) = (  -0.6177938   0.0000000  -0.3540841), wk =   0.0039062
        k(  288) = (  -0.4412813  -0.0885210  -0.1770421), wk =   0.0078125
        k(  289) = (  -0.4854094  -0.0442605  -0.2213026), wk =   0.0078125
        k(  290) = (  -0.5295376   0.0000000  -0.2655631), wk =   0.0039062
        k(  291) = (  -0.3971532  -0.0442605  -0.1327815), wk =   0.0078125
        k(  292) = (  -0.4412813  -0.0000000  -0.1770421), wk =   0.0039062
        k(  293) = (  -0.3530250   0.0000000  -0.0885210), wk =   0.0039062
        k(  294) = (  -0.3530250   0.0000000   0.0000000), wk =   0.0009766
        k(  295) = (  -0.3971532   0.0442605  -0.0442605), wk =   0.0039062
        k(  296) = (  -0.4412813   0.0885210  -0.0885210), wk =   0.0039062
        k(  297) = (  -0.4854094   0.1327815  -0.1327815), wk =   0.0039062
        k(  298) = (   0.1765125  -0.5311262   0.5311262), wk =   0.0039062
        k(  299) = (   0.1323844  -0.4868657   0.4868657), wk =   0.0039062
        k(  300) = (   0.0882563  -0.4426051   0.4426051), wk =   0.0039062
        k(  301) = (   0.0441281  -0.3983446   0.3983446), wk =   0.0039062
        k(  302) = (   0.0000000  -0.3540841   0.3540841), wk =   0.0019531
        k(  303) = (  -0.3530250  -0.7081682   0.0000000), wk =   0.0009766
        k(  304) = (  -0.7060501  -0.2655631  -0.3540841), wk =   0.0039062
        k(  305) = (  -0.6619220  -0.2213026  -0.3098236), wk =   0.0078125
        k(  306) = (  -0.7060501  -0.1770421  -0.3540841), wk =   0.0039062
        k(  307) = (  -0.6177938  -0.1770421  -0.2655631), wk =   0.0078125
        k(  308) = (  -0.6619220  -0.1327815  -0.3098236), wk =   0.0078125
        k(  309) = (  -0.7060501  -0.0885210  -0.3540841), wk =   0.0039062
        k(  310) = (  -0.5736657  -0.1327815  -0.2213026), wk =   0.0078125
        k(  311) = (  -0.6177938  -0.0885210  -0.2655631), wk =   0.0078125
        k(  312) = (  -0.6619220  -0.0442605  -0.3098236), wk =   0.0078125
        k(  313) = (   0.0000000  -0.7081682   0.3540841), wk =   0.0019531
        k(  314) = (  -0.5295376  -0.0885210  -0.1770421), wk =   0.0078125
        k(  315) = (  -0.5736657  -0.0442605  -0.2213026), wk =   0.0078125
        k(  316) = (  -0.6177938   0.0000000  -0.2655631), wk =   0.0039062
        k(  317) = (  -0.4854094  -0.0442605  -0.1327815), wk =   0.0078125
        k(  318) = (  -0.5295376   0.0000000  -0.1770421), wk =   0.0039062
        k(  319) = (  -0.4412813   0.0000000  -0.0885210), wk =   0.0039062
        k(  320) = (  -0.4412813   0.0000000   0.0000000), wk =   0.0009766
        k(  321) = (  -0.4854094   0.0442605  -0.0442605), wk =   0.0039062
        k(  322) = (  -0.5295376   0.0885210  -0.0885210), wk =   0.0039062
        k(  323) = (   0.1323844  -0.5753867   0.5753867), wk =   0.0039062
        k(  324) = (   0.0882563  -0.5311262   0.5311262), wk =   0.0039062
        k(  325) = (   0.0441281  -0.4868657   0.4868657), wk =   0.0039062
        k(  326) = (   0.0000000  -0.4426051   0.4426051), wk =   0.0019531
        k(  327) = (  -0.7060501  -0.1770421  -0.2655631), wk =   0.0039062
        k(  328) = (  -0.6619220  -0.1327815  -0.2213026), wk =   0.0078125
        k(  329) = (  -0.7060501  -0.0885210  -0.2655631), wk =   0.0039062
        k(  330) = (  -0.6177938  -0.0885210  -0.1770421), wk =   0.0078125
        k(  331) = (  -0.6619220  -0.0442605  -0.2213026), wk =   0.0078125
        k(  332) = (   0.0000000  -0.7081682   0.4426051), wk =   0.0019531
        k(  333) = (  -0.5736657  -0.0442605  -0.1327815), wk =   0.0078125
        k(  334) = (  -0.6177938   0.0000000  -0.1770421), wk =   0.0039062
        k(  335) = (  -0.5295376   0.0000000  -0.0885210), wk =   0.0039062
        k(  336) = (  -0.5295376   0.0000000   0.0000000), wk =   0.0009766
        k(  337) = (  -0.5736657   0.0442605  -0.0442605), wk =   0.0039062
        k(  338) = (   0.0882563  -0.6196472   0.6196472), wk =   0.0039062
        k(  339) = (   0.0441281  -0.5753867   0.5753867), wk =   0.0039062
        k(  340) = (   0.0000000  -0.5311262   0.5311262), wk =   0.0019531
        k(  341) = (  -0.7060501  -0.0885210  -0.1770421), wk =   0.0039062
        k(  342) = (  -0.6619220  -0.0442605  -0.1327815), wk =   0.0078125
        k(  343) = (   0.0000000  -0.7081682   0.5311262), wk =   0.0019531
        k(  344) = (  -0.6177938   0.0000000  -0.0885210), wk =   0.0039062
        k(  345) = (  -0.6177938   0.0000000   0.0000000), wk =   0.0009766
        k(  346) = (   0.0441281  -0.6639077   0.6639077), wk =   0.0039062
        k(  347) = (   0.0000000  -0.6196472   0.6196472), wk =   0.0019531
        k(  348) = (   0.0000000  -0.7081682   0.6196472), wk =   0.0019531
        k(  349) = (   0.7060501   0.0000000   0.0000000), wk =   0.0004883

                       cryst. coord.
        k(    1) = (   0.0000000   0.0000000   0.0000000), wk =   0.0004883
        k(    2) = (   0.0000000   0.0000000   0.0625000), wk =   0.0039062
        k(    3) = (   0.0000000   0.0000000   0.1250000), wk =   0.0039062
        k(    4) = (   0.0000000   0.0000000   0.1875000), wk =   0.0039062
        k(    5) = (   0.0000000   0.0000000   0.2500000), wk =   0.0039062
        k(    6) = (   0.0000000   0.0000000   0.3125000), wk =   0.0039062
        k(    7) = (   0.0000000   0.0000000   0.3750000), wk =   0.0039062
        k(    8) = (   0.0000000   0.0000000   0.4375000), wk =   0.0039062
        k(    9) = (  -0.0000000   0.0000000  -0.5000000), wk =   0.0019531
        k(   10) = (   0.0000000   0.0625000   0.0625000), wk =   0.0019531
        k(   11) = (   0.0000000   0.0625000   0.1250000), wk =   0.0078125
        k(   12) = (   0.0000000   0.0625000   0.1875000), wk =   0.0078125
        k(   13) = (   0.0000000   0.0625000   0.2500000), wk =   0.0078125
        k(   14) = (   0.0000000   0.0625000   0.3125000), wk =   0.0078125
        k(   15) = (   0.0000000   0.0625000   0.3750000), wk =   0.0078125
        k(   16) = (   0.0000000   0.0625000   0.4375000), wk =   0.0078125
        k(   17) = (  -0.0000000   0.0625000  -0.5000000), wk =   0.0078125
        k(   18) = (  -0.0000000   0.0625000  -0.4375000), wk =   0.0078125
        k(   19) = (  -0.0000000   0.0625000  -0.3750000), wk =   0.0078125
        k(   20) = (   0.0000000   0.0625000  -0.3125000), wk =   0.0078125
        k(   21) = (   0.0000000   0.0625000  -0.2500000), wk =   0.0078125
        k(   22) = (  -0.0000000   0.0625000  -0.1875000), wk =   0.0078125
        k(   23) = (  -0.0000000   0.0625000  -0.1250000), wk =   0.0078125
        k(   24) = (  -0.0000000   0.0625000  -0.0625000), wk =   0.0039062
        k(   25) = (   0.0000000   0.1250000   0.1250000), wk =   0.0019531
        k(   26) = (   0.0000000   0.1250000   0.1875000), wk =   0.0078125
        k(   27) = (   0.0000000   0.1250000   0.2500000), wk =   0.0078125
        k(   28) = (   0.0000000   0.1250000   0.3125000), wk =   0.0078125
        k(   29) = (   0.0000000   0.1250000   0.3750000), wk =   0.0078125
        k(   30) = (   0.0000000   0.1250000   0.4375000), wk =   0.0078125
        k(   31) = (   0.0000000   0.1250000  -0.5000000), wk =   0.0078125
        k(   32) = (  -0.0000000   0.1250000  -0.4375000), wk =   0.0078125
        k(   33) = (  -0.0000000   0.1250000  -0.3750000), wk =   0.0078125
        k(   34) = (   0.0000000   0.1250000  -0.3125000), wk =   0.0078125
        k(   35) = (  -0.0000000   0.1250000  -0.2500000), wk =   0.0078125
        k(   36) = (   0.0000000   0.1250000  -0.1875000), wk =   0.0078125
        k(   37) = (  -0.0000000   0.1250000  -0.1250000), wk =   0.0039062
        k(   38) = (   0.0000000   0.1875000   0.1875000), wk =   0.0019531
        k(   39) = (   0.0000000   0.1875000   0.2500000), wk =   0.0078125
        k(   40) = (   0.0000000   0.1875000   0.3125000), wk =   0.0078125
        k(   41) = (   0.0000000   0.1875000   0.3750000), wk =   0.0078125
        k(   42) = (   0.0000000   0.1875000   0.4375000), wk =   0.0078125
        k(   43) = (  -0.0000000   0.1875000  -0.5000000), wk =   0.0078125
        k(   44) = (   0.0000000   0.1875000  -0.4375000), wk =   0.0078125
        k(   45) = (  -0.0000000   0.1875000  -0.3750000), wk =   0.0078125
        k(   46) = (  -0.0000000   0.1875000  -0.3125000), wk =   0.0078125
        k(   47) = (  -0.0000000   0.1875000  -0.2500000), wk =   0.0078125
        k(   48) = (  -0.0000000   0.1875000  -0.1875000), wk =   0.0039062
        k(   49) = (   0.0000000   0.2500000   0.2500000), wk =   0.0019531
        k(   50) = (   0.0000000   0.2500000   0.3125000), wk =   0.0078125
        k(   51) = (   0.0000000   0.2500000   0.3750000), wk =   0.0078125
        k(   52) = (   0.0000000   0.2500000   0.4375000), wk =   0.0078125
        k(   53) = (  -0.0000000   0.2500000  -0.5000000), wk =   0.0078125
        k(   54) = (  -0.0000000   0.2500000  -0.4375000), wk =   0.0078125
        k(   55) = (   0.0000000   0.2500000  -0.3750000), wk =   0.0078125
        k(   56) = (  -0.0000000   0.2500000  -0.3125000), wk =   0.0078125
        k(   57) = (  -0.0000000   0.2500000  -0.2500000), wk =   0.0039062
        k(   58) = (   0.0000000   0.3125000   0.3125000), wk =   0.0019531
        k(   59) = (   0.0000000   0.3125000   0.3750000), wk =   0.0078125
        k(   60) = (   0.0000000   0.3125000   0.4375000), wk =   0.0078125
        k(   61) = (  -0.0000000   0.3125000  -0.5000000), wk =   0.0078125
        k(   62) = (  -0.0000000   0.3125000  -0.4375000), wk =   0.0078125
        k(   63) = (  -0.0000000   0.3125000  -0.3750000), wk =   0.0078125
        k(   64) = (   0.0000000   0.3125000  -0.3125000), wk =   0.0039062
        k(   65) = (   0.0000000   0.3750000   0.3750000), wk =   0.0019531
        k(   66) = (   0.0000000   0.3750000   0.4375000), wk =   0.0078125
        k(   67) = (  -0.0000000   0.3750000  -0.5000000), wk =   0.0078125
        k(   68) = (  -0.0000000   0.3750000  -0.4375000), wk =   0.0078125
        k(   69) = (  -0.0000000   0.3750000  -0.3750000), wk =   0.0039062
        k(   70) = (   0.0000000   0.4375000   0.4375000), wk =   0.0019531
        k(   71) = (  -0.0000000   0.4375000  -0.5000000), wk =   0.0078125
        k(   72) = (  -0.0000000   0.4375000  -0.4375000), wk =   0.0039062
        k(   73) = (   0.0000000  -0.5000000  -0.5000000), wk =   0.0009766
        k(   74) = (   0.0625000   0.0000000   0.0625000), wk =   0.0009766
        k(   75) = (   0.0625000   0.0000000   0.1250000), wk =   0.0039062
        k(   76) = (   0.0625000   0.0000000   0.1875000), wk =   0.0039062
        k(   77) = (   0.0625000   0.0000000   0.2500000), wk =   0.0039062
        k(   78) = (   0.0625000   0.0000000   0.3125000), wk =   0.0039062
        k(   79) = (   0.0625000   0.0000000   0.3750000), wk =   0.0039062
        k(   80) = (   0.0625000   0.0000000   0.4375000), wk =   0.0039062
        k(   81) = (   0.0625000   0.0000000  -0.5000000), wk =   0.0039062
        k(   82) = (   0.0625000   0.0000000  -0.4375000), wk =   0.0039062
        k(   83) = (   0.0625000   0.0000000  -0.3750000), wk =   0.0039062
        k(   84) = (   0.0625000   0.0000000  -0.3125000), wk =   0.0039062
        k(   85) = (   0.0625000   0.0000000  -0.2500000), wk =   0.0039062
        k(   86) = (   0.0625000   0.0000000  -0.1875000), wk =   0.0039062
        k(   87) = (   0.0625000   0.0000000  -0.1250000), wk =   0.0039062
        k(   88) = (   0.0625000   0.0000000  -0.0625000), wk =   0.0019531
        k(   89) = (   0.0625000   0.1250000   0.1875000), wk =   0.0039062
        k(   90) = (   0.0625000   0.1250000   0.2500000), wk =   0.0078125
        k(   91) = (   0.0625000   0.1250000   0.3125000), wk =   0.0078125
        k(   92) = (   0.0625000   0.1250000   0.3750000), wk =   0.0078125
        k(   93) = (   0.0625000   0.1250000   0.4375000), wk =   0.0078125
        k(   94) = (   0.0625000   0.1250000  -0.5000000), wk =   0.0078125
        k(   95) = (   0.0625000   0.1250000  -0.4375000), wk =   0.0039062
        k(   96) = (   0.0625000   0.1875000   0.1250000), wk =   0.0039062
        k(   97) = (   0.0625000   0.1875000   0.2500000), wk =   0.0039062
        k(   98) = (   0.0625000   0.1875000   0.3125000), wk =   0.0078125
        k(   99) = (   0.0625000   0.1875000   0.3750000), wk =   0.0078125
        k(  100) = (   0.0625000   0.1875000   0.4375000), wk =   0.0078125
        k(  101) = (   0.0625000   0.1875000  -0.5000000), wk =   0.0078125
        k(  102) = (   0.0625000   0.1875000  -0.4375000), wk =   0.0078125
        k(  103) = (   0.0625000   0.1875000  -0.3750000), wk =   0.0078125
        k(  104) = (   0.0625000   0.1875000  -0.3125000), wk =   0.0078125
        k(  105) = (   0.0625000   0.1875000  -0.2500000), wk =   0.0078125
        k(  106) = (   0.0625000   0.1875000  -0.1875000), wk =   0.0078125
        k(  107) = (   0.0625000   0.1875000  -0.1250000), wk =   0.0039062
        k(  108) = (   0.0625000   0.2500000   0.1250000), wk =   0.0078125
        k(  109) = (   0.0625000   0.2500000   0.1875000), wk =   0.0039062
        k(  110) = (   0.0625000   0.2500000   0.3125000), wk =   0.0039062
        k(  111) = (   0.0625000   0.2500000   0.3750000), wk =   0.0078125
        k(  112) = (   0.0625000   0.2500000   0.4375000), wk =   0.0078125
        k(  113) = (   0.0625000   0.2500000  -0.5000000), wk =   0.0078125
        k(  114) = (   0.0625000   0.2500000  -0.4375000), wk =   0.0078125
        k(  115) = (   0.0625000   0.2500000  -0.3750000), wk =   0.0078125
        k(  116) = (   0.0625000   0.2500000  -0.3125000), wk =   0.0078125
        k(  117) = (   0.0625000   0.2500000  -0.2500000), wk =   0.0078125
        k(  118) = (   0.0625000   0.2500000  -0.1875000), wk =   0.0039062
        k(  119) = (   0.0625000   0.3125000   0.1250000), wk =   0.0078125
        k(  120) = (   0.0625000   0.3125000   0.1875000), wk =   0.0078125
        k(  121) = (   0.0625000   0.3125000   0.2500000), wk =   0.0039062
        k(  122) = (   0.0625000   0.3125000   0.3750000), wk =   0.0039062
        k(  123) = (   0.0625000   0.3125000   0.4375000), wk =   0.0078125
        k(  124) = (   0.0625000   0.3125000  -0.5000000), wk =   0.0078125
        k(  125) = (   0.0625000   0.3125000  -0.4375000), wk =   0.0078125
        k(  126) = (   0.0625000   0.3125000  -0.3750000), wk =   0.0078125
        k(  127) = (   0.0625000   0.3125000  -0.3125000), wk =   0.0078125
        k(  128) = (   0.0625000   0.3125000  -0.2500000), wk =   0.0039062
        k(  129) = (   0.0625000   0.3750000   0.1250000), wk =   0.0078125
        k(  130) = (   0.0625000   0.3750000   0.1875000), wk =   0.0078125
        k(  131) = (   0.0625000   0.3750000   0.2500000), wk =   0.0078125
        k(  132) = (   0.0625000   0.3750000   0.3125000), wk =   0.0039062
        k(  133) = (   0.0625000   0.3750000   0.4375000), wk =   0.0039062
        k(  134) = (   0.0625000   0.3750000  -0.5000000), wk =   0.0078125
        k(  135) = (   0.0625000   0.3750000  -0.4375000), wk =   0.0078125
        k(  136) = (   0.0625000   0.3750000  -0.3750000), wk =   0.0078125
        k(  137) = (   0.0625000   0.3750000  -0.3125000), wk =   0.0039062
        k(  138) = (   0.0625000   0.4375000   0.1250000), wk =   0.0078125
        k(  139) = (   0.0625000   0.4375000   0.1875000), wk =   0.0078125
        k(  140) = (   0.0625000   0.4375000   0.2500000), wk =   0.0078125
        k(  141) = (   0.0625000   0.4375000   0.3125000), wk =   0.0078125
        k(  142) = (   0.0625000   0.4375000   0.3750000), wk =   0.0039062
        k(  143) = (   0.0625000   0.4375000  -0.5000000), wk =   0.0039062
        k(  144) = (   0.0625000   0.4375000  -0.4375000), wk =   0.0078125
        k(  145) = (   0.0625000   0.4375000  -0.3750000), wk =   0.0039062
        k(  146) = (   0.0625000  -0.5000000   0.1250000), wk =   0.0078125
        k(  147) = (   0.0625000  -0.5000000   0.1875000), wk =   0.0078125
        k(  148) = (   0.0625000  -0.5000000   0.2500000), wk =   0.0078125
        k(  149) = (   0.0625000  -0.5000000   0.3125000), wk =   0.0078125
        k(  150) = (   0.0625000  -0.5000000   0.3750000), wk =   0.0078125
        k(  151) = (   0.0625000  -0.5000000   0.4375000), wk =   0.0039062
        k(  152) = (   0.0625000  -0.5000000  -0.4375000), wk =   0.0019531
        k(  153) = (   0.0625000  -0.4375000   0.1250000), wk =   0.0078125
        k(  154) = (   0.0625000  -0.4375000   0.1875000), wk =   0.0078125
        k(  155) = (   0.0625000  -0.4375000   0.2500000), wk =   0.0078125
        k(  156) = (   0.0625000  -0.4375000   0.3125000), wk =   0.0078125
        k(  157) = (   0.0625000  -0.4375000   0.3750000), wk =   0.0078125
        k(  158) = (   0.0625000  -0.4375000   0.4375000), wk =   0.0078125
        k(  159) = (   0.0625000  -0.4375000  -0.5000000), wk =   0.0019531
        k(  160) = (   0.0625000  -0.3750000   0.1250000), wk =   0.0078125
        k(  161) = (   0.0625000  -0.3750000   0.1875000), wk =   0.0078125
        k(  162) = (   0.0625000  -0.3750000   0.2500000), wk =   0.0078125
        k(  163) = (   0.0625000  -0.3750000   0.3125000), wk =   0.0078125
        k(  164) = (   0.0625000  -0.3750000   0.3750000), wk =   0.0078125
        k(  165) = (   0.0625000  -0.3750000   0.4375000), wk =   0.0039062
        k(  166) = (   0.0625000  -0.3125000   0.1250000), wk =   0.0078125
        k(  167) = (   0.0625000  -0.3125000   0.1875000), wk =   0.0078125
        k(  168) = (   0.0625000  -0.3125000   0.2500000), wk =   0.0078125
        k(  169) = (   0.0625000  -0.3125000   0.3125000), wk =   0.0078125
        k(  170) = (   0.0625000  -0.3125000   0.3750000), wk =   0.0039062
        k(  171) = (   0.0625000  -0.2500000   0.1250000), wk =   0.0078125
        k(  172) = (   0.0625000  -0.2500000   0.1875000), wk =   0.0078125
        k(  173) = (   0.0625000  -0.2500000   0.2500000), wk =   0.0078125
        k(  174) = (   0.0625000  -0.2500000   0.3125000), wk =   0.0039062
        k(  175) = (   0.0625000  -0.1875000   0.1250000), wk =   0.0078125
        k(  176) = (   0.0625000  -0.1875000   0.1875000), wk =   0.0078125
        k(  177) = (   0.0625000  -0.1875000   0.2500000), wk =   0.0039062
        k(  178) = (   0.0625000  -0.1250000   0.1250000), wk =   0.0078125
        k(  179) = (   0.0625000  -0.1250000   0.1875000), wk =   0.0039062
        k(  180) = (   0.0625000  -0.0625000   0.1250000), wk =   0.0039062
        k(  181) = (   0.1250000   0.0000000   0.1250000), wk =   0.0009766
        k(  182) = (   0.1250000   0.0000000   0.1875000), wk =   0.0039062
        k(  183) = (   0.1250000   0.0000000   0.2500000), wk =   0.0039062
        k(  184) = (   0.1250000   0.0000000   0.3125000), wk =   0.0039062
        k(  185) = (   0.1250000   0.0000000   0.3750000), wk =   0.0039062
        k(  186) = (   0.1250000   0.0000000   0.4375000), wk =   0.0039062
        k(  187) = (   0.1250000   0.0000000  -0.5000000), wk =   0.0039062
        k(  188) = (   0.1250000   0.0000000  -0.4375000), wk =   0.0039062
        k(  189) = (   0.1250000   0.0000000  -0.3750000), wk =   0.0039062
        k(  190) = (   0.1250000   0.0000000  -0.3125000), wk =   0.0039062
        k(  191) = (   0.1250000   0.0000000  -0.2500000), wk =   0.0039062
        k(  192) = (   0.1250000   0.0000000  -0.1875000), wk =   0.0039062
        k(  193) = (   0.1250000   0.0000000  -0.1250000), wk =   0.0019531
        k(  194) = (   0.1250000   0.2500000   0.3750000), wk =   0.0039062
        k(  195) = (   0.1250000   0.2500000   0.4375000), wk =   0.0078125
        k(  196) = (   0.1250000   0.2500000  -0.5000000), wk =   0.0078125
        k(  197) = (   0.1250000   0.2500000  -0.4375000), wk =   0.0078125
        k(  198) = (   0.1250000   0.2500000  -0.3750000), wk =   0.0039062
        k(  199) = (   0.1250000   0.3125000   0.1875000), wk =   0.0039062
        k(  200) = (   0.1250000   0.3125000   0.4375000), wk =   0.0039062
        k(  201) = (   0.1250000   0.3125000  -0.5000000), wk =   0.0078125
        k(  202) = (   0.1250000   0.3125000  -0.4375000), wk =   0.0078125
        k(  203) = (   0.1250000   0.3125000  -0.3750000), wk =   0.0078125
        k(  204) = (   0.1250000   0.3125000  -0.3125000), wk =   0.0078125
        k(  205) = (   0.1250000   0.3125000  -0.2500000), wk =   0.0078125
        k(  206) = (   0.1250000   0.3125000  -0.1875000), wk =   0.0039062
        k(  207) = (   0.1250000   0.3750000   0.1875000), wk =   0.0078125
        k(  208) = (   0.1250000   0.3750000   0.2500000), wk =   0.0039062
        k(  209) = (   0.1250000   0.3750000  -0.5000000), wk =   0.0039062
        k(  210) = (   0.1250000   0.3750000  -0.4375000), wk =   0.0078125
        k(  211) = (   0.1250000   0.3750000  -0.3750000), wk =   0.0078125
        k(  212) = (   0.1250000   0.3750000  -0.3125000), wk =   0.0078125
        k(  213) = (   0.1250000   0.3750000  -0.2500000), wk =   0.0039062
        k(  214) = (   0.1250000   0.4375000   0.1875000), wk =   0.0078125
        k(  215) = (   0.1250000   0.4375000   0.2500000), wk =   0.0078125
        k(  216) = (   0.1250000   0.4375000   0.3125000), wk =   0.0039062
        k(  217) = (   0.1250000   0.4375000  -0.4375000), wk =   0.0039062
        k(  218) = (   0.1250000   0.4375000  -0.3750000), wk =   0.0078125
        k(  219) = (   0.1250000   0.4375000  -0.3125000), wk =   0.0039062
        k(  220) = (   0.1250000  -0.5000000   0.1875000), wk =   0.0078125
        k(  221) = (   0.1250000  -0.5000000   0.2500000), wk =   0.0078125
        k(  222) = (   0.1250000  -0.5000000   0.3125000), wk =   0.0078125
        k(  223) = (   0.1250000  -0.5000000   0.3750000), wk =   0.0039062
        k(  224) = (   0.1250000  -0.5000000  -0.3750000), wk =   0.0019531
        k(  225) = (   0.1250000  -0.4375000   0.1875000), wk =   0.0078125
        k(  226) = (   0.1250000  -0.4375000   0.2500000), wk =   0.0078125
        k(  227) = (   0.1250000  -0.4375000   0.3125000), wk =   0.0078125
        k(  228) = (   0.1250000  -0.4375000   0.3750000), wk =   0.0078125
        k(  229) = (   0.1250000  -0.4375000   0.4375000), wk =   0.0039062
        k(  230) = (   0.1250000  -0.3750000   0.1875000), wk =   0.0078125
        k(  231) = (   0.1250000  -0.3750000   0.2500000), wk =   0.0078125
        k(  232) = (   0.1250000  -0.3750000   0.3125000), wk =   0.0078125
        k(  233) = (   0.1250000  -0.3750000   0.3750000), wk =   0.0078125
        k(  234) = (   0.1250000  -0.3750000   0.4375000), wk =   0.0078125
        k(  235) = (   0.1250000  -0.3750000  -0.5000000), wk =   0.0019531
        k(  236) = (   0.1250000  -0.3125000   0.1875000), wk =   0.0078125
        k(  237) = (   0.1250000  -0.3125000   0.2500000), wk =   0.0078125
        k(  238) = (   0.1250000  -0.3125000   0.3125000), wk =   0.0078125
        k(  239) = (   0.1250000  -0.3125000   0.3750000), wk =   0.0078125
        k(  240) = (   0.1250000  -0.3125000   0.4375000), wk =   0.0039062
        k(  241) = (   0.1250000  -0.2500000   0.1875000), wk =   0.0078125
        k(  242) = (   0.1250000  -0.2500000   0.2500000), wk =   0.0078125
        k(  243) = (   0.1250000  -0.2500000   0.3125000), wk =   0.0078125
        k(  244) = (   0.1250000  -0.2500000   0.3750000), wk =   0.0039062
        k(  245) = (   0.1250000  -0.1875000   0.1875000), wk =   0.0078125
        k(  246) = (   0.1250000  -0.1875000   0.2500000), wk =   0.0078125
        k(  247) = (   0.1250000  -0.1875000   0.3125000), wk =   0.0039062
        k(  248) = (   0.1250000  -0.1250000   0.1875000), wk =   0.0078125
        k(  249) = (   0.1250000  -0.1250000   0.2500000), wk =   0.0039062
        k(  250) = (   0.1250000  -0.0625000   0.1875000), wk =   0.0039062
        k(  251) = (   0.1875000   0.0000000   0.1875000), wk =   0.0009766
        k(  252) = (   0.1875000   0.0000000   0.2500000), wk =   0.0039062
        k(  253) = (   0.1875000   0.0000000   0.3125000), wk =   0.0039062
        k(  254) = (   0.1875000   0.0000000   0.3750000), wk =   0.0039062
        k(  255) = (   0.1875000   0.0000000   0.4375000), wk =   0.0039062
        k(  256) = (   0.1875000   0.0000000  -0.5000000), wk =   0.0039062
        k(  257) = (   0.1875000   0.0000000  -0.4375000), wk =   0.0039062
        k(  258) = (   0.1875000   0.0000000  -0.3750000), wk =   0.0039062
        k(  259) = (   0.1875000   0.0000000  -0.3125000), wk =   0.0039062
        k(  260) = (   0.1875000   0.0000000  -0.2500000), wk =   0.0039062
        k(  261) = (   0.1875000   0.0000000  -0.1875000), wk =   0.0019531
        k(  262) = (   0.1875000   0.3750000  -0.4375000), wk =   0.0039062
        k(  263) = (   0.1875000   0.3750000  -0.3750000), wk =   0.0078125
        k(  264) = (   0.1875000   0.3750000  -0.3125000), wk =   0.0039062
        k(  265) = (   0.1875000   0.4375000   0.2500000), wk =   0.0039062
        k(  266) = (   0.1875000   0.4375000  -0.3750000), wk =   0.0039062
        k(  267) = (   0.1875000   0.4375000  -0.3125000), wk =   0.0078125
        k(  268) = (   0.1875000   0.4375000  -0.2500000), wk =   0.0039062
        k(  269) = (   0.1875000  -0.5000000   0.2500000), wk =   0.0078125
        k(  270) = (   0.1875000  -0.5000000   0.3125000), wk =   0.0039062
        k(  271) = (   0.1875000  -0.5000000  -0.3125000), wk =   0.0019531
        k(  272) = (   0.1875000  -0.4375000   0.2500000), wk =   0.0078125
        k(  273) = (   0.1875000  -0.4375000   0.3125000), wk =   0.0078125
        k(  274) = (   0.1875000  -0.4375000   0.3750000), wk =   0.0039062
        k(  275) = (   0.1875000  -0.3750000   0.2500000), wk =   0.0078125
        k(  276) = (   0.1875000  -0.3750000   0.3125000), wk =   0.0078125
        k(  277) = (   0.1875000  -0.3750000   0.3750000), wk =   0.0078125
        k(  278) = (   0.1875000  -0.3750000   0.4375000), wk =   0.0039062
        k(  279) = (   0.1875000  -0.3125000   0.2500000), wk =   0.0078125
        k(  280) = (   0.1875000  -0.3125000   0.3125000), wk =   0.0078125
        k(  281) = (   0.1875000  -0.3125000   0.3750000), wk =   0.0078125
        k(  282) = (   0.1875000  -0.3125000   0.4375000), wk =   0.0078125
        k(  283) = (   0.1875000  -0.3125000  -0.5000000), wk =   0.0019531
        k(  284) = (   0.1875000  -0.2500000   0.2500000), wk =   0.0078125
        k(  285) = (   0.1875000  -0.2500000   0.3125000), wk =   0.0078125
        k(  286) = (   0.1875000  -0.2500000   0.3750000), wk =   0.0078125
        k(  287) = (   0.1875000  -0.2500000   0.4375000), wk =   0.0039062
        k(  288) = (   0.1875000  -0.1875000   0.2500000), wk =   0.0078125
        k(  289) = (   0.1875000  -0.1875000   0.3125000), wk =   0.0078125
        k(  290) = (   0.1875000  -0.1875000   0.3750000), wk =   0.0039062
        k(  291) = (   0.1875000  -0.1250000   0.2500000), wk =   0.0078125
        k(  292) = (   0.1875000  -0.1250000   0.3125000), wk =   0.0039062
        k(  293) = (   0.1875000  -0.0625000   0.2500000), wk =   0.0039062
        k(  294) = (   0.2500000   0.0000000   0.2500000), wk =   0.0009766
        k(  295) = (   0.2500000   0.0000000   0.3125000), wk =   0.0039062
        k(  296) = (   0.2500000   0.0000000   0.3750000), wk =   0.0039062
        k(  297) = (   0.2500000   0.0000000   0.4375000), wk =   0.0039062
        k(  298) = (   0.2500000   0.0000000  -0.5000000), wk =   0.0039062
        k(  299) = (   0.2500000   0.0000000  -0.4375000), wk =   0.0039062
        k(  300) = (   0.2500000   0.0000000  -0.3750000), wk =   0.0039062
        k(  301) = (   0.2500000   0.0000000  -0.3125000), wk =   0.0039062
        k(  302) = (   0.2500000   0.0000000  -0.2500000), wk =   0.0019531
        k(  303) = (   0.2500000  -0.5000000  -0.2500000), wk =   0.0009766
        k(  304) = (   0.2500000  -0.4375000   0.3125000), wk =   0.0039062
        k(  305) = (   0.2500000  -0.3750000   0.3125000), wk =   0.0078125
        k(  306) = (   0.2500000  -0.3750000   0.3750000), wk =   0.0039062
        k(  307) = (   0.2500000  -0.3125000   0.3125000), wk =   0.0078125
        k(  308) = (   0.2500000  -0.3125000   0.3750000), wk =   0.0078125
        k(  309) = (   0.2500000  -0.3125000   0.4375000), wk =   0.0039062
        k(  310) = (   0.2500000  -0.2500000   0.3125000), wk =   0.0078125
        k(  311) = (   0.2500000  -0.2500000   0.3750000), wk =   0.0078125
        k(  312) = (   0.2500000  -0.2500000   0.4375000), wk =   0.0078125
        k(  313) = (   0.2500000  -0.2500000  -0.5000000), wk =   0.0019531
        k(  314) = (   0.2500000  -0.1875000   0.3125000), wk =   0.0078125
        k(  315) = (   0.2500000  -0.1875000   0.3750000), wk =   0.0078125
        k(  316) = (   0.2500000  -0.1875000   0.4375000), wk =   0.0039062
        k(  317) = (   0.2500000  -0.1250000   0.3125000), wk =   0.0078125
        k(  318) = (   0.2500000  -0.1250000   0.3750000), wk =   0.0039062
        k(  319) = (   0.2500000  -0.0625000   0.3125000), wk =   0.0039062
        k(  320) = (   0.3125000   0.0000000   0.3125000), wk =   0.0009766
        k(  321) = (   0.3125000   0.0000000   0.3750000), wk =   0.0039062
        k(  322) = (   0.3125000   0.0000000   0.4375000), wk =   0.0039062
        k(  323) = (   0.3125000   0.0000000  -0.5000000), wk =   0.0039062
        k(  324) = (   0.3125000   0.0000000  -0.4375000), wk =   0.0039062
        k(  325) = (   0.3125000   0.0000000  -0.3750000), wk =   0.0039062
        k(  326) = (   0.3125000   0.0000000  -0.3125000), wk =   0.0019531
        k(  327) = (   0.3125000  -0.3125000   0.3750000), wk =   0.0039062
        k(  328) = (   0.3125000  -0.2500000   0.3750000), wk =   0.0078125
        k(  329) = (   0.3125000  -0.2500000   0.4375000), wk =   0.0039062
        k(  330) = (   0.3125000  -0.1875000   0.3750000), wk =   0.0078125
        k(  331) = (   0.3125000  -0.1875000   0.4375000), wk =   0.0078125
        k(  332) = (   0.3125000  -0.1875000  -0.5000000), wk =   0.0019531
        k(  333) = (   0.3125000  -0.1250000   0.3750000), wk =   0.0078125
        k(  334) = (   0.3125000  -0.1250000   0.4375000), wk =   0.0039062
        k(  335) = (   0.3125000  -0.0625000   0.3750000), wk =   0.0039062
        k(  336) = (   0.3750000   0.0000000   0.3750000), wk =   0.0009766
        k(  337) = (   0.3750000   0.0000000   0.4375000), wk =   0.0039062
        k(  338) = (   0.3750000   0.0000000  -0.5000000), wk =   0.0039062
        k(  339) = (   0.3750000   0.0000000  -0.4375000), wk =   0.0039062
        k(  340) = (   0.3750000   0.0000000  -0.3750000), wk =   0.0019531
        k(  341) = (   0.3750000  -0.1875000   0.4375000), wk =   0.0039062
        k(  342) = (   0.3750000  -0.1250000   0.4375000), wk =   0.0078125
        k(  343) = (   0.3750000  -0.1250000  -0.5000000), wk =   0.0019531
        k(  344) = (   0.3750000  -0.0625000   0.4375000), wk =   0.0039062
        k(  345) = (   0.4375000   0.0000000   0.4375000), wk =   0.0009766
        k(  346) = (   0.4375000   0.0000000  -0.5000000), wk =   0.0039062
        k(  347) = (   0.4375000   0.0000000  -0.4375000), wk =   0.0019531
        k(  348) = (   0.4375000  -0.0625000  -0.5000000), wk =   0.0019531
        k(  349) = (  -0.5000000   0.0000000  -0.5000000), wk =   0.0004883

     Dense  grid:     3567 G-vectors     FFT dimensions: (  24,  24,  24)

     Dynamical RAM for                 wfc:       0.01 MB

     Dynamical RAM for     wfc (w. buffer):       1.79 MB

     Dynamical RAM for           str. fact:       0.01 MB

     Dynamical RAM for           local pot:       0.00 MB

     Dynamical RAM for          nlocal pot:       0.00 MB

     Dynamical RAM for                qrad:       0.09 MB

     Dynamical RAM for          rho,v,vnew:       0.06 MB

     Dynamical RAM for               rhoin:       0.02 MB

     Dynamical RAM for            rho*nmix:       0.11 MB

     Dynamical RAM for           G-vectors:       0.03 MB

     Dynamical RAM for          h,s,v(r/c):       0.01 MB

     Dynamical RAM for          <psi|beta>:       0.00 MB

     Dynamical RAM for                 psi:       0.01 MB

     Dynamical RAM for                hpsi:       0.01 MB

     Dynamical RAM for      wfcinit/wfcrot:       0.01 MB

     Estimated static dynamical RAM per process >       2.08 MB

     Estimated max dynamical RAM per process >       2.22 MB

     Estimated total dynamical RAM >      17.73 MB

     Initial potential from superposition of free atoms

     starting charge       2.9979, renormalised to       3.0000

     negative rho (up, down):  2.733E-05 0.000E+00
     Starting wfcs are    4 randomized atomic wfcs +    2 random wfcs

     total cpu time spent up to now is        0.2 secs

     Self-consistent Calculation

     iteration #  1     ecut=    40.00 Ry     beta= 0.70
     Davidson diagonalization with overlap

---- Real-time Memory Report at c_bands before calling an iterative solver
            55 MiB given to the printing process from OS
             0 MiB allocation reported by mallinfo(arena+hblkhd)
         11873 MiB available memory on the node where the printing process lives
------------------
     ethr =  1.00E-02,  avg # of iterations =  5.7

     Threshold (ethr) on eigenvalues was too large:
     Diagonalizing with lowered threshold

     Davidson diagonalization with overlap

---- Real-time Memory Report at c_bands before calling an iterative solver
            57 MiB given to the printing process from OS
             0 MiB allocation reported by mallinfo(arena+hblkhd)
         11866 MiB available memory on the node where the printing process lives
------------------
     ethr =  1.91E-04,  avg # of iterations =  2.1

     negative rho (up, down):  6.130E-06 0.000E+00

     total cpu time spent up to now is        1.3 secs

     total energy              =      -4.19084465 Ry
     estimated scf accuracy    <       0.00572421 Ry

     iteration #  2     ecut=    40.00 Ry     beta= 0.70
     Davidson diagonalization with overlap

---- Real-time Memory Report at c_bands before calling an iterative solver
            57 MiB given to the printing process from OS
             0 MiB allocation reported by mallinfo(arena+hblkhd)
         11865 MiB available memory on the node where the printing process lives
------------------
     ethr =  1.91E-04,  avg # of iterations =  1.0

     total cpu time spent up to now is        1.7 secs

     total energy              =      -4.19088241 Ry
     estimated scf accuracy    <       0.00044066 Ry

     iteration #  3     ecut=    40.00 Ry     beta= 0.70
     Davidson diagonalization with overlap

---- Real-time Memory Report at c_bands before calling an iterative solver
            57 MiB given to the printing process from OS
             0 MiB allocation reported by mallinfo(arena+hblkhd)
         11866 MiB available memory on the node where the printing process lives
------------------
     ethr =  1.47E-05,  avg # of iterations =  1.8

     total cpu time spent up to now is        2.1 secs

     total energy              =      -4.19088569 Ry
     estimated scf accuracy    <       0.00000031 Ry

     iteration #  4     ecut=    40.00 Ry     beta= 0.70
     Davidson diagonalization with overlap

---- Real-time Memory Report at c_bands before calling an iterative solver
            57 MiB given to the printing process from OS
             0 MiB allocation reported by mallinfo(arena+hblkhd)
         11866 MiB available memory on the node where the printing process lives
------------------
     c_bands:  1 eigenvalues not converged
     ethr =  1.04E-08,  avg # of iterations =  2.4

     total cpu time spent up to now is        2.5 secs

     total energy              =      -4.19088572 Ry
     estimated scf accuracy    <          5.9E-09 Ry

     iteration #  5     ecut=    40.00 Ry     beta= 0.70
     Davidson diagonalization with overlap

---- Real-time Memory Report at c_bands before calling an iterative solver
            57 MiB given to the printing process from OS
             0 MiB allocation reported by mallinfo(arena+hblkhd)
         11783 MiB available memory on the node where the printing process lives
------------------
     ethr =  1.98E-10,  avg # of iterations =  1.4

     total cpu time spent up to now is        2.8 secs

     total energy              =      -4.19088572 Ry
     estimated scf accuracy    <          8.9E-12 Ry

     iteration #  6     ecut=    40.00 Ry     beta= 0.70
     Davidson diagonalization with overlap

---- Real-time Memory Report at c_bands before calling an iterative solver
            57 MiB given to the printing process from OS
             0 MiB allocation reported by mallinfo(arena+hblkhd)
         11748 MiB available memory on the node where the printing process lives
------------------
     ethr =  2.95E-13,  avg # of iterations =  2.2

     total cpu time spent up to now is        3.3 secs

     total energy              =      -4.19088572 Ry
     estimated scf accuracy    <          1.6E-12 Ry

     iteration #  7     ecut=    40.00 Ry     beta= 0.70
     Davidson diagonalization with overlap

---- Real-time Memory Report at c_bands before calling an iterative solver
            57 MiB given to the printing process from OS
             0 MiB allocation reported by mallinfo(arena+hblkhd)
         11707 MiB available memory on the node where the printing process lives
------------------
     ethr =  1.00E-13,  avg # of iterations =  1.0

     total cpu time spent up to now is        3.6 secs

     End of self-consistent calculation

          k = 0.0000 0.0000 0.0000 (   459 PWs)   bands (ev):

    -3.1769  21.2537  21.2889  21.2889  22.6737  22.6737

     occupation numbers 
     1.0000   0.0000   0.0000   0.0000   0.0000   0.0000

          k =-0.0441 0.0443-0.0443 (   447 PWs)   bands (ev):

    -3.0650  19.4042  20.8590  20.8824  23.2518  23.2567

     occupation numbers 
     1.0000   0.0000   0.0000   0.0000   0.0000   0.0000

          k =-0.0883 0.0885-0.0885 (   452 PWs)   bands (ev):

    -2.7301  16.8249  20.2623  20.2906  23.3798  24.2919

     occupation numbers 
     1.0000   0.0000   0.0000   0.0000   0.0000   0.0000

          k =-0.1324 0.1328-0.1328 (   459 PWs)   bands (ev):

    -2.1746  14.2800  19.7843  19.8193  23.2142  24.4942

     occupation numbers 
     1.0000   0.0000   0.0000   0.0000   0.0000   0.0000

          k =-0.1765 0.1770-0.1770 (   456 PWs)   bands (ev):

    -1.4023  11.8547  19.4705  19.5127  23.0757  23.4038

     occupation numbers 
     1.0000   0.0000   0.0000   0.0000   0.0000   0.0000

          k =-0.2206 0.2213-0.2213 (   451 PWs)   bands (ev):

    -0.4181   9.5771  19.3315  19.3812  22.3019  22.3974

     occupation numbers 
     1.0000   0.0000   0.0000   0.0000   0.0000   0.0000

          k =-0.2648 0.2656-0.2656 (   445 PWs)   bands (ev):

     0.7717   7.4615  19.3711  19.4285  21.3538  21.4418

     occupation numbers 
     1.0000   1.0002   0.0000   0.0000   0.0000   0.0000

          k =-0.3089 0.3098-0.3098 (   449 PWs)   bands (ev):

     2.1594   5.5179  19.5914  19.6565  20.5836  20.6640

     occupation numbers 
     1.0000   1.0000   0.0000   0.0000   0.0000   0.0000

          k = 0.3530-0.3541 0.3541 (   444 PWs)   bands (ev):

     3.6249   3.8671  19.9685  20.0226  20.0423  20.0944

     occupation numbers 
     1.0000   1.0000   0.0000   0.0000   0.0000   0.0000

          k = 0.0000 0.0885 0.0000 (   443 PWs)   bands (ev):

    -3.0274  19.9944  20.0219  20.2996  22.3634  24.1642

     occupation numbers 
     1.0000   0.0000   0.0000   0.0000   0.0000   0.0000

          k =-0.0441 0.1328-0.0443 (   449 PWs)   bands (ev):

    -2.7666  17.7127  19.2799  20.3741  22.5826  24.5976

     occupation numbers 
     1.0000   0.0000   0.0000   0.0000   0.0000   0.0000

          k =-0.0883 0.1770-0.0885 (   458 PWs)   bands (ev):

    -2.2846  15.1750  18.7200  20.0939  23.1139  24.1231

     occupation numbers 
     1.0000   0.0000   0.0000   0.0000   0.0000   0.0000

          k =-0.1324 0.2213-0.1328 (   455 PWs)   bands (ev):

    -1.5844  12.7199  18.3371  19.7956  22.0324  24.2707

     occupation numbers 
     1.0000   0.0000   0.0000   0.0000   0.0000   0.0000

          k =-0.1765 0.2656-0.1770 (   450 PWs)   bands (ev):

    -0.6708  10.3987  18.1337  19.6252  20.8447  24.0774

     occupation numbers 
     1.0000   0.0000   0.0000   0.0000   0.0000   0.0000

          k =-0.2206 0.3098-0.2213 (   445 PWs)   bands (ev):

     0.4504   8.2325  18.1110  19.5986  19.8391  23.0860

     occupation numbers 
     1.0000   0.7974   0.0000   0.0000   0.0000   0.0000

          k =-0.2648 0.3541-0.2656 (   447 PWs)   bands (ev):

     1.7720   6.2337  18.2700  18.9490  19.8172  22.2591

     occupation numbers 
     1.0000   1.0000   0.0000   0.0000   0.0000   0.0000

          k = 0.3972-0.3098 0.3983 (   449 PWs)   bands (ev):

     3.2791   4.4187  18.2878  18.6121  20.1773  21.6108

     occupation numbers 
     1.0000   1.0000   0.0000   0.0000   0.0000   0.0000

          k = 0.3530-0.2656 0.3541 (   449 PWs)   bands (ev):

     2.7550   5.0048  17.8112  19.1376  20.7252  21.1454

     occupation numbers 
     1.0000   1.0000   0.0000   0.0000   0.0000   0.0000

          k = 0.3089-0.2213 0.3098 (   444 PWs)   bands (ev):

     1.3061   6.8853  17.5216  19.8438  20.8667  21.4559

     occupation numbers 
     1.0000   1.0000   0.0000   0.0000   0.0000   0.0000

          k = 0.2648-0.1770 0.2656 (   448 PWs)   bands (ev):

     0.0509   8.9407  17.4191  20.6242  20.8777  22.3594

     occupation numbers 
     1.0000   0.0002   0.0000   0.0000   0.0000   0.0000

          k = 0.2206-0.1328 0.2213 (   452 PWs)   bands (ev):

    -1.0012  11.1583  17.5037  20.7978  21.8445  23.3846

     occupation numbers 
     1.0000   0.0000   0.0000   0.0000   0.0000   0.0000

          k = 0.1765-0.0885 0.1770 (   459 PWs)   bands (ev):

    -1.8437  13.5210  17.7763  21.0409  23.0157  23.8101

     occupation numbers 
     1.0000   0.0000   0.0000   0.0000   0.0000   0.0000

          k = 0.1324-0.0443 0.1328 (   454 PWs)   bands (ev):

    -2.4711  15.9867  18.2477  21.4024  23.4679  23.8985

     occupation numbers 
     1.0000   0.0000   0.0000   0.0000   0.0000   0.0000

          k = 0.0883 0.0000 0.0885 (   449 PWs)   bands (ev):

    -2.8791  18.2889  19.0970  21.5610  22.8455  23.7444

     occupation numbers 
     1.0000   0.0000   0.0000   0.0000   0.0000   0.0000

          k = 0.0000 0.1770 0.0000 (   451 PWs)   bands (ev):

    -2.5804  18.4535  18.4788  18.6653  21.5980  23.4111

     occupation numbers 
     1.0000   0.0000   0.0000   0.0000   0.0000   0.0000

          k =-0.0441 0.2213-0.0443 (   456 PWs)   bands (ev):

    -2.1727  16.1731  17.8340  19.0020  21.5672  21.9206

     occupation numbers 
     1.0000   0.0000   0.0000   0.0000   0.0000   0.0000

          k =-0.0883 0.2656-0.0885 (   452 PWs)   bands (ev):

    -1.5463  13.7381  17.3843  18.9317  20.2668  22.8020

     occupation numbers 
     1.0000   0.0000   0.0000   0.0000   0.0000   0.0000

          k =-0.1324 0.3098-0.1328 (   450 PWs)   bands (ev):

    -0.7055  11.3956  17.1167  18.6811  19.0788  24.2646

     occupation numbers 
     1.0000   0.0000   0.0000   0.0000   0.0000   0.0000

          k =-0.1765 0.3541-0.1770 (   450 PWs)   bands (ev):

     0.3442   9.1913  17.0309  17.7896  18.8234  24.9811

     occupation numbers 
     1.0000   0.0000   0.0000   0.0000   0.0000   0.0000

          k =-0.2206 0.3983-0.2213 (   445 PWs)   bands (ev):

     1.5962   7.1456  16.8779  17.1274  18.9424  24.1079

     occupation numbers 
     1.0000   1.0000   0.0000   0.0000   0.0000   0.0000

          k = 0.4413-0.2656 0.4426 (   447 PWs)   bands (ev):

     3.0403   5.2734  16.1440  17.4064  19.2582  23.4039

     occupation numbers 
     1.0000   1.0000   0.0000   0.0000   0.0000   0.0000

          k = 0.3972-0.2213 0.3983 (   447 PWs)   bands (ev):

     3.5497   4.7027  15.5995  17.8693  19.7660  22.8790

     occupation numbers 
     1.0000   1.0000   0.0000   0.0000   0.0000   0.0000

          k = 0.3530-0.1770 0.3541 (   447 PWs)   bands (ev):

     2.0497   6.5074  15.2488  18.5164  20.4621  22.5361

     occupation numbers 
     1.0000   1.0000   0.0000   0.0000   0.0000   0.0000

          k = 0.3089-0.1328 0.3098 (   445 PWs)   bands (ev):

     0.7330   8.4916  15.0963  19.3458  21.3395  22.3756

     occupation numbers 
     1.0000   0.1725   0.0000   0.0000   0.0000   0.0000

          k = 0.2648-0.0885 0.2656 (   451 PWs)   bands (ev):

    -0.3840  10.6271  15.1514  20.3487  22.3870  22.3934

     occupation numbers 
     1.0000   0.0000   0.0000   0.0000   0.0000   0.0000

          k = 0.2206-0.0443 0.2213 (   455 PWs)   bands (ev):

    -1.2940  12.8606  15.4521  21.4893  22.5561  23.5833

     occupation numbers 
     1.0000   0.0000   0.0000   0.0000   0.0000   0.0000

          k = 0.1765 0.0000 0.1770 (   451 PWs)   bands (ev):

    -1.9912  14.8861  16.2741  22.4283  22.6265  24.1023

     occupation numbers 
     1.0000   0.0000   0.0000   0.0000   0.0000   0.0000

          k = 0.0000 0.2656 0.0000 (   453 PWs)   bands (ev):

    -1.8399  17.1229  17.1397  17.1468  20.0318  20.6587

     occupation numbers 
     1.0000   0.0000   0.0000   0.0000   0.0000   0.0000

          k =-0.0441 0.3098-0.0443 (   452 PWs)   bands (ev):

    -1.2885  14.8615  16.6207  17.6931  18.5015  20.7643

     occupation numbers 
     1.0000   0.0000   0.0000   0.0000   0.0000   0.0000

          k =-0.0883 0.3541-0.0885 (   448 PWs)   bands (ev):

    -0.5222  12.5460  16.2903  17.0293  17.8902  21.8648

     occupation numbers 
     1.0000   0.0000   0.0000   0.0000   0.0000   0.0000

          k =-0.1324 0.3983-0.1328 (   448 PWs)   bands (ev):

     0.4539  10.3248  15.8651  16.1423  17.8602  23.4681

     occupation numbers 
     1.0000   0.0000   0.0000   0.0000   0.0000   0.0000

          k =-0.1765 0.4426-0.1770 (   445 PWs)   bands (ev):

     1.6332   8.2442  14.8686  16.1763  17.9590  25.2694

     occupation numbers 
     1.0000   0.7677   0.0000   0.0000   0.0000   0.0000

          k = 0.4854-0.2213 0.4869 (   446 PWs)   bands (ev):

     3.0068   6.3265  14.0604  16.3928  18.2317  25.3905

     occupation numbers 
     1.0000   1.0000   0.0000   0.0000   0.0000   0.0000

          k = 0.4413-0.1770 0.4426 (   446 PWs)   bands (ev):

     4.4211   4.7286  13.4478  16.7924  18.6933  24.8103

     occupation numbers 
     1.0000   1.0000   0.0000   0.0000   0.0000   0.0000

          k = 0.3972-0.1328 0.3983 (   446 PWs)   bands (ev):

     2.9969   6.3275  13.0384  17.3763  19.3450  24.4090

     occupation numbers 
     1.0000   1.0000   0.0000   0.0000   0.0000   0.0000

          k = 0.3530-0.0885 0.3541 (   444 PWs)   bands (ev):

     1.6236   8.2213  12.8474  18.1449  20.1810  24.1855

     occupation numbers 
     1.0000   0.8247   0.0000   0.0000   0.0000   0.0000

          k = 0.3089-0.0443 0.3098 (   443 PWs)   bands (ev):

     0.4453  10.2120  12.9279  19.0968  21.1890  24.1163

     occupation numbers 
     1.0000   0.0000   0.0000   0.0000   0.0000   0.0000

          k = 0.2648 0.0000 0.2656 (   451 PWs)   bands (ev):

    -0.5293  11.9650  13.5994  20.2256  22.3451  23.8687

     occupation numbers 
     1.0000   0.0000   0.0000   0.0000   0.0000   0.0000

          k = 0.0000 0.3541 0.0000 (   456 PWs)   bands (ev):

    -0.8127  15.8537  16.0325  16.0554  16.8132  19.7298

     occupation numbers 
     1.0000   0.0000   0.0000   0.0000   0.0000   0.0000

          k =-0.0441 0.3983-0.0443 (   446 PWs)   bands (ev):

    -0.1221  13.7943  15.3458  15.6515  16.6839  19.8969

     occupation numbers 
     1.0000   0.0000   0.0000   0.0000   0.0000   0.0000

          k =-0.0883 0.4426-0.0885 (   448 PWs)   bands (ev):

     0.7784  11.6050  14.0857  15.4419  16.9213  21.0907

     occupation numbers 
     1.0000   0.0000   0.0000   0.0000   0.0000   0.0000

          k =-0.1324 0.4869-0.1328 (   447 PWs)   bands (ev):

     1.8824   9.5121  13.0106  15.4142  17.0557  22.8193

     occupation numbers 
     1.0000   0.0000   0.0000   0.0000   0.0000   0.0000

          k = 0.5295-0.1770 0.5311 (   447 PWs)   bands (ev):

     3.1809   7.5627  12.1284  15.5684  17.3005  24.7969

     occupation numbers 
     1.0000   1.0015   0.0000   0.0000   0.0000   0.0000

          k = 0.4854-0.1328 0.4869 (   448 PWs)   bands (ev):

     4.6481   5.7919  11.4488  15.9051  17.7176  26.8327

     occupation numbers 
     1.0000   1.0000   0.0000   0.0000   0.0000   0.0000

          k = 0.4413-0.0885 0.4426 (   449 PWs)   bands (ev):

     4.1386   6.3371  10.9896  16.4254  18.3220  26.4775

     occupation numbers 
     1.0000   1.0000   0.0000   0.0000   0.0000   0.0000

          k = 0.3972-0.0443 0.3983 (   443 PWs)   bands (ev):

     2.7163   8.0810  10.8099  17.1305  19.1121  26.1971

     occupation numbers 
     1.0000   1.0528   0.0000   0.0000   0.0000   0.0000

          k = 0.3530 0.0000 0.3541 (   443 PWs)   bands (ev):

     1.4811   9.5802  11.2542  18.0213  20.0760  25.8709

     occupation numbers 
     1.0000   0.0000   0.0000   0.0000   0.0000   0.0000

          k = 0.0000 0.4426 0.0000 (   444 PWs)   bands (ev):

     0.4919  13.8006  14.8408  15.1868  15.2089  18.9254

     occupation numbers 
     1.0000   0.0000   0.0000   0.0000   0.0000   0.0000

          k =-0.0441 0.4869-0.0443 (   445 PWs)   bands (ev):

     1.3151  12.4092  13.0436  14.9271  15.8672  19.1963

     occupation numbers 
     1.0000   0.0000   0.0000   0.0000   0.0000   0.0000

          k =-0.0883 0.5311-0.0885 (   446 PWs)   bands (ev):

     2.3411  10.8331  11.4211  14.8382  16.2318  20.5117

     occupation numbers 
     1.0000   0.0000   0.0000   0.0000   0.0000   0.0000

          k = 0.5737-0.1328 0.5754 (   449 PWs)   bands (ev):

     3.5592   8.9400  10.4035  14.9306  16.5052  22.3685

     occupation numbers 
     1.0000   0.0002   0.0000   0.0000   0.0000   0.0000

          k = 0.5295-0.0885 0.5311 (   445 PWs)   bands (ev):

     4.9464   7.1443   9.6505  15.2049  16.8927  24.4886

     occupation numbers 
     1.0000   1.0000   0.0000   0.0000   0.0000   0.0000

          k = 0.4854-0.0443 0.4869 (   448 PWs)   bands (ev):

     5.4581   6.4927   9.1814  15.6620  17.4522  26.7316

     occupation numbers 
     1.0000   1.0000   0.0000   0.0000   0.0000   0.0000

          k = 0.4413 0.0000 0.4426 (   445 PWs)   bands (ev):

     4.0025   7.7359   9.3478  16.3033  18.1945  28.3847

     occupation numbers 
     1.0000   1.0158   0.0000   0.0000   0.0000   0.0000

          k = 0.0000 0.5311 0.0000 (   448 PWs)   bands (ev):

     2.0594  11.0157  14.1127  14.5849  14.6063  18.3105

     occupation numbers 
     1.0000   0.0000   0.0000   0.0000   0.0000   0.0000

          k =-0.0441 0.5754-0.0443 (   452 PWs)   bands (ev):

     3.0034   9.7783  12.4804  14.4457  15.3250  18.7066

     occupation numbers 
     1.0000   0.0000   0.0000   0.0000   0.0000   0.0000

          k = 0.6178-0.0885 0.6196 (   452 PWs)   bands (ev):

     4.1311   8.7412  10.5961  14.4770  15.8137  20.1542

     occupation numbers 
     1.0000   0.0084   0.0000   0.0000   0.0000   0.0000

          k = 0.5737-0.0443 0.5754 (   448 PWs)   bands (ev):

     5.3895   7.9113   8.8491  14.6895  16.2259  22.1383

     occupation numbers 
     1.0000   1.0666   0.0014   0.0000   0.0000   0.0000

          k = 0.5295 0.0000 0.5311 (   440 PWs)   bands (ev):

     6.4260   6.9035   8.0342  15.0840  16.7550  24.3827

     occupation numbers 
     1.0000   1.0000   1.0778   0.0000   0.0000   0.0000

          k = 0.0000 0.6196 0.0000 (   452 PWs)   bands (ev):

     3.8565   8.4902  13.6744  14.2248  14.2458  17.9263

     occupation numbers 
     1.0000   0.1746   0.0000   0.0000   0.0000   0.0000

          k = 0.6619-0.0443 0.6639 (   453 PWs)   bands (ev):

     4.8540   7.4461  12.2089  14.2056  15.0537  18.4554

     occupation numbers 
     1.0000   1.0002   0.0000   0.0000   0.0000   0.0000

          k = 0.6178 0.0000 0.6196 (   450 PWs)   bands (ev):

     5.6435   6.9992  10.4499  14.3568  15.6735  20.0334

     occupation numbers 
     1.0000   1.0000   0.0000   0.0000   0.0000   0.0000

          k = 0.0000-0.7082 0.0000 (   444 PWs)   bands (ev):

     5.3833   6.7210  13.5281  14.1050  14.1259  17.7959

     occupation numbers 
     1.0000   1.0000   0.0000   0.0000   0.0000   0.0000

          k =-0.0883 0.0000 0.0000 (   443 PWs)   bands (ev):

    -3.0283  20.0287  20.0287  20.2808  22.3769  24.1570

     occupation numbers 
     1.0000   0.0000   0.0000   0.0000   0.0000   0.0000

          k =-0.1324 0.0443-0.0443 (   450 PWs)   bands (ev):

    -2.7684  17.7211  19.3049  20.3763  22.5970  24.5808

     occupation numbers 
     1.0000   0.0000   0.0000   0.0000   0.0000   0.0000

          k =-0.1765 0.0885-0.0885 (   458 PWs)   bands (ev):

    -2.2872  15.1838  18.7499  20.0996  23.0383  24.0866

     occupation numbers 
     1.0000   0.0000   0.0000   0.0000   0.0000   0.0000

          k =-0.2206 0.1328-0.1328 (   454 PWs)   bands (ev):

    -1.5879  12.7287  18.3720  19.8040  21.9117  24.2373

     occupation numbers 
     1.0000   0.0000   0.0000   0.0000   0.0000   0.0000

          k =-0.2648 0.1770-0.1770 (   449 PWs)   bands (ev):

    -0.6751  10.4071  18.1738  19.6358  20.7303  24.1930

     occupation numbers 
     1.0000   0.0000   0.0000   0.0000   0.0000   0.0000

          k =-0.3089 0.2213-0.2213 (   443 PWs)   bands (ev):

     0.4452   8.2404  18.1563  19.5908  19.7542  23.1532

     occupation numbers 
     1.0000   0.7775   0.0000   0.0000   0.0000   0.0000

          k =-0.3530 0.2656-0.2656 (   447 PWs)   bands (ev):

     1.7661   6.2409  18.3206  18.8543  19.8303  22.3199

     occupation numbers 
     1.0000   1.0000   0.0000   0.0000   0.0000   0.0000

          k = 0.3089-0.3983 0.3983 (   449 PWs)   bands (ev):

     3.2726   4.4252  18.2015  18.6678  20.1931  21.6650

     occupation numbers 
     1.0000   1.0000   0.0000   0.0000   0.0000   0.0000

          k = 0.2648-0.3541 0.3541 (   449 PWs)   bands (ev):

     2.7608   4.9975  17.7343  19.1987  20.7425  21.1930

     occupation numbers 
     1.0000   1.0000   0.0000   0.0000   0.0000   0.0000

          k = 0.2206-0.3098 0.3098 (   445 PWs)   bands (ev):

     1.3112   6.8773  17.4543  19.9102  20.9078  21.4740

     occupation numbers 
     1.0000   1.0000   0.0000   0.0000   0.0000   0.0000

          k = 0.1765-0.2656 0.2656 (   445 PWs)   bands (ev):

     0.0552   8.9321  17.3616  20.6780  20.9303  22.3784

     occupation numbers 
     1.0000   0.0003   0.0000   0.0000   0.0000   0.0000

          k = 0.1324-0.2213 0.2213 (   451 PWs)   bands (ev):

    -0.9977  11.1494  17.4557  20.8281  21.9194  23.4050

     occupation numbers 
     1.0000   0.0000   0.0000   0.0000   0.0000   0.0000

          k = 0.0883-0.1770 0.1770 (   457 PWs)   bands (ev):

    -1.8411  13.5122  17.7374  21.0646  23.0922  23.8216

     occupation numbers 
     1.0000   0.0000   0.0000   0.0000   0.0000   0.0000

          k = 0.0441-0.1328 0.1328 (   457 PWs)   bands (ev):

    -2.4693  15.9796  18.2161  21.4215  23.4868  23.9056

     occupation numbers 
     1.0000   0.0000   0.0000   0.0000   0.0000   0.0000

          k = 0.0000-0.0885 0.0885 (   449 PWs)   bands (ev):

    -2.8782  18.2910  19.0655  21.5794  22.8442  23.7521

     occupation numbers 
     1.0000   0.0000   0.0000   0.0000   0.0000   0.0000

          k =-0.0883 0.1770 0.0000 (   459 PWs)   bands (ev):

    -2.4328  16.5990  17.6604  20.7009  22.3671  23.5922

     occupation numbers 
     1.0000   0.0000   0.0000   0.0000   0.0000   0.0000

          k =-0.1324 0.2213-0.0443 (   459 PWs)   bands (ev):

    -1.8790  14.4257  16.8444  20.7835  21.8311  23.4061

     occupation numbers 
     1.0000   0.0000   0.0000   0.0000   0.0000   0.0000

          k =-0.1765 0.2656-0.0885 (   452 PWs)   bands (ev):

    -1.1089  12.0741  16.4628  20.5349  20.6195  24.4458

     occupation numbers 
     1.0000   0.0000   0.0000   0.0000   0.0000   0.0000

          k =-0.2206 0.3098-0.1328 (   446 PWs)   bands (ev):

    -0.1276   9.8250  16.2982  19.3825  20.5219  23.6061

     occupation numbers 
     1.0000   0.0000   0.0000   0.0000   0.0000   0.0000

          k =-0.2648 0.3541-0.1770 (   445 PWs)   bands (ev):

     1.0585   7.7242  16.3277  18.4048  20.5825  22.6672

     occupation numbers 
     1.0000   1.0139   0.0000   0.0000   0.0000   0.0000

          k = 0.3972-0.3098 0.4869 (   446 PWs)   bands (ev):

     2.4416   5.7904  16.5404  17.6221  20.8082  21.9001

     occupation numbers 
     1.0000   1.0000   0.0000   0.0000   0.0000   0.0000

          k = 0.3530-0.2656 0.4426 (   448 PWs)   bands (ev):

     3.8906   4.1574  16.8138  17.1587  21.0786  21.4475

     occupation numbers 
     1.0000   1.0000   0.0000   0.0000   0.0000   0.0000

          k = 0.0000 0.1770 0.0885 (   457 PWs)   bands (ev):

    -2.4319  16.5996  17.6307  20.7262  22.3739  23.5968

     occupation numbers 
     1.0000   0.0000   0.0000   0.0000   0.0000   0.0000

          k =-0.0883 0.2656 0.0000 (   456 PWs)   bands (ev):

    -1.6935  15.1456  16.3397  19.3658  20.1546  21.6052

     occupation numbers 
     1.0000   0.0000   0.0000   0.0000   0.0000   0.0000

          k =-0.1324 0.3098-0.0443 (   451 PWs)   bands (ev):

    -0.9975  13.1053  15.6050  18.7329  19.6383  22.4246

     occupation numbers 
     1.0000   0.0000   0.0000   0.0000   0.0000   0.0000

          k =-0.1765 0.3541-0.0885 (   448 PWs)   bands (ev):

    -0.0893  10.8758  15.3251  17.4949  19.6370  23.8694

     occupation numbers 
     1.0000   0.0000   0.0000   0.0000   0.0000   0.0000

          k =-0.2206 0.3983-0.1328 (   446 PWs)   bands (ev):

     1.0250   8.7478  15.2575  16.4577  19.6898  24.4717

     occupation numbers 
     1.0000   0.0076   0.0000   0.0000   0.0000   0.0000

          k = 0.4413-0.2656 0.5311 (   443 PWs)   bands (ev):

     2.3379   6.7710  15.2493  15.7516  19.8905  23.7238

     occupation numbers 
     1.0000   1.0000   0.0000   0.0000   0.0000   0.0000

          k = 0.3972-0.2213 0.4869 (   447 PWs)   bands (ev):

     3.8307   4.9747  14.7898  15.8846  20.2634  23.0820

     occupation numbers 
     1.0000   1.0000   0.0000   0.0000   0.0000   0.0000

          k = 0.3530-0.1770 0.4426 (   446 PWs)   bands (ev):

     3.3138   5.5509  14.3356  16.4014  20.8108  22.6155

     occupation numbers 
     1.0000   1.0000   0.0000   0.0000   0.0000   0.0000

          k = 0.3089-0.1328 0.3983 (   446 PWs)   bands (ev):

     1.8754   7.4083  14.0638  17.1279  21.5060  22.3527

     occupation numbers 
     1.0000   1.0001   0.0000   0.0000   0.0000   0.0000

          k = 0.2648-0.0885 0.3541 (   444 PWs)   bands (ev):

     0.6280   9.4229  14.0006  18.0470  22.0152  22.5999

     occupation numbers 
     1.0000   0.0000   0.0000   0.0000   0.0000   0.0000

          k = 0.2206-0.0443 0.3098 (   451 PWs)   bands (ev):

    -0.4179  11.5340  14.1947  19.1507  22.0619  23.4663

     occupation numbers 
     1.0000   0.0000   0.0000   0.0000   0.0000   0.0000

          k = 0.1765 0.0000 0.2656 (   453 PWs)   bands (ev):

    -1.2553  13.4222  14.9434  20.4253  21.7953  23.3096

     occupation numbers 
     1.0000   0.0000   0.0000   0.0000   0.0000   0.0000

          k = 0.0441 0.2213 0.1328 (   459 PWs)   bands (ev):

    -1.8772  14.4186  16.8135  20.8153  21.8408  23.4149

     occupation numbers 
     1.0000   0.0000   0.0000   0.0000   0.0000   0.0000

          k = 0.0000 0.2656 0.0885 (   459 PWs)   bands (ev):

    -1.6926  15.1449  16.3113  19.3917  20.1564  21.6114

     occupation numbers 
     1.0000   0.0000   0.0000   0.0000   0.0000   0.0000

          k =-0.0883 0.3541 0.0000 (   453 PWs)   bands (ev):

    -0.6678  13.9473  15.2109  16.9994  18.2042  20.6908

     occupation numbers 
     1.0000   0.0000   0.0000   0.0000   0.0000   0.0000

          k =-0.1324 0.3983-0.0443 (   449 PWs)   bands (ev):

     0.1655  12.0392  14.5458  15.7178  18.6265  21.5939

     occupation numbers 
     1.0000   0.0000   0.0000   0.0000   0.0000   0.0000

          k =-0.1765 0.4426-0.0885 (   448 PWs)   bands (ev):

     1.2054   9.9352  14.1954  14.7803  18.7741  23.1796

     occupation numbers 
     1.0000   0.0000   0.0000   0.0000   0.0000   0.0000

          k = 0.4854-0.2213 0.5754 (   445 PWs)   bands (ev):

     2.4448   7.9340  13.4791  14.6327  18.9654  24.9356

     occupation numbers 
     1.0000   1.0735   0.0000   0.0000   0.0000   0.0000

          k = 0.4413-0.1770 0.5311 (   447 PWs)   bands (ev):

     3.8706   6.0906  12.7666  14.8809  19.3024  25.0517

     occupation numbers 
     1.0000   1.0000   0.0000   0.0000   0.0000   0.0000

          k = 0.3972-0.1328 0.4869 (   445 PWs)   bands (ev):

     4.3748   5.5203  12.2336  15.3501  19.8121  24.5594

     occupation numbers 
     1.0000   1.0000   0.0000   0.0000   0.0000   0.0000

          k = 0.3530-0.0885 0.4426 (   447 PWs)   bands (ev):

     2.8950   7.2758  11.9143  16.0184  20.4987  24.1959

     occupation numbers 
     1.0000   1.0000   0.0000   0.0000   0.0000   0.0000

          k = 0.3089-0.0443 0.3983 (   443 PWs)   bands (ev):

     1.5910   9.1435  11.8693  16.8785  21.3541  23.9404

     occupation numbers 
     1.0000   0.0000   0.0000   0.0000   0.0000   0.0000

          k = 0.2648 0.0000 0.3541 (   446 PWs)   bands (ev):

     0.4841  10.7677  12.4318  17.9251  22.3498  23.4353

     occupation numbers 
     1.0000   0.0000   0.0000   0.0000   0.0000   0.0000

          k = 0.0883 0.2656 0.1770 (   453 PWs)   bands (ev):

    -1.1063  12.0652  16.4245  20.5455  20.6588  24.5078

     occupation numbers 
     1.0000   0.0000   0.0000   0.0000   0.0000   0.0000

          k = 0.0441 0.3098 0.1328 (   451 PWs)   bands (ev):

    -0.9957  13.0978  15.5744  18.7360  19.6714  22.4364

     occupation numbers 
     1.0000   0.0000   0.0000   0.0000   0.0000   0.0000

          k = 0.0000 0.3541 0.0885 (   451 PWs)   bands (ev):

    -0.6669  13.9454  15.1838  17.0001  18.2304  20.6971

     occupation numbers 
     1.0000   0.0000   0.0000   0.0000   0.0000   0.0000

          k =-0.0883 0.4426 0.0000 (   445 PWs)   bands (ev):

     0.6348  13.0109  13.7990  14.5396  17.2876  19.9161

     occupation numbers 
     1.0000   0.0000   0.0000   0.0000   0.0000   0.0000

          k =-0.1324 0.4869-0.0443 (   448 PWs)   bands (ev):

     1.5983  11.2233  12.6804  13.9541  17.8457  20.9275

     occupation numbers 
     1.0000   0.0000   0.0000   0.0000   0.0000   0.0000

          k = 0.5295-0.1770 0.6196 (   449 PWs)   bands (ev):

     2.7607   9.2510  11.7061  13.8831  18.1317  22.6407

     occupation numbers 
     1.0000   0.0000   0.0000   0.0000   0.0000   0.0000

          k = 0.4854-0.1328 0.5754 (   444 PWs)   bands (ev):

     4.1092   7.3863  10.9017  14.0770  18.4587  24.6490

     occupation numbers 
     1.0000   1.0001   0.0000   0.0000   0.0000   0.0000

          k = 0.4413-0.0885 0.5311 (   449 PWs)   bands (ev):

     5.4793   5.8224  10.3081  14.4844  18.9304  26.3892

     occupation numbers 
     1.0000   1.0000   0.0000   0.0000   0.0000   0.0000

          k = 0.3972-0.0443 0.4869 (   446 PWs)   bands (ev):

     4.1089   7.2788   9.9899  15.0913  19.5727  26.2375

     occupation numbers 
     1.0000   1.0000   0.0000   0.0000   0.0000   0.0000

          k = 0.3530 0.0000 0.4426 (   442 PWs)   bands (ev):

     2.7546   8.6539  10.3002  15.8911  20.3867  25.6062

     occupation numbers 
     1.0000   0.0291   0.0000   0.0000   0.0000   0.0000

          k = 0.1324 0.3098 0.2213 (   445 PWs)   bands (ev):

    -0.1242   9.8160  16.2506  19.3918  20.5726  23.7030

     occupation numbers 
     1.0000   0.0000   0.0000   0.0000   0.0000   0.0000

          k = 0.0883 0.3541 0.1770 (   448 PWs)   bands (ev):

    -0.0868  10.8667  15.2870  17.4986  19.6795  23.8915

     occupation numbers 
     1.0000   0.0000   0.0000   0.0000   0.0000   0.0000

          k = 0.0441 0.3983 0.1328 (   449 PWs)   bands (ev):

     0.1672  12.0313  14.5170  15.7182  18.6602  21.6052

     occupation numbers 
     1.0000   0.0000   0.0000   0.0000   0.0000   0.0000

          k = 0.0000 0.4426 0.0885 (   445 PWs)   bands (ev):

     0.6357  13.0082  13.7935  14.5192  17.3139  19.9224

     occupation numbers 
     1.0000   0.0000   0.0000   0.0000   0.0000   0.0000

          k =-0.0883 0.5311 0.0000 (   451 PWs)   bands (ev):

     2.1999  11.1299  12.3402  13.8031  16.6307  19.3283

     occupation numbers 
     1.0000   0.0000   0.0000   0.0000   0.0000   0.0000

          k = 0.5737-0.1328 0.6639 (   449 PWs)   bands (ev):

     3.2810   9.9898  10.7761  13.3945  17.3192  20.4641

     occupation numbers 
     1.0000   0.0000   0.0000   0.0000   0.0000   0.0000

          k = 0.5295-0.0885 0.6196 (   445 PWs)   bands (ev):

     4.5400   8.7126   9.3537  13.4798  17.7394  22.3042

     occupation numbers 
     1.0000   0.0129   0.0000   0.0000   0.0000   0.0000

          k = 0.4854-0.0443 0.5754 (   446 PWs)   bands (ev):

     5.9134   7.0822   8.6539  13.8128  18.2005  24.4565

     occupation numbers 
     1.0000   1.0000   0.0291   0.0000   0.0000   0.0000

          k = 0.4413 0.0000 0.5311 (   447 PWs)   bands (ev):

     5.5024   7.0781   8.6533  14.3539  18.8041  26.6896

     occupation numbers 
     1.0000   1.0000   0.0293   0.0000   0.0000   0.0000

          k = 0.1765 0.3541 0.2656 (   443 PWs)   bands (ev):

     1.0628   7.7156  16.2704  18.4143  20.6440  22.7566

     occupation numbers 
     1.0000   1.0125   0.0000   0.0000   0.0000   0.0000

          k = 0.1324 0.3983 0.2213 (   445 PWs)   bands (ev):

     1.0284   8.7386  15.2111  16.4610  19.7430  24.5794

     occupation numbers 
     1.0000   0.0088   0.0000   0.0000   0.0000   0.0000

          k = 0.0883 0.4426 0.1770 (   448 PWs)   bands (ev):

     1.2080   9.9259  14.1743  14.7660  18.8173  23.1959

     occupation numbers 
     1.0000   0.0000   0.0000   0.0000   0.0000   0.0000

          k = 0.0441 0.4869 0.1328 (   448 PWs)   bands (ev):

     1.6000  11.2152  12.6797  13.9263  17.8796  20.9386

     occupation numbers 
     1.0000   0.0000   0.0000   0.0000   0.0000   0.0000

          k = 0.0000 0.5311 0.0885 (   449 PWs)   bands (ev):

     2.2007  11.1303  12.3369  13.7775  16.6570  19.3346

     occupation numbers 
     1.0000   0.0000   0.0000   0.0000   0.0000   0.0000

          k = 0.6178-0.0885 0.7082 (   452 PWs)   bands (ev):

     3.9935   8.6210  11.9371  13.4138  16.2365  18.9626

     occupation numbers 
     1.0000   0.0440   0.0000   0.0000   0.0000   0.0000

          k = 0.5737-0.0443 0.6639 (   451 PWs)   bands (ev):

     5.1217   7.7129  10.4687  13.1293  17.0547  20.2270

     occupation numbers 
     1.0000   1.0121   0.0000   0.0000   0.0000   0.0000

          k = 0.5295 0.0000 0.6196 (   447 PWs)   bands (ev):

     6.0333   7.3782   8.8214  13.3476  17.6077  22.1901

     occupation numbers 
     1.0000   1.0000   0.0023   0.0000   0.0000   0.0000

          k =-0.4854-0.3098-0.3983 (   447 PWs)   bands (ev):

     2.4466   5.7823  16.4741  17.6309  20.8817  21.9807

     occupation numbers 
     1.0000   1.0000   0.0000   0.0000   0.0000   0.0000

          k =-0.5295-0.2656-0.4426 (   443 PWs)   bands (ev):

     2.3421   6.7623  15.2147  15.7339  19.9549  23.8227

     occupation numbers 
     1.0000   1.0000   0.0000   0.0000   0.0000   0.0000

          k =-0.5737-0.2213-0.4869 (   445 PWs)   bands (ev):

     2.4481   7.9248  13.4780  14.5896  19.0193  24.9799

     occupation numbers 
     1.0000   1.0708   0.0000   0.0000   0.0000   0.0000

          k =-0.6178-0.1770-0.5311 (   447 PWs)   bands (ev):

     2.7632   9.2417  11.7074  13.8459  18.1752  22.6553

     occupation numbers 
     1.0000   0.0000   0.0000   0.0000   0.0000   0.0000

          k =-0.6619-0.1328-0.5754 (   449 PWs)   bands (ev):

     3.2826   9.9901  10.7687  13.3646  17.3532  20.4750

     occupation numbers 
     1.0000   0.0000   0.0000   0.0000   0.0000   0.0000

          k =-0.7061-0.0885-0.6196 (   452 PWs)   bands (ev):

     3.9943   8.6217  11.9334  13.3881  16.2628  18.9690

     occupation numbers 
     1.0000   0.0437   0.0000   0.0000   0.0000   0.0000

          k =-0.0883-0.7082 0.0000 (   454 PWs)   bands (ev):

     5.5130   6.8616  11.8026  13.2854  16.1052  18.8387

     occupation numbers 
     1.0000   1.0000   0.0000   0.0000   0.0000   0.0000

          k =-0.4413-0.2656-0.3541 (   447 PWs)   bands (ev):

     3.8897   4.1567  16.7714  17.1338  21.1674  21.5157

     occupation numbers 
     1.0000   1.0000   0.0000   0.0000   0.0000   0.0000

          k =-0.4854-0.2213-0.3983 (   448 PWs)   bands (ev):

     3.8355   4.9668  14.7899  15.8231  20.3392  23.1720

     occupation numbers 
     1.0000   1.0000   0.0000   0.0000   0.0000   0.0000

          k =-0.5295-0.1770-0.4426 (   448 PWs)   bands (ev):

     3.8747   6.0819  12.7691  14.8252  19.3676  25.1558

     occupation numbers 
     1.0000   1.0000   0.0000   0.0000   0.0000   0.0000

          k =-0.5737-0.1328-0.4869 (   446 PWs)   bands (ev):

     4.1125   7.3771  10.9042  14.0298  18.5131  24.6699

     occupation numbers 
     1.0000   1.0000   0.0000   0.0000   0.0000   0.0000

          k =-0.6178-0.0885-0.5311 (   445 PWs)   bands (ev):

     4.5424   8.7060   9.3531  13.4417  17.7832  22.3183

     occupation numbers 
     1.0000   0.0142   0.0000   0.0000   0.0000   0.0000

          k =-0.6619-0.0443-0.5754 (   450 PWs)   bands (ev):

     5.1232   7.7144  10.4604  13.0992  17.0888  20.2379

     occupation numbers 
     1.0000   1.0123   0.0000   0.0000   0.0000   0.0000

          k = 0.0000-0.7082 0.0885 (   454 PWs)   bands (ev):

     5.5138   6.8624  11.7988  13.2597  16.1314  18.8450

     occupation numbers 
     1.0000   1.0000   0.0000   0.0000   0.0000   0.0000

          k =-0.3972-0.2213-0.3098 (   447 PWs)   bands (ev):

     2.4349   5.7968  16.5465  17.5394  20.8816  21.9860

     occupation numbers 
     1.0000   1.0000   0.0000   0.0000   0.0000   0.0000

          k =-0.4413-0.1770-0.3541 (   444 PWs)   bands (ev):

     3.3064   5.5565  14.3400  16.3263  20.8982  22.6966

     occupation numbers 
     1.0000   1.0000   0.0000   0.0000   0.0000   0.0000

          k =-0.4854-0.1328-0.3983 (   445 PWs)   bands (ev):

     4.3669   5.5249  12.2377  15.2837  19.8886  24.6534

     occupation numbers 
     1.0000   1.0000   0.0000   0.0000   0.0000   0.0000

          k =-0.5295-0.0885-0.4426 (   449 PWs)   bands (ev):

     5.4772   5.8197  10.3118  14.4271  18.9960  26.4750

     occupation numbers 
     1.0000   1.0000   0.0000   0.0000   0.0000   0.0000

          k =-0.5737-0.0443-0.4869 (   445 PWs)   bands (ev):

     5.9163   7.0736   8.6565  13.7650  18.2551  24.4743

     occupation numbers 
     1.0000   1.0000   0.0281   0.0000   0.0000   0.0000

          k =-0.6178 0.0000-0.5311 (   447 PWs)   bands (ev):

     6.0355   7.3800   8.8127  13.3093  17.6516  22.2040

     occupation numbers 
     1.0000   1.0000   0.0026   0.0000   0.0000   0.0000

          k =-0.3530-0.1770-0.2656 (   443 PWs)   bands (ev):

     1.0526   7.7314  16.3367  18.3099  20.6462  22.7649

     occupation numbers 
     1.0000   1.0150   0.0000   0.0000   0.0000   0.0000

          k =-0.3972-0.1328-0.3098 (   445 PWs)   bands (ev):

     1.8687   7.4147  14.0698  17.0423  21.6050  22.4250

     occupation numbers 
     1.0000   1.0001   0.0000   0.0000   0.0000   0.0000

          k =-0.4413-0.0885-0.3541 (   445 PWs)   bands (ev):

     2.8875   7.2814  11.9195  15.9419  20.5864  24.2818

     occupation numbers 
     1.0000   1.0000   0.0000   0.0000   0.0000   0.0000

          k =-0.4854-0.0443-0.3983 (   445 PWs)   bands (ev):

     4.1007   7.2835   9.9945  15.0241  19.6496  26.3376

     occupation numbers 
     1.0000   1.0000   0.0000   0.0000   0.0000   0.0000

          k =-0.5295 0.0000-0.4426 (   445 PWs)   bands (ev):

     5.4937   7.0819   8.6572  14.2963  18.8699  26.7207

     occupation numbers 
     1.0000   1.0000   0.0278   0.0000   0.0000   0.0000

          k =-0.3089-0.1328-0.2213 (   445 PWs)   bands (ev):

    -0.1328   9.8328  16.3081  19.2776  20.5769  23.7140

     occupation numbers 
     1.0000   0.0000   0.0000   0.0000   0.0000   0.0000

          k =-0.3530-0.0885-0.2656 (   444 PWs)   bands (ev):

     0.6220   9.4300  14.0077  17.9516  22.0953  22.6936

     occupation numbers 
     1.0000   0.0000   0.0000   0.0000   0.0000   0.0000

          k =-0.3972-0.0443-0.3098 (   441 PWs)   bands (ev):

     1.5843   9.1498  11.8754  16.7924  21.4527  24.0203

     occupation numbers 
     1.0000   0.0000   0.0000   0.0000   0.0000   0.0000

          k =-0.4413 0.0000-0.3541 (   439 PWs)   bands (ev):

     2.7471   8.6592  10.3057  15.8143  20.4745  25.7052

     occupation numbers 
     1.0000   0.0271   0.0000   0.0000   0.0000   0.0000

          k =-0.2648-0.0885-0.1770 (   454 PWs)   bands (ev):

    -1.1133  12.0824  16.4732  20.4240  20.6630  24.5236

     occupation numbers 
     1.0000   0.0000   0.0000   0.0000   0.0000   0.0000

          k =-0.3089-0.0443-0.2213 (   451 PWs)   bands (ev):

    -0.4230  11.5417  14.2026  19.0459  22.1237  23.5767

     occupation numbers 
     1.0000   0.0000   0.0000   0.0000   0.0000   0.0000

          k =-0.3530 0.0000-0.2656 (   446 PWs)   bands (ev):

     0.4781  10.7746  12.4388  17.8296  22.4583  23.5103

     occupation numbers 
     1.0000   0.0000   0.0000   0.0000   0.0000   0.0000

          k =-0.2206-0.0443-0.1328 (   458 PWs)   bands (ev):

    -1.8825  14.4347  16.8548  20.8211  21.7161  23.4345

     occupation numbers 
     1.0000   0.0000   0.0000   0.0000   0.0000   0.0000

          k =-0.2648 0.0000-0.1770 (   453 PWs)   bands (ev):

    -1.2597  13.4307  14.9520  20.3123  21.8469  23.3593

     occupation numbers 
     1.0000   0.0000   0.0000   0.0000   0.0000   0.0000

          k =-0.1765 0.0000-0.0885 (   457 PWs)   bands (ev):

    -2.4355  16.6092  17.6701  20.7293  22.3736  23.4806

     occupation numbers 
     1.0000   0.0000   0.0000   0.0000   0.0000   0.0000

          k =-0.1765 0.0000 0.0000 (   451 PWs)   bands (ev):

    -2.5840  18.4953  18.4953  18.6634  21.6195  23.2726

     occupation numbers 
     1.0000   0.0000   0.0000   0.0000   0.0000   0.0000

          k =-0.2206 0.0443-0.0443 (   456 PWs)   bands (ev):

    -2.1780  16.1904  17.8675  19.0195  21.4954  21.8892

     occupation numbers 
     1.0000   0.0000   0.0000   0.0000   0.0000   0.0000

          k =-0.2648 0.0885-0.0885 (   454 PWs)   bands (ev):

    -1.5534  13.7553  17.4222  18.9523  20.1415  22.8425

     occupation numbers 
     1.0000   0.0000   0.0000   0.0000   0.0000   0.0000

          k =-0.3089 0.1328-0.1328 (   449 PWs)   bands (ev):

    -0.7142  11.4122  17.1591  18.6528  19.0155  24.3125

     occupation numbers 
     1.0000   0.0000   0.0000   0.0000   0.0000   0.0000

          k =-0.3530 0.1770-0.1770 (   450 PWs)   bands (ev):

     0.3339   9.2068  17.0778  17.6883  18.8468  25.0493

     occupation numbers 
     1.0000   0.0000   0.0000   0.0000   0.0000   0.0000

          k =-0.3972 0.2213-0.2213 (   447 PWs)   bands (ev):

     1.5844   7.1599  16.7821  17.1786  18.9740  24.1688

     occupation numbers 
     1.0000   1.0000   0.0000   0.0000   0.0000   0.0000

          k = 0.2648-0.4426 0.4426 (   447 PWs)   bands (ev):

     3.0270   5.2863  16.0569  17.4622  19.2946  23.4576

     occupation numbers 
     1.0000   1.0000   0.0000   0.0000   0.0000   0.0000

          k = 0.2206-0.3983 0.3983 (   447 PWs)   bands (ev):

     3.5609   4.6883  15.5220  17.9296  19.8063  22.9253

     occupation numbers 
     1.0000   1.0000   0.0000   0.0000   0.0000   0.0000

          k = 0.1765-0.3541 0.3541 (   447 PWs)   bands (ev):

     2.0598   6.4914  15.1811  18.5812  20.5057  22.5753

     occupation numbers 
     1.0000   1.0000   0.0000   0.0000   0.0000   0.0000

          k = 0.1324-0.3098 0.3098 (   444 PWs)   bands (ev):

     0.7416   8.4745  15.0384  19.4152  21.3859  22.4078

     occupation numbers 
     1.0000   0.2001   0.0000   0.0000   0.0000   0.0000

          k = 0.0883-0.2656 0.2656 (   453 PWs)   bands (ev):

    -0.3771  10.6095  15.1028  20.4222  22.4195  22.4354

     occupation numbers 
     1.0000   0.0000   0.0000   0.0000   0.0000   0.0000

          k = 0.0441-0.2213 0.2213 (   455 PWs)   bands (ev):

    -1.2888  12.8442  15.4112  21.5638  22.5801  23.6322

     occupation numbers 
     1.0000   0.0000   0.0000   0.0000   0.0000   0.0000

          k = 0.0000-0.1770 0.1770 (   451 PWs)   bands (ev):

    -1.9877  14.8753  16.2365  22.4494  22.6863  24.1201

     occupation numbers 
     1.0000   0.0000   0.0000   0.0000   0.0000   0.0000

          k =-0.1765 0.3541 0.0000 (   450 PWs)   bands (ev):

    -0.2343  12.2231  13.7952  17.3811  20.7153  22.5632

     occupation numbers 
     1.0000   0.0000   0.0000   0.0000   0.0000   0.0000

          k =-0.2206 0.3983-0.0443 (   448 PWs)   bands (ev):

     0.7381  10.4666  13.1441  16.2014  21.1722  23.5745

     occupation numbers 
     1.0000   0.0000   0.0000   0.0000   0.0000   0.0000

          k = 0.4413-0.2656 0.6196 (   442 PWs)   bands (ev):

     1.9132   8.4799  13.0593  15.2145  21.3658  23.4971

     occupation numbers 
     1.0000   0.1911   0.0000   0.0000   0.0000   0.0000

          k = 0.3972-0.2213 0.5754 (   447 PWs)   bands (ev):

     3.2816   6.5925  13.2105  14.4480  21.6198  22.8066

     occupation numbers 
     1.0000   1.0000   0.0000   0.0000   0.0000   0.0000

          k = 0.3530-0.1770 0.5311 (   446 PWs)   bands (ev):

     4.6874   5.0108  13.3868  14.0689  21.8493  22.4153

     occupation numbers 
     1.0000   1.0000   0.0000   0.0000   0.0000   0.0000

          k =-0.0000 0.2656 0.1770 (   455 PWs)   bands (ev):

    -1.2519  13.4104  14.9070  20.4367  21.8351  23.3344

     occupation numbers 
     1.0000   0.0000   0.0000   0.0000   0.0000   0.0000

          k =-0.1765 0.4426 0.0000 (   445 PWs)   bands (ev):

     1.0625  11.2903  12.8239  14.4842  19.8174  21.8765

     occupation numbers 
     1.0000   0.0000   0.0000   0.0000   0.0000   0.0000

          k = 0.4854-0.2213 0.6639 (   446 PWs)   bands (ev):

     2.1623   9.6610  12.2487  13.4634  20.4308  23.1184

     occupation numbers 
     1.0000   0.0000   0.0000   0.0000   0.0000   0.0000

          k = 0.4413-0.1770 0.6196 (   446 PWs)   bands (ev):

     3.4559   7.8022  12.0507  12.8399  20.7805  24.5007

     occupation numbers 
     1.0000   1.0309   0.0000   0.0000   0.0000   0.0000

          k = 0.3972-0.1328 0.5754 (   445 PWs)   bands (ev):

     4.9168   6.0605  11.6139  12.9245  21.1963  24.2078

     occupation numbers 
     1.0000   1.0000   0.0000   0.0000   0.0000   0.0000

          k = 0.3530-0.0885 0.5311 (   444 PWs)   bands (ev):

     4.4175   6.6018  11.2078  13.4151  21.7497  23.7406

     occupation numbers 
     1.0000   1.0000   0.0000   0.0000   0.0000   0.0000

          k = 0.3089-0.0443 0.4869 (   445 PWs)   bands (ev):

     3.0021   8.3399  11.0424  14.1441  22.4306  23.3436

     occupation numbers 
     1.0000   0.5076   0.0000   0.0000   0.0000   0.0000

          k = 0.2648-0.0000 0.4426 (   445 PWs)   bands (ev):

     1.7712   9.8380  11.4829  15.0779  22.6035  23.1741

     occupation numbers 
     1.0000   0.0000   0.0000   0.0000   0.0000   0.0000

          k = 0.0441 0.3098 0.2213 (   450 PWs)   bands (ev):

    -0.4127  11.5171  14.1544  19.1629  22.1101  23.5767

     occupation numbers 
     1.0000   0.0000   0.0000   0.0000   0.0000   0.0000

          k = 0.0000 0.3541 0.1770 (   452 PWs)   bands (ev):

    -0.2308  12.2103  13.7598  17.3856  20.7566  22.5862

     occupation numbers 
     1.0000   0.0000   0.0000   0.0000   0.0000   0.0000

          k = 0.5295-0.1770 0.7082 (   454 PWs)   bands (ev):

     2.6202  10.6242  11.3694  12.5217  19.1644  21.3411

     occupation numbers 
     1.0000   0.0000   0.0000   0.0000   0.0000   0.0000

          k = 0.4854-0.1328 0.6639 (   446 PWs)   bands (ev):

     3.8335   9.1074  10.5364  12.0310  19.9206  22.7211

     occupation numbers 
     1.0000   0.0000   0.0000   0.0000   0.0000   0.0000

          k = 0.4413-0.0885 0.6196 (   446 PWs)   bands (ev):

     5.2150   7.3873   9.8645  12.1579  20.4113  24.6452

     occupation numbers 
     1.0000   1.0001   0.0000   0.0000   0.0000   0.0000

          k = 0.3972-0.0443 0.5754 (   447 PWs)   bands (ev):

     5.7267   6.7544   9.4209  12.5967  20.9622  25.7655

     occupation numbers 
     1.0000   1.0000   0.0000   0.0000   0.0000   0.0000

          k = 0.3530 0.0000 0.5311 (   443 PWs)   bands (ev):

     4.2823   7.9937   9.5913  13.2671  21.6478  25.0199

     occupation numbers 
     1.0000   1.0833   0.0000   0.0000   0.0000   0.0000

          k = 0.0883 0.3541 0.2656 (   444 PWs)   bands (ev):

     0.6349   9.4051  13.9522  18.0600  22.0860  22.6970

     occupation numbers 
     1.0000   0.0000   0.0000   0.0000   0.0000   0.0000

          k = 0.0441 0.3983 0.2213 (   446 PWs)   bands (ev):

     0.7432  10.4492  13.1044  16.2072  21.2222  23.6294

     occupation numbers 
     1.0000   0.0000   0.0000   0.0000   0.0000   0.0000

          k = 0.0000 0.4426 0.1770 (   447 PWs)   bands (ev):

     1.0658  11.2768  12.7912  14.4856  19.8589  21.8974

     occupation numbers 
     1.0000   0.0000   0.0000   0.0000   0.0000   0.0000

          k = 0.5295-0.0885 0.7082 (   448 PWs)   bands (ev):

     4.4034   8.9996  10.2247  11.9876  18.7701  21.0052

     occupation numbers 
     1.0000   0.0001   0.0000   0.0000   0.0000   0.0000

          k = 0.4854-0.0443 0.6639 (   446 PWs)   bands (ev):

     5.6549   8.1859   8.9554  11.6951  19.6624  22.5091

     occupation numbers 
     1.0000   0.9037   0.0002   0.0000   0.0000   0.0000

          k = 0.4413 0.0000 0.6196 (   449 PWs)   bands (ev):

     6.6842   7.1584   8.2689  12.0036  20.2862  24.5884

     occupation numbers 
     1.0000   1.0000   0.7027   0.0000   0.0000   0.0000

          k =-0.5737-0.3098-0.3983 (   445 PWs)   bands (ev):

     1.8838   7.3911  14.0059  17.1414  21.6118  22.4177

     occupation numbers 
     1.0000   1.0001   0.0000   0.0000   0.0000   0.0000

          k =-0.6178-0.2656-0.4426 (   444 PWs)   bands (ev):

     1.9199   8.4619  13.0119  15.2210  21.4276  23.6138

     occupation numbers 
     1.0000   0.2225   0.0000   0.0000   0.0000   0.0000

          k =-0.6619-0.2213-0.4869 (   445 PWs)   bands (ev):

     2.1673   9.6434  12.2143  13.4632  20.4812  23.1509

     occupation numbers 
     1.0000   0.0000   0.0000   0.0000   0.0000   0.0000

          k =-0.7061-0.1770-0.5311 (   454 PWs)   bands (ev):

     2.6235  10.6102  11.3648  12.4951  19.2060  21.3612

     occupation numbers 
     1.0000   0.0000   0.0000   0.0000   0.0000   0.0000

          k =-0.1765-0.7082 0.0000 (   452 PWs)   bands (ev):

     5.9025   7.2753  10.0915  11.8384  18.6384  20.8910

     occupation numbers 
     1.0000   1.0000   0.0000   0.0000   0.0000   0.0000

          k =-0.5295-0.2656-0.3541 (   445 PWs)   bands (ev):

     3.3236   5.5348  14.2683  16.4152  20.9089  22.6912

     occupation numbers 
     1.0000   1.0000   0.0000   0.0000   0.0000   0.0000

          k =-0.5737-0.2213-0.3983 (   446 PWs)   bands (ev):

     3.2898   6.5752  13.1571  14.4524  21.6967  22.9119

     occupation numbers 
     1.0000   1.0000   0.0000   0.0000   0.0000   0.0000

          k =-0.6178-0.1770-0.4426 (   443 PWs)   bands (ev):

     3.4625   7.7840  12.0299  12.8190  20.8422  24.5937

     occupation numbers 
     1.0000   1.0261   0.0000   0.0000   0.0000   0.0000

          k =-0.6619-0.1328-0.4869 (   445 PWs)   bands (ev):

     3.8384   9.0898  10.5367  11.9956  19.9711  22.7495

     occupation numbers 
     1.0000   0.0000   0.0000   0.0000   0.0000   0.0000

          k =-0.7061-0.0885-0.5311 (   448 PWs)   bands (ev):

     4.4066   9.0019  10.2104  11.9544  18.8117  21.0250

     occupation numbers 
     1.0000   0.0001   0.0000   0.0000   0.0000   0.0000

          k =-0.4854-0.2213-0.3098 (   445 PWs)   bands (ev):

     3.8163   4.9857  14.7158  15.8960  20.3522  23.1699

     occupation numbers 
     1.0000   1.0000   0.0000   0.0000   0.0000   0.0000

          k =-0.5295-0.1770-0.3541 (   443 PWs)   bands (ev):

     4.6837   5.0081  13.3545  14.0436  21.9495  22.5005

     occupation numbers 
     1.0000   1.0000   0.0000   0.0000   0.0000   0.0000

          k =-0.5737-0.1328-0.3983 (   446 PWs)   bands (ev):

     4.9243   6.0436  11.6151  12.8735  21.2708  24.3188

     occupation numbers 
     1.0000   1.0000   0.0000   0.0000   0.0000   0.0000

          k =-0.6178-0.0885-0.4426 (   445 PWs)   bands (ev):

     5.2213   7.3693   9.8689  12.1115  20.4731  24.6874

     occupation numbers 
     1.0000   1.0000   0.0000   0.0000   0.0000   0.0000

          k =-0.6619-0.0443-0.4869 (   445 PWs)   bands (ev):

     5.6595   8.1875   8.9401  11.6563  19.7130  22.5365

     occupation numbers 
     1.0000   0.9004   0.0002   0.0000   0.0000   0.0000

          k = 0.0000-0.7082 0.1770 (   452 PWs)   bands (ev):

     5.9055   7.2783  10.0771  11.8048  18.6800  20.9107

     occupation numbers 
     1.0000   1.0000   0.0000   0.0000   0.0000   0.0000

          k =-0.4413-0.1770-0.2656 (   443 PWs)   bands (ev):

     2.3245   6.7838  15.2127  15.7165  19.9698  23.8239

     occupation numbers 
     1.0000   1.0000   0.0000   0.0000   0.0000   0.0000

          k =-0.4854-0.1328-0.3098 (   446 PWs)   bands (ev):

     3.2667   6.6037  13.2138  14.3784  21.7157  22.8996

     occupation numbers 
     1.0000   1.0000   0.0000   0.0000   0.0000   0.0000

          k =-0.5295-0.0885-0.3541 (   443 PWs)   bands (ev):

     4.4014   6.6112  11.2149  13.3497  21.8376  23.8420

     occupation numbers 
     1.0000   1.0000   0.0000   0.0000   0.0000   0.0000

          k =-0.5737-0.0443-0.3983 (   445 PWs)   bands (ev):

     5.7098   6.7617   9.4278  12.5399  21.0366  25.8755

     occupation numbers 
     1.0000   1.0000   0.0000   0.0000   0.0000   0.0000

          k =-0.6178 0.0000-0.4426 (   449 PWs)   bands (ev):

     6.6903   7.1424   8.2726  11.9560  20.3480  24.6245

     occupation numbers 
     1.0000   1.0000   0.6928   0.0000   0.0000   0.0000

          k =-0.3972-0.1328-0.2213 (   446 PWs)   bands (ev):

     1.0130   8.7618  15.2684  16.3661  19.7596  24.5843

     occupation numbers 
     1.0000   0.0061   0.0000   0.0000   0.0000   0.0000

          k =-0.4413-0.0885-0.2656 (   442 PWs)   bands (ev):

     1.8997   8.4924  13.0696  15.1292  21.4507  23.6051

     occupation numbers 
     1.0000   0.1712   0.0000   0.0000   0.0000   0.0000

          k =-0.4854-0.0443-0.3098 (   442 PWs)   bands (ev):

     2.9872   8.3507  11.0523  14.0675  22.5321  23.4369

     occupation numbers 
     1.0000   0.4783   0.0000   0.0000   0.0000   0.0000

          k =-0.5295 0.0000-0.3541 (   442 PWs)   bands (ev):

     4.2660   8.0029   9.6001  13.2001  21.7352  25.1287

     occupation numbers 
     1.0000   1.0831   0.0000   0.0000   0.0000   0.0000

          k =-0.3530-0.0885-0.1770 (   448 PWs)   bands (ev):

    -0.0997  10.8911  15.3413  17.3892  19.6972  23.9353

     occupation numbers 
     1.0000   0.0000   0.0000   0.0000   0.0000   0.0000

          k =-0.3972-0.0443-0.2213 (   446 PWs)   bands (ev):

     0.7262  10.4804  13.1572  16.1047  21.2469  23.6618

     occupation numbers 
     1.0000   0.0000   0.0000   0.0000   0.0000   0.0000

          k =-0.4413-0.0000-0.2656 (   445 PWs)   bands (ev):

     1.7576   9.8503  11.4945  14.9910  22.6904  23.2847

     occupation numbers 
     1.0000   0.0000   0.0000   0.0000   0.0000   0.0000

          k =-0.3089-0.0443-0.1328 (   451 PWs)   bands (ev):

    -1.0062  13.1220  15.6228  18.6168  19.6889  22.4766

     occupation numbers 
     1.0000   0.0000   0.0000   0.0000   0.0000   0.0000

          k =-0.3530 0.0000-0.1770 (   448 PWs)   bands (ev):

    -0.2446  12.2384  13.8101  17.2740  20.7798  22.6263

     occupation numbers 
     1.0000   0.0000   0.0000   0.0000   0.0000   0.0000

          k =-0.2648 0.0000-0.0885 (   460 PWs)   bands (ev):

    -1.7005  15.1640  16.3580  19.4077  20.0276  21.6466

     occupation numbers 
     1.0000   0.0000   0.0000   0.0000   0.0000   0.0000

          k =-0.2648 0.0000 0.0000 (   451 PWs)   bands (ev):

    -1.8478  17.1501  17.1720  17.1720  19.9029  20.6927

     occupation numbers 
     1.0000   0.0000   0.0000   0.0000   0.0000   0.0000

          k =-0.3089 0.0443-0.0443 (   450 PWs)   bands (ev):

    -1.2990  14.8863  16.6617  17.7162  18.3858  20.8055

     occupation numbers 
     1.0000   0.0000   0.0000   0.0000   0.0000   0.0000

          k =-0.3530 0.0885-0.0885 (   447 PWs)   bands (ev):

    -0.5352  12.5702  16.3350  16.9288  17.9102  21.9150

     occupation numbers 
     1.0000   0.0000   0.0000   0.0000   0.0000   0.0000

          k =-0.3972 0.1328-0.1328 (   445 PWs)   bands (ev):

     0.4385  10.3476  15.7657  16.1907  17.8921  23.5268

     occupation numbers 
     1.0000   0.0000   0.0000   0.0000   0.0000   0.0000

          k =-0.4413 0.1770-0.1770 (   444 PWs)   bands (ev):

     1.6155   8.2654  14.7768  16.2285  17.9962  25.3356

     occupation numbers 
     1.0000   0.7122   0.0000   0.0000   0.0000   0.0000

          k = 0.2206-0.4869 0.4869 (   445 PWs)   bands (ev):

     2.9869   6.3457  13.9774  16.4487  18.2732  25.4434

     occupation numbers 
     1.0000   1.0000   0.0000   0.0000   0.0000   0.0000

          k = 0.1765-0.4426 0.4426 (   446 PWs)   bands (ev):

     4.4180   4.7268  13.3739  16.8521  18.7386  24.8550

     occupation numbers 
     1.0000   1.0000   0.0000   0.0000   0.0000   0.0000

          k = 0.1324-0.3983 0.3983 (   448 PWs)   bands (ev):

     3.0118   6.3037  12.9738  17.4397  19.3936  24.4458

     occupation numbers 
     1.0000   1.0000   0.0000   0.0000   0.0000   0.0000

          k = 0.0883-0.3541 0.3541 (   444 PWs)   bands (ev):

     1.6362   8.1961  12.7917  18.2120  20.2326  24.2150

     occupation numbers 
     1.0000   0.8822   0.0000   0.0000   0.0000   0.0000

          k = 0.0441-0.3098 0.3098 (   447 PWs)   bands (ev):

     0.4556  10.1868  12.8799  19.1677  21.2427  24.1402

     occupation numbers 
     1.0000   0.0000   0.0000   0.0000   0.0000   0.0000

          k = 0.0000-0.2656 0.2656 (   449 PWs)   bands (ev):

    -0.5216  11.9437  13.5554  20.3000  22.3993  23.8939

     occupation numbers 
     1.0000   0.0000   0.0000   0.0000   0.0000   0.0000

          k = 0.4413-0.1770 0.7082 (   448 PWs)   bands (ev):

     3.3166   9.1751  10.7184  12.4368  21.9670  23.4739

     occupation numbers 
     1.0000   0.0000   0.0000   0.0000   0.0000   0.0000

          k = 0.3972-0.1328 0.6639 (   448 PWs)   bands (ev):

     4.6553   7.8017  10.3740  11.6741  22.7434  23.8834

     occupation numbers 
     1.0000   1.0308   0.0000   0.0000   0.0000   0.0000

          k = 0.3530-0.0885 0.6196 (   446 PWs)   bands (ev):

     6.0063   6.3433  10.4393  11.3346  23.0402  23.6394

     occupation numbers 
     1.0000   1.0000   0.0000   0.0000   0.0000   0.0000

          k = 0.0000 0.3541 0.2656 (   446 PWs)   bands (ev):

     0.4918  10.7455  12.3885  17.9391  22.4665  23.4911

     occupation numbers 
     1.0000   0.0000   0.0000   0.0000   0.0000   0.0000

          k = 0.4413-0.0885 0.7082 (   445 PWs)   bands (ev):

     5.0821   8.7778   9.4909  10.7697  21.5779  23.3049

     occupation numbers 
     1.0000   0.0047   0.0000   0.0000   0.0000   0.0000

          k = 0.3972-0.0443 0.6639 (   450 PWs)   bands (ev):

     6.4440   7.5164   9.0128  10.5120  22.5223  24.7532

     occupation numbers 
     1.0000   1.0007   0.0001   0.0000   0.0000   0.0000

          k = 0.3530 0.0000 0.6196 (   447 PWs)   bands (ev):

     6.0201   7.5983   9.0819  10.9132  23.1598  24.6439

     occupation numbers 
     1.0000   1.0025   0.0000   0.0000   0.0000   0.0000

          k =-0.6619-0.3098-0.3983 (   442 PWs)   bands (ev):

     1.6012   9.1179  11.8216  16.8940  21.4653  24.0007

     occupation numbers 
     1.0000   0.0000   0.0000   0.0000   0.0000   0.0000

          k =-0.7061-0.2656-0.4426 (   445 PWs)   bands (ev):

     1.7787   9.8152  11.4406  15.0858  22.6614  23.2863

     occupation numbers 
     1.0000   0.0000   0.0000   0.0000   0.0000   0.0000

          k =-0.2648-0.7082 0.0000 (   450 PWs)   bands (ev):

     6.5530   7.9168   8.6455  10.4949  21.4474  23.2236

     occupation numbers 
     1.0000   1.0683   0.0324   0.0000   0.0000   0.0000

          k =-0.6178-0.2656-0.3541 (   446 PWs)   bands (ev):

     2.9075   7.2503  11.8588  16.0352  20.6023  24.2653

     occupation numbers 
     1.0000   1.0000   0.0000   0.0000   0.0000   0.0000

          k =-0.6619-0.2213-0.3983 (   441 PWs)   bands (ev):

     3.0121   8.3139  10.9957  14.1540  22.5458  23.4105

     occupation numbers 
     1.0000   0.5789   0.0000   0.0000   0.0000   0.0000

          k =-0.7061-0.1770-0.4426 (   448 PWs)   bands (ev):

     3.3240   9.1518  10.6802  12.4401  22.0254  23.5314

     occupation numbers 
     1.0000   0.0000   0.0000   0.0000   0.0000   0.0000

          k =-0.5737-0.2213-0.3098 (   445 PWs)   bands (ev):

     4.3888   5.4970  12.1693  15.3682  19.9073  24.6409

     occupation numbers 
     1.0000   1.0000   0.0000   0.0000   0.0000   0.0000

          k =-0.6178-0.1770-0.3541 (   443 PWs)   bands (ev):

     4.4296   6.5763  11.1541  13.4260  21.8587  23.8160

     occupation numbers 
     1.0000   1.0000   0.0000   0.0000   0.0000   0.0000

          k =-0.6619-0.1328-0.3983 (   449 PWs)   bands (ev):

     4.6649   7.7756  10.3349  11.6757  22.8138  23.9941

     occupation numbers 
     1.0000   1.0240   0.0000   0.0000   0.0000   0.0000

          k =-0.7061-0.0885-0.4426 (   445 PWs)   bands (ev):

     5.0893   8.7543   9.4868  10.7390  21.6364  23.3469

     occupation numbers 
     1.0000   0.0069   0.0000   0.0000   0.0000   0.0000

          k =-0.5295-0.1770-0.2656 (   447 PWs)   bands (ev):

     3.8486   6.1073  12.6938  14.8997  19.3888  25.1476

     occupation numbers 
     1.0000   1.0000   0.0000   0.0000   0.0000   0.0000

          k =-0.5737-0.1328-0.3098 (   444 PWs)   bands (ev):

     4.8935   6.0740  11.5562  12.9324  21.2963  24.2971

     occupation numbers 
     1.0000   1.0000   0.0000   0.0000   0.0000   0.0000

          k =-0.6178-0.0885-0.3541 (   446 PWs)   bands (ev):

     5.9983   6.3374  10.4164  11.3142  23.1390  23.7289

     occupation numbers 
     1.0000   1.0000   0.0000   0.0000   0.0000   0.0000

          k =-0.6619-0.0443-0.3983 (   449 PWs)   bands (ev):

     6.4528   7.4912   9.0143  10.4725  22.5906  24.8221

     occupation numbers 
     1.0000   1.0004   0.0000   0.0000   0.0000   0.0000

          k = 0.0000-0.7082 0.2656 (   448 PWs)   bands (ev):

     6.5599   7.9215   8.6218  10.4556  21.5059  23.2632

     occupation numbers 
     1.0000   1.0698   0.0436   0.0000   0.0000   0.0000

          k =-0.4854-0.1328-0.2213 (   445 PWs)   bands (ev):

     2.4247   7.9528  13.4018  14.6482  19.0427  25.0255

     occupation numbers 
     1.0000   1.0782   0.0000   0.0000   0.0000   0.0000

          k =-0.5295-0.0885-0.2656 (   445 PWs)   bands (ev):

     3.4336   7.8185  12.0167  12.8168  20.8711  24.6043

     occupation numbers 
     1.0000   1.0357   0.0000   0.0000   0.0000   0.0000

          k =-0.5737-0.0443-0.3098 (   448 PWs)   bands (ev):

     4.6311   7.8154  10.3763  11.6218  22.8456  23.9789

     occupation numbers 
     1.0000   1.0347   0.0000   0.0000   0.0000   0.0000

          k =-0.6178 0.0000-0.3541 (   447 PWs)   bands (ev):

     5.9945   7.6098   9.0879  10.8638  23.2418  24.7565

     occupation numbers 
     1.0000   1.0030   0.0000   0.0000   0.0000   0.0000

          k =-0.4413-0.0885-0.1770 (   448 PWs)   bands (ev):

     1.1876   9.9559  14.1580  14.7483  18.8425  23.2498

     occupation numbers 
     1.0000   0.0000   0.0000   0.0000   0.0000   0.0000

          k =-0.4854-0.0443-0.2213 (   444 PWs)   bands (ev):

     2.1422   9.6793  12.2536  13.3944  20.5122  23.1997

     occupation numbers 
     1.0000   0.0000   0.0000   0.0000   0.0000   0.0000

          k =-0.5295 0.0000-0.2656 (   446 PWs)   bands (ev):

     3.2943   9.1912  10.7270  12.3710  22.0596  23.5692

     occupation numbers 
     1.0000   0.0000   0.0000   0.0000   0.0000   0.0000

          k =-0.3972-0.0443-0.1328 (   449 PWs)   bands (ev):

     0.1500  12.0618  14.5615  15.6247  18.6863  21.6534

     occupation numbers 
     1.0000   0.0000   0.0000   0.0000   0.0000   0.0000

          k =-0.4413-0.0000-0.1770 (   445 PWs)   bands (ev):

     1.0446  11.3110  12.8374  14.3990  19.8893  21.9455

     occupation numbers 
     1.0000   0.0000   0.0000   0.0000   0.0000   0.0000

          k =-0.3530 0.0000-0.0885 (   451 PWs)   bands (ev):

    -0.6808  13.9723  15.2337  16.8904  18.2554  20.7402

     occupation numbers 
     1.0000   0.0000   0.0000   0.0000   0.0000   0.0000

          k =-0.3530 0.0000 0.0000 (   456 PWs)   bands (ev):

    -0.8266  15.8734  16.0879  16.0879  16.7013  19.7704

     occupation numbers 
     1.0000   0.0000   0.0000   0.0000   0.0000   0.0000

          k =-0.3972 0.0443-0.0443 (   445 PWs)   bands (ev):

    -0.1393  13.8243  15.2450  15.6985  16.7176  19.9444

     occupation numbers 
     1.0000   0.0000   0.0000   0.0000   0.0000   0.0000

          k =-0.4413 0.0885-0.0885 (   449 PWs)   bands (ev):

     0.7579  11.6340  13.9920  15.4919  16.9582  21.1471

     occupation numbers 
     1.0000   0.0000   0.0000   0.0000   0.0000   0.0000

          k =-0.4854 0.1328-0.1328 (   446 PWs)   bands (ev):

     1.8588   9.5394  12.9247  15.4672  17.0960  22.8838

     occupation numbers 
     1.0000   0.0000   0.0000   0.0000   0.0000   0.0000

          k = 0.1765-0.5311 0.5311 (   447 PWs)   bands (ev):

     3.1544   7.5877  12.0506  15.6244  17.3441  24.8689

     occupation numbers 
     1.0000   1.0022   0.0000   0.0000   0.0000   0.0000

          k = 0.1324-0.4869 0.4869 (   448 PWs)   bands (ev):

     4.6200   5.8132  11.3793  15.9641  17.7644  26.9168

     occupation numbers 
     1.0000   1.0000   0.0000   0.0000   0.0000   0.0000

          k = 0.0883-0.4426 0.4426 (   449 PWs)   bands (ev):

     4.1580   6.3059  10.9285  16.4873  18.3716  26.5117

     occupation numbers 
     1.0000   1.0000   0.0000   0.0000   0.0000   0.0000

          k = 0.0441-0.3983 0.3983 (   445 PWs)   bands (ev):

     2.7329   8.0487  10.7560  17.1955  19.1640  26.2237

     occupation numbers 
     1.0000   1.0725   0.0000   0.0000   0.0000   0.0000

          k = 0.0000-0.3541 0.3541 (   443 PWs)   bands (ev):

     1.4946   9.5504  11.2042  18.0892  20.1297  25.9021

     occupation numbers 
     1.0000   0.0000   0.0000   0.0000   0.0000   0.0000

          k =-0.3530-0.7082 0.0000 (   444 PWs)   bands (ev):

     7.4666   7.4666   8.4319   9.7379  24.5165  24.5165

     occupation numbers 
     1.0003   1.0003   0.2816   0.0000   0.0000   0.0000

          k =-0.7061-0.2656-0.3541 (   442 PWs)   bands (ev):

     2.7679   8.6234  10.2507  15.9088  20.4918  25.6793

     occupation numbers 
     1.0000   0.0427   0.0000   0.0000   0.0000   0.0000

          k =-0.6619-0.2213-0.3098 (   446 PWs)   bands (ev):

     4.1251   7.2461   9.9363  15.1112  19.6706  26.3135

     occupation numbers 
     1.0000   1.0000   0.0000   0.0000   0.0000   0.0000

          k =-0.7061-0.1770-0.3541 (   442 PWs)   bands (ev):

     4.2953   7.9628   9.5429  13.2799  21.7581  25.0952

     occupation numbers 
     1.0000   1.0802   0.0000   0.0000   0.0000   0.0000

          k =-0.6178-0.1770-0.2656 (   449 PWs)   bands (ev):

     5.4699   5.8193  10.2473  14.5065  19.0204  26.4860

     occupation numbers 
     1.0000   1.0000   0.0000   0.0000   0.0000   0.0000

          k =-0.6619-0.1328-0.3098 (   445 PWs)   bands (ev):

     5.7414   6.7224   9.3686  12.6122  21.0645  25.8516

     occupation numbers 
     1.0000   1.0000   0.0000   0.0000   0.0000   0.0000

          k =-0.7061-0.0885-0.3541 (   447 PWs)   bands (ev):

     6.0324   7.5671   9.0389  10.9206  23.2713  24.7200

     occupation numbers 
     1.0000   1.0016   0.0000   0.0000   0.0000   0.0000

          k =-0.5737-0.1328-0.2213 (   444 PWs)   bands (ev):

     4.0800   7.4079  10.8331  14.1011  18.5406  24.7331

     occupation numbers 
     1.0000   1.0001   0.0000   0.0000   0.0000   0.0000

          k =-0.6178-0.0885-0.2656 (   446 PWs)   bands (ev):

     5.1835   7.4051   9.8067  12.1749  20.5051  24.7397

     occupation numbers 
     1.0000   1.0001   0.0000   0.0000   0.0000   0.0000

          k =-0.6619-0.0443-0.3098 (   449 PWs)   bands (ev):

     6.4114   7.5301   8.9701  10.5188  22.6263  24.8544

     occupation numbers 
     1.0000   1.0008   0.0001   0.0000   0.0000   0.0000

          k = 0.0000-0.7082 0.3541 (   444 PWs)   bands (ev):

     7.4353   7.4788   8.4137   9.7203  24.5928  24.6303

     occupation numbers 
     1.0001   1.0003   0.3213   0.0000   0.0000   0.0000

          k =-0.5295-0.0885-0.1770 (   446 PWs)   bands (ev):

     2.7341   9.2748  11.6307  13.9083  18.2054  22.7148

     occupation numbers 
     1.0000   0.0000   0.0000   0.0000   0.0000   0.0000

          k =-0.5737-0.0443-0.2213 (   444 PWs)   bands (ev):

     3.8041   9.1271  10.4766  12.0456  20.0061  22.8043

     occupation numbers 
     1.0000   0.0000   0.0000   0.0000   0.0000   0.0000

          k =-0.6178 0.0000-0.2656 (   447 PWs)   bands (ev):

     5.0503   8.7962   9.4472  10.7718  21.6735  23.3973

     occupation numbers 
     1.0000   0.0035   0.0000   0.0000   0.0000   0.0000

          k =-0.4854-0.0443-0.1328 (   450 PWs)   bands (ev):

     1.5746  11.2488  12.6025  13.9763  17.9116  20.9923

     occupation numbers 
     1.0000   0.0000   0.0000   0.0000   0.0000   0.0000

          k =-0.5295 0.0000-0.1770 (   454 PWs)   bands (ev):

     2.5935  10.6487  11.3099  12.5285  19.2412  21.4144

     occupation numbers 
     1.0000   0.0000   0.0000   0.0000   0.0000   0.0000

          k =-0.4413 0.0000-0.0885 (   445 PWs)   bands (ev):

     0.6143  13.0412  13.7267  14.5475  17.3457  19.9714

     occupation numbers 
     1.0000   0.0000   0.0000   0.0000   0.0000   0.0000

          k =-0.4413 0.0000 0.0000 (   444 PWs)   bands (ev):

     0.4705  13.7044  14.8674  15.2471  15.2471  18.9725

     occupation numbers 
     1.0000   0.0000   0.0000   0.0000   0.0000   0.0000

          k =-0.4854 0.0443-0.0443 (   444 PWs)   bands (ev):

     1.2897  12.3272  13.0729  14.9786  15.9089  19.2492

     occupation numbers 
     1.0000   0.0000   0.0000   0.0000   0.0000   0.0000

          k =-0.5295 0.0885-0.0885 (   446 PWs)   bands (ev):

     2.3118  10.8385  11.3690  14.8920  16.2747  20.5725

     occupation numbers 
     1.0000   0.0000   0.0000   0.0000   0.0000   0.0000

          k = 0.1324-0.5754 0.5754 (   449 PWs)   bands (ev):

     3.5264   8.9668  10.3348  14.9867  16.5501  22.4368

     occupation numbers 
     1.0000   0.0001   0.0000   0.0000   0.0000   0.0000

          k = 0.0883-0.5311 0.5311 (   447 PWs)   bands (ev):

     4.9108   7.1706   9.5864  15.2632  16.9398  24.5637

     occupation numbers 
     1.0000   1.0000   0.0000   0.0000   0.0000   0.0000

          k = 0.0441-0.4869 0.4869 (   448 PWs)   bands (ev):

     5.4806   6.4561   9.1233  15.7224  17.5013  26.8122

     occupation numbers 
     1.0000   1.0000   0.0000   0.0000   0.0000   0.0000

          k = 0.0000-0.4426 0.4426 (   443 PWs)   bands (ev):

     4.0229   7.6994   9.2929  16.3660  18.2454  28.3946

     occupation numbers 
     1.0000   1.0103   0.0000   0.0000   0.0000   0.0000

          k =-0.7061-0.1770-0.2656 (   449 PWs)   bands (ev):

     5.5219   7.0412   8.5993  14.3769  18.8953  26.7833

     occupation numbers 
     1.0000   1.0000   0.0570   0.0000   0.0000   0.0000

          k =-0.6619-0.1328-0.2213 (   447 PWs)   bands (ev):

     5.8760   7.1019   8.5989  13.8389  18.2846  24.5412

     occupation numbers 
     1.0000   1.0000   0.0573   0.0000   0.0000   0.0000

          k =-0.7061-0.0885-0.2656 (   445 PWs)   bands (ev):

     6.6471   7.1707   8.2228  12.0230  20.3811  24.6821

     occupation numbers 
     1.0000   1.0000   0.8211   0.0000   0.0000   0.0000

          k =-0.6178-0.0885-0.1770 (   444 PWs)   bands (ev):

     4.5039   8.7135   9.3152  13.5090  17.8163  22.3808

     occupation numbers 
     1.0000   0.0128   0.0000   0.0000   0.0000   0.0000

          k =-0.6619-0.0443-0.2213 (   446 PWs)   bands (ev):

     5.6166   8.1369   8.9707  11.7180  19.7499  22.5938

     occupation numbers 
     1.0000   0.9901   0.0001   0.0000   0.0000   0.0000

          k = 0.0000-0.7082 0.4426 (   450 PWs)   bands (ev):

     6.5158   7.8667   8.6646  10.5109  21.5440  23.3161

     occupation numbers 
     1.0000   1.0514   0.0252   0.0000   0.0000   0.0000

          k =-0.5737-0.0443-0.1328 (   449 PWs)   bands (ev):

     3.2480   9.9246  10.7998  13.4263  17.3890  20.5325

     occupation numbers 
     1.0000   0.0000   0.0000   0.0000   0.0000   0.0000

          k =-0.6178 0.0000-0.1770 (   448 PWs)   bands (ev):

     4.3671   8.9365  10.2514  12.0137  18.8498  21.0812

     occupation numbers 
     1.0000   0.0003   0.0000   0.0000   0.0000   0.0000

          k =-0.5295 0.0000-0.0885 (   449 PWs)   bands (ev):

     2.1706  11.0505  12.3741  13.8372  16.6935  19.3881

     occupation numbers 
     1.0000   0.0000   0.0000   0.0000   0.0000   0.0000

          k =-0.5295 0.0000 0.0000 (   448 PWs)   bands (ev):

     2.0292  10.9341  14.1441  14.6486  14.6486  18.3624

     occupation numbers 
     1.0000   0.0000   0.0000   0.0000   0.0000   0.0000

          k =-0.5737 0.0443-0.0443 (   451 PWs)   bands (ev):

     2.9687   9.7042  12.5187  14.5003  15.3709  18.7633

     occupation numbers 
     1.0000   0.0000   0.0000   0.0000   0.0000   0.0000

          k = 0.0883-0.6196 0.6196 (   452 PWs)   bands (ev):

     4.0923   8.6755  10.6304  14.5331  15.8597  20.2177

     occupation numbers 
     1.0000   0.0218   0.0000   0.0000   0.0000   0.0000

          k = 0.0441-0.5754 0.5754 (   445 PWs)   bands (ev):

     5.3479   7.8609   8.8704  14.7470  16.2731  22.2083

     occupation numbers 
     1.0000   1.0494   0.0009   0.0000   0.0000   0.0000

          k = 0.0000-0.5311 0.5311 (   440 PWs)   bands (ev):

     6.3849   6.9219   7.9854  15.1430  16.8032  24.4588

     occupation numbers 
     1.0000   1.0000   1.0830   0.0000   0.0000   0.0000

          k =-0.7061-0.0885-0.1770 (   447 PWs)   bands (ev):

     5.9919   7.3243   8.8448  13.3778  17.6856  22.2676

     occupation numbers 
     1.0000   1.0000   0.0015   0.0000   0.0000   0.0000

          k =-0.6619-0.0443-0.1328 (   452 PWs)   bands (ev):

     5.0798   7.6521  10.5003  13.1633  17.1265  20.2971

     occupation numbers 
     1.0000   1.0056   0.0000   0.0000   0.0000   0.0000

          k = 0.0000-0.7082 0.5311 (   452 PWs)   bands (ev):

     5.8610   7.2175  10.1190  11.8666  18.7190  20.9679

     occupation numbers 
     1.0000   1.0000   0.0000   0.0000   0.0000   0.0000

          k =-0.6178 0.0000-0.0885 (   452 PWs)   bands (ev):

     3.9546   8.5536  11.9732  13.4515  16.3021  19.0253

     occupation numbers 
     1.0000   0.0945   0.0000   0.0000   0.0000   0.0000

          k =-0.6178 0.0000 0.0000 (   452 PWs)   bands (ev):

     3.8167   8.4217  13.7087  14.2906  14.2906  17.9811

     occupation numbers 
     1.0000   0.3034   0.0000   0.0000   0.0000   0.0000

          k = 0.0441-0.6639 0.6639 (   452 PWs)   bands (ev):

     4.8104   7.3830  12.2491  14.2617  15.1016  18.5140

     occupation numbers 
     1.0000   1.0000   0.0000   0.0000   0.0000   0.0000

          k = 0.0000-0.6196 0.6196 (   450 PWs)   bands (ev):

     5.5996   6.9385  10.4863  14.4137  15.7206  20.0978

     occupation numbers 
     1.0000   1.0000   0.0000   0.0000   0.0000   0.0000

          k = 0.0000-0.7082 0.6196 (   454 PWs)   bands (ev):

     5.4690   6.8004  11.8395  13.3241  16.1716  18.9023

     occupation numbers 
     1.0000   1.0000   0.0000   0.0000   0.0000   0.0000

          k = 0.7061 0.0000 0.0000 (   444 PWs)   bands (ev):

     5.3385   6.6588  13.5634  14.1714  14.1714  17.8518

     occupation numbers 
     1.0000   1.0000   0.0000   0.0000   0.0000   0.0000

     the Fermi energy is     8.3806 ev

!    total energy              =      -4.19088572 Ry
     estimated scf accuracy    <          1.3E-15 Ry
     smearing contrib. (-TS)   =      -0.00000167 Ry
     internal energy E=F+TS    =      -4.19088405 Ry

     The total energy is F=E-TS. E is the sum of the following terms:
     one-electron contribution =       2.95145023 Ry
     hartree contribution      =       0.00989227 Ry
     xc contribution           =      -1.63815380 Ry
     ewald contribution        =      -5.51407274 Ry

     convergence has been achieved in   7 iterations

     Forces acting on atoms (cartesian axes, Ry/au):

     atom    1 type  1   force =     0.00000000    0.00000000    0.00000000
     The non-local contrib.  to forces
     atom    1 type  1   force =    -0.00000000   -0.00000000    0.00000000
     The ionic contribution  to forces
     atom    1 type  1   force =     0.00000000    0.00000000    0.00000000
     The local contribution  to forces
     atom    1 type  1   force =    -0.00000000    0.00000000   -0.00000000
     The core correction contribution to forces
     atom    1 type  1   force =     0.00000000    0.00000000    0.00000000
     The Hubbard contrib.    to forces
     atom    1 type  1   force =     0.00000000    0.00000000    0.00000000
     The SCF correction term to forces
     atom    1 type  1   force =    -0.00000000    0.00000000   -0.00000000

     Total force =     0.000000     Total SCF correction =     0.000000


     Computing stress (Cartesian axis) and pressure

          total   stress  (Ry/bohr**3)                   (kbar)     P=       -2.46
  -0.00003371   0.00000000   0.00000000           -4.96        0.00        0.00
  -0.00000000  -0.00000825   0.00000000           -0.00       -1.21        0.00
   0.00000000   0.00000000  -0.00000825            0.00        0.00       -1.21

     kinetic stress (kbar)   1695.60      0.00      0.00
                               -0.00   1698.59      0.00
                                0.00      0.00   1698.59

     local   stress (kbar)   -102.39      0.00      0.00
                                0.00   -103.82      0.00
                                0.00      0.00   -103.82

     nonloc. stress (kbar)   1675.59     -0.00      0.00
                                0.00   1676.81      0.00
                                0.00      0.00   1676.81

     hartree stress (kbar)      4.71      0.00     -0.00
                                0.00      4.59      0.00
                               -0.00      0.00      4.59

     exc-cor stress (kbar)   -696.97      0.00      0.00
                                0.00   -696.97      0.00
                                0.00      0.00   -696.97

     corecor stress (kbar)      0.00      0.00      0.00
                                0.00      0.00      0.00
                                0.00      0.00      0.00

     ewald   stress (kbar)  -2581.51     -0.00      0.00
                               -0.00  -2580.41     -0.00
                                0.00     -0.00  -2580.41

     hubbard stress (kbar)      0.00      0.00      0.00
                                0.00      0.00      0.00
                                0.00      0.00      0.00

     DFT-D   stress (kbar)      0.00      0.00      0.00
                                0.00      0.00      0.00
                                0.00      0.00      0.00

     XDM     stress (kbar)      0.00      0.00      0.00
                                0.00      0.00      0.00
                                0.00      0.00      0.00

     dft-nl  stress (kbar)      0.00      0.00      0.00
                                0.00      0.00      0.00
                                0.00      0.00      0.00

     TS-vdW  stress (kbar)      0.00      0.00      0.00
                                0.00      0.00      0.00
                                0.00      0.00      0.00

     MDB     stress (kbar)      0.00      0.00      0.00
                                0.00      0.00      0.00
                                0.00      0.00      0.00

     3D-RISM stress (kbar)      0.00      0.00      0.00
                                0.00      0.00      0.00
                                0.00      0.00      0.00


     Writing all to output data dir ./tmp/al.save/ :
     XML data file, charge density, pseudopotentials, collected wavefunctions
 
     init_run     :      0.13s CPU      0.15s WALL (       1 calls)
     electrons    :      2.99s CPU      3.44s WALL (       1 calls)
     forces       :      0.01s CPU      0.01s WALL (       1 calls)
     stress       :      0.05s CPU      0.06s WALL (       1 calls)

     Called by init_run:
     wfcinit      :      0.13s CPU      0.14s WALL (       1 calls)
     wfcinit:atom :      0.00s CPU      0.00s WALL (     349 calls)
     wfcinit:wfcr :      0.12s CPU      0.13s WALL (     349 calls)
     potinit      :      0.00s CPU      0.00s WALL (       1 calls)
     hinit0       :      0.00s CPU      0.00s WALL (       1 calls)

     Called by electrons:
     c_bands      :      2.56s CPU      2.94s WALL (       8 calls)
     sum_band     :      0.42s CPU      0.49s WALL (       8 calls)
     v_of_rho     :      0.00s CPU      0.00s WALL (       8 calls)
     v_h          :      0.00s CPU      0.00s WALL (       8 calls)
     v_xc         :      0.00s CPU      0.00s WALL (       8 calls)
     mix_rho      :      0.00s CPU      0.00s WALL (       8 calls)

     Called by c_bands:
     init_us_2    :      0.04s CPU      0.04s WALL (    6631 calls)
     cegterg      :      2.49s CPU      2.86s WALL (    2792 calls)

     Called by sum_band:
     sum_band:wei :      0.03s CPU      0.03s WALL (       8 calls)
     sum_band:loo :      0.39s CPU      0.46s WALL (       8 calls)
     sum_band:buf :      0.01s CPU      0.01s WALL (    2792 calls)
     sum_band:ini :      0.02s CPU      0.02s WALL (    2792 calls)

     Called by *egterg:
     cdiaghg      :      0.25s CPU      0.29s WALL (    8562 calls)
     cegterg:over :      0.10s CPU      0.12s WALL (    6119 calls)
     cegterg:upda :      0.02s CPU      0.03s WALL (    6119 calls)
     cegterg:last :      0.03s CPU      0.03s WALL (    4969 calls)
     h_psi        :      2.03s CPU      2.32s WALL (    9260 calls)
     g_psi        :      0.01s CPU      0.01s WALL (    6119 calls)

     Called by h_psi:
     h_psi:calbec :      0.08s CPU      0.09s WALL (    9260 calls)
     vloc_psi     :      1.86s CPU      2.13s WALL (    9260 calls)
                                        0.00s GPU  (    9260 calls)
     add_vuspsi   :      0.03s CPU      0.03s WALL (    9260 calls)

     General routines
     calbec       :      0.08s CPU      0.09s WALL (   15193 calls)
     fft          :      0.00s CPU      0.00s WALL (      29 calls)
     ffts         :      0.00s CPU      0.00s WALL (       8 calls)
     fftw         :      1.94s CPU      2.23s WALL (  103148 calls)
 
     Parallel routines
 
     PWSCF        :      3.24s CPU      3.81s WALL

 
   This run was terminated on:  21:35:18  22Sep2026            

=------------------------------------------------------------------------------=
   JOB DONE.
=------------------------------------------------------------------------------=
