
     Program PWSCF v.7.5 starts on 22Sep2026 at 23:10:11 

     This program is part of the open-source Quantum ESPRESSO suite
     for quantum simulation of materials; please cite
         "P. Giannozzi et al., J. Phys.:Condens. Matter 21 395502 (2009);
         "P. Giannozzi et al., J. Phys.:Condens. Matter 29 465901 (2017);
         "P. Giannozzi et al., J. Chem. Phys. 152 154105 (2020);
          URL http://www.quantum-espresso.org", 
     in publications or presentations arising from this work. More details at
     http://www.quantum-espresso.org/quote

     Parallel version (MPI), running on     4 processors

     MPI processes distributed on     1 nodes
     2275 MiB available memory on the printing compute node when the environment starts

     Reading input from scf.in

     Current dimensions of program PWSCF are:
     Max number of different atomic species (ntypx) = 10
     Max number of k-points (npk) =  40000
     Max angular momentum in pseudopotentials (lmaxx) =  4
     Message from routine setup:
     using ibrav=0 with symmetry is DISCOURAGED, use correct ibrav instead

     R & G space division:  proc/nbgrp/npool/nimage =       4
     Subspace diagonalization in iterative solution of the eigenvalue problem:
     a serial algorithm will be used


     Parallelization info
     --------------------
     sticks:   dense  smooth     PW     G-vecs:    dense   smooth      PW
     Min         722     363    105                29343    10438    1653
     Max         724     365    106                29346    10439    1658
     Sum        2893    1457    421               117377    41755    6619

     Using Slab Decomposition



     bravais-lattice index     =            0
     lattice parameter (alat)  =       7.5420  a.u.
     unit-cell volume          =     429.0071 (a.u.)^3
     number of atoms/cell      =            4
     number of atomic types    =            2
     number of electrons       =        13.00
     number of Kohn-Sham states=           14
     kinetic-energy cutoff     =      80.0000  Ry
     charge density cutoff     =     640.0000  Ry
     scf convergence threshold =      1.0E-10
     mixing beta               =       0.7000
     number of iterations used =            8  plain     mixing
     Exchange-correlation= PBE
                           (   1   4   3   4   0   0   0)

     celldm(1)=   7.542028  celldm(2)=   0.000000  celldm(3)=   0.000000
     celldm(4)=   0.000000  celldm(5)=   0.000000  celldm(6)=   0.000000

     crystal axes: (cart. coord. in units of alat)
               a(1) = (   1.000000   0.000000   0.000000 )  
               a(2) = (   0.000000   1.000000   0.000000 )  
               a(3) = (   0.000000   0.000000   1.000000 )  

     reciprocal axes: (cart. coord. in units 2 pi/alat)
               b(1) = (  1.000000  0.000000  0.000000 )  
               b(2) = (  0.000000  1.000000  0.000000 )  
               b(3) = (  0.000000  0.000000  1.000000 )  


     PseudoPot. # 1 for Si read from file:
     ../../pseudo/Si.pbe-n-rrkjus_psl.1.0.0.UPF
     MD5 check sum: fa25574f73a70a4139f2adfbefec430c
     Pseudo is Ultrasoft + core correction, Zval =  4.0
     Generated using &quot;atomic&quot; code by A. Dal Corso  v.6.3
     Using radial grid of 1141 points,  6 beta functions with: 
                l(1) =   0
                l(2) =   0
                l(3) =   1
                l(4) =   1
                l(5) =   2
                l(6) =   2
     Q(r) pseudized with 0 coefficients 


     PseudoPot. # 2 for Al read from file:
     ../../pseudo/Al.pbe-n-rrkjus_psl.1.0.0.UPF
     MD5 check sum: bbe9f3f15d9b3b5ab9a58e4859ebdbfe
     Pseudo is Ultrasoft + core correction, Zval =  3.0
     Generated using &quot;atomic&quot; code by A. Dal Corso  v.6.3
     Using radial grid of 1135 points,  6 beta functions with: 
                l(1) =   0
                l(2) =   0
                l(3) =   1
                l(4) =   1
                l(5) =   2
                l(6) =   2
     Q(r) pseudized with 0 coefficients 


     atomic species   valence    mass     pseudopotential
     Si                4.00    28.08500     Si( 1.00)
     Al                3.00    26.98154     Al( 1.00)

     48 Sym. Ops., with inversion, found



   Cartesian axes

     site n.     atom                  positions (alat units)
         1        Si     tau(   1) = (   0.0000000   0.0000000   0.0000000  )
         2        Al     tau(   2) = (   0.0000000   0.5000000   0.5000000  )
         3        Al     tau(   3) = (   0.5000000   0.0000000   0.5000000  )
         4        Al     tau(   4) = (   0.5000000   0.5000000   0.0000000  )

     number of k points=   286  Marzari-Vanderbilt smearing, width (Ry)=  0.0050

     Number of k-points >= 100: set verbosity='high' to print them.

     Dense  grid:   117377 G-vectors     FFT dimensions: (  64,  64,  64)

     Smooth grid:    41755 G-vectors     FFT dimensions: (  45,  45,  45)

     Estimated max dynamical RAM per process >     192.40 MB

     Estimated total dynamical RAM >     769.59 MB

     The initial density is read from file :
     ./tmp/al3si-l12.save/charge-density

     Starting wfcs from file

     total cpu time spent up to now is        2.1 secs

     per-process dynamical memory:   115.0 Mb

     Self-consistent Calculation

     iteration #  1     ecut=    80.00 Ry     beta= 0.70
     CG style diagonalization
     ethr =  1.00E-10,  avg # of iterations =  7.6

     Threshold (ethr) on eigenvalues was too large:
     Diagonalizing with lowered threshold

     CG style diagonalization
     ethr =  1.55E-13,  avg # of iterations =  4.5

     total cpu time spent up to now is      190.6 secs

     total energy              =     -26.50722040 Ry
     estimated scf accuracy    <          1.6E-10 Ry

     iteration #  2     ecut=    80.00 Ry     beta= 0.70
     CG style diagonalization
     ethr =  1.20E-12,  avg # of iterations =  3.3

     total cpu time spent up to now is      236.6 secs

     End of self-consistent calculation

     Number of k-points >= 100: set verbosity='high' to print the bands.

     the Fermi energy is     8.6536 ev

!    total energy              =     -26.50722040 Ry
     estimated scf accuracy    <          9.5E-11 Ry
     smearing contrib. (-TS)   =      -0.00006942 Ry
     internal energy E=F+TS    =     -26.50715097 Ry

     The total energy is F=E-TS. E is the sum of the following terms:
     one-electron contribution =      13.11727527 Ry
     hartree contribution      =       0.24063321 Ry
     xc contribution           =     -13.95671070 Ry
     ewald contribution        =     -25.90834875 Ry

     convergence has been achieved in   2 iterations

     Forces acting on atoms (cartesian axes, Ry/au):

     atom    1 type  1   force =     0.00000000    0.00000000    0.00000000
     atom    2 type  2   force =     0.00000000    0.00000000    0.00000000
     atom    3 type  2   force =     0.00000000    0.00000000    0.00000000
     atom    4 type  2   force =     0.00000000    0.00000000    0.00000000

     Total force =     0.000000     Total SCF correction =     0.000000


     Computing stress (Cartesian axis) and pressure

          total   stress  (Ry/bohr**3)                   (kbar)     P=        1.11
   0.00000752   0.00000000   0.00000000            1.11        0.00        0.00
   0.00000000   0.00000752   0.00000000            0.00        1.11        0.00
   0.00000000   0.00000000   0.00000752            0.00        0.00        1.11


     Writing all to output data dir ./tmp/al3si-l12.save/ :
     XML data file, charge density, pseudopotentials, collected wavefunctions

     init_run     :      1.42s CPU      1.67s WALL (       1 calls)
     electrons    :    228.43s CPU    234.56s WALL (       1 calls)
     forces       :      6.58s CPU      6.72s WALL (       1 calls)
     stress       :     24.61s CPU     25.00s WALL (       1 calls)

     Called by init_run:
     wfcinit      :      0.39s CPU      0.52s WALL (       1 calls)
     potinit      :      0.13s CPU      0.14s WALL (       1 calls)
     hinit0       :      0.49s CPU      0.50s WALL (       1 calls)

     Called by electrons:
     c_bands      :    215.84s CPU    221.20s WALL (       3 calls)
     sum_band     :     11.89s CPU     12.47s WALL (       3 calls)
     v_of_rho     :      0.16s CPU      0.18s WALL (       3 calls)
     newd         :      0.88s CPU      1.14s WALL (       3 calls)
     mix_rho      :      0.01s CPU      0.01s WALL (       3 calls)

     Called by c_bands:
     init_us_2    :      2.66s CPU      2.68s WALL (    2288 calls)
     ccgdiagg     :    206.21s CPU    211.36s WALL (     858 calls)
     wfcrot       :      8.32s CPU      8.51s WALL (     286 calls)

     Called by *cgdiagg:
     h_psi        :    123.76s CPU    128.03s WALL (   58316 calls)
     s_psi        :     44.49s CPU     45.06s WALL (  116346 calls)

     Called by h_psi:
     h_psi:calbec :     31.44s CPU     32.46s WALL (   58316 calls)
     vloc_psi     :     65.45s CPU     68.03s WALL (   58316 calls)
                                        0.00s GPU  (   58316 calls)
     add_vuspsi   :     25.91s CPU     26.61s WALL (   58316 calls)
     hs_1psi      :    139.69s CPU    143.98s WALL (   58030 calls)
     s_1psi       :     50.96s CPU     51.57s WALL (   58030 calls)

     General routines
     calbec       :     85.33s CPU     86.97s WALL (  122066 calls)
     fft          :      0.29s CPU      0.31s WALL (      63 calls)
     ffts         :      0.07s CPU      0.07s WALL (       6 calls)
     fftw         :     60.15s CPU     62.69s WALL (  136080 calls)
     interpolate  :      0.07s CPU      0.07s WALL (       3 calls)

     Parallel routines

     PWSCF        :   4m21.70s CPU   4m28.91s WALL


   This run was terminated on:  23:14:40  22Sep2026            

=------------------------------------------------------------------------------=
   JOB DONE.
=------------------------------------------------------------------------------=
