64
Lattice="10.928961396379115 0.0002980815354075122 -0.00035645289611243284 0.0002982840981878396 10.929437781966067 0.0005226584863396209 -0.0003568867642005803 0.0005228376982594227 10.929586768934772" Properties=species:S:1:pos:R:3:momenta:R:3:forces:R:3:energies:R:1 energy=-341.19731701698424 stress="-0.001024781365274498 0.000697216707012461 -0.00030876315326327234 0.000697216707012461 -0.0011136625965732934 0.0008129141399689067 -0.00030876315326327234 0.0008129141399689067 -0.0005858608662869292" free_energy=-341.19731701698424 pbc="T T T"
Si      -0.06683931       0.11230576      -0.01905539      -0.81102907      -0.00195236      -1.61900288       0.51059479      -0.71612763      -0.44503800      -5.29032867
Si       1.32560246       1.42968915       1.29431801      -0.88060105      -0.23977940       0.28501955       0.34286465       0.06295946      -0.22447557      -5.43541400
Si       0.07517161       2.77318117       2.69289187       0.26565403      -1.54627026       0.78353440      -0.23077813       0.39230855       0.33833058      -5.32558686
Si       1.52925471       4.02697302       4.15793150      -0.17569667       1.41515224       0.15260137      -0.69210646       0.26343413      -0.28801968      -5.34604080
Si       2.71906984       0.06342939       2.57102458      -1.16125888      -0.24631597      -0.71653998      -0.00497645      -0.28517842       0.53081403      -5.33816984
Si       3.94635082       1.46937485       4.03270022       0.99479121       1.34086735      -0.03045570       0.93275685      -0.85832953      -0.21247545      -5.30239904
Si       2.76633045       2.74730292      -0.05509560       1.32152570      -1.55381716       0.21899734       0.36782497       0.20784487      -0.04525435      -5.24838504
Si       4.33421254       4.15821771       1.29925969      -0.24989314       0.19656106       1.09913016      -0.90247834      -0.09682522      -0.36487538      -5.25401378
Si      -0.06674035       0.10019524       5.38993708      -0.10642519      -0.10058153      -0.27088524       0.17930640      -0.52264540       0.76254822      -5.26868874
Si       1.32198817       1.33987847       6.93806248       1.12480861      -1.44204839       0.37191727       0.30748551      -0.81934097      -0.61034549      -5.34004032
Si      -0.13765271       2.55333874       8.13419685       0.33836463      -0.91367892      -0.15245948       0.10614042       0.49735241       1.04922887      -5.38029989
Si       1.24630426       4.00245334       9.46057659       0.68042765       0.55803495      -1.54237315       0.15498756       0.27440176       0.47898146      -5.25475781
Si       2.84022143       0.04404067       8.24966377       0.74163897      -0.43404059       0.07316842       0.07347216      -0.62158116      -0.60634002      -5.28699489
Si       4.27349118       1.30943685       9.59278195      -1.95592086       0.04879771       1.87019680      -0.42550210      -0.10752360       0.75543922      -5.35694747
Si       2.70423390       2.58021323       5.54697593      -1.98129003       0.07754192      -0.09231963       0.20393063       1.11805374       0.69450187      -5.30617049
Si       4.07559460       4.10338581       7.00903309      -1.43245286      -0.06537158       0.88250912       0.29442200      -0.90936855      -0.56615326      -5.23690773
Si      -0.15549103       5.33250653       0.06985404      -0.69512601       0.28576262       0.75868984       0.86321304       0.19879779      -0.34221333      -5.30922700
Si       1.39811228       6.64105967       1.42535611       1.24581953       0.91055543       0.75499066      -0.21735880       0.51325940      -0.34516759      -5.27972095
Si       0.05564133       8.21563738       2.68992091       0.82902907      -0.46258229       0.25831502       0.45882317       0.10445136       0.16255252      -5.34411702
Si       1.41670764       9.68840075       4.10608695       0.40840832      -2.04224019       0.63448134      -0.07364196      -0.58966380      -0.04472839      -5.26690654
Si       2.86747519       5.39730905       2.77502051      -1.60029910      -0.49855264      -1.19272465       0.16833380       0.05318804       0.05183143      -5.37447644
Si       4.04974492       6.86918929       4.28409047       0.89311845       0.18409060      -1.15762178       0.40214603      -0.26388128      -0.87928635      -5.28726651
Si       2.73792508       8.15663194       0.04622654       1.44758582      -0.38737195       0.64789129      -0.35186075      -0.53777615      -0.43368557      -5.33207383
Si       4.08234480       9.45157041       1.36834474       0.10382651       1.07778207       1.65318321       0.05543299       0.36562362       0.35551969      -5.38240706
Si      -0.00384497       5.46327603       5.36709293      -0.40817639       0.61091157      -0.02816640       0.02961655      -0.42830595       0.19655662      -5.28276605
Si       1.34550954       6.79005403       6.78207838       0.86025200      -0.15059291       0.36609690      -0.47816028       0.13562944       0.42265876      -5.36577026
Si       0.05395333       8.20978932       8.26890890       0.07457104      -0.15258166      -0.89353795      -0.00856280      -0.37254993      -0.50216187      -5.38844231
Si       1.44067778       9.54007550       9.51420135      -0.42294508      -1.08108015      -1.40710441      -0.16070088       0.66242380       0.85933525      -5.28993666
Si       2.68479497       5.50610603       8.19041887      -0.28310324       0.46172200       0.54841089      -0.34063952      -0.35127529       0.31559398      -5.38823039
Si       4.10257500       6.89117869       9.44004014       0.67156174      -0.77010461      -0.56553139      -0.26456781       0.23392877       0.27244475      -5.36998637
Si       2.73690857       8.20584755       5.63175621      -0.07342249      -1.41354427      -0.49673226      -0.76437296       0.23580831      -1.19344132      -5.32219379
Si       4.19569228       9.50351449       6.70698858      -0.69973676       0.06764503      -0.35213596      -0.25605382       1.18267738       1.04751000      -5.29387013
Si       5.55594791      -0.16234342       0.14437251      -1.30291084       1.59985901      -1.16009829      -0.64265148       0.45025758      -0.63485165      -5.32838990
Si       6.83902643       1.29645006       1.35177347       1.11080650       1.23749527      -0.93375941      -0.08299787      -0.19161794       0.75275381      -5.36250913
Si       5.48282977       2.66676504       2.68202669       0.29473788      -0.28285033       1.09417319      -0.09262361       0.32223321       0.19011081      -5.38954827
Si       6.73994009       4.13169287       4.05877451      -0.55814842       1.32750677       0.35687701       0.27463987      -0.04312605       0.23369643      -5.30502850
Si       8.26345449       0.02228652       2.76768498      -0.19289909       0.67585068      -0.42028918      -0.10932840      -0.18530037      -0.84334966      -5.36691476
Si       9.56283737       1.43853889       3.97276742       0.75208500      -0.50253404       1.28898517       0.07455086       0.23693785       0.65818044      -5.39046458
Si       8.03292657       2.75327049       0.10523602      -0.54555597      -0.00898070       0.68297766       0.93565336       0.32575649       0.14765810      -5.33955851
Si       9.41867584       4.13788639       1.52873570      -0.22646961      -1.06541790       0.92678949       0.22470876      -0.48843375      -0.46878207      -5.33982523
Si       5.41335028       0.04291179       5.39531206       1.24985579       1.43862747      -0.58759017       0.21942523      -0.06020121      -0.58939247      -5.30363298
Si       6.82899012       1.24810619       6.86227902      -1.19457743       1.14650931       0.06436241      -0.80193693       0.89087816      -0.84904927      -5.36898145
Si       5.61137854       2.66595054       8.32159737       1.71121858      -0.94433849      -1.00063106      -0.25014738       0.60682882      -0.58348223      -5.31232789
Si       6.98023866       4.14420888       9.58213426       0.33320796      -0.02390808      -0.13234478      -0.50836675       0.21673541      -0.45518019      -5.38238072
Si       8.11580695       0.05290629       8.18420229      -0.29649560       0.53946585       0.58026925       0.74638308      -0.92558952       1.10546121      -5.34586870
Si       9.38272927       1.42280525       9.67323049      -0.23490961       1.12875120      -0.22754742       0.19936242      -0.17820550      -0.49685558      -5.32784879
Si       8.07178086       2.63920960       5.41537837       0.15201191       0.04834651      -0.04289372       0.46494663       0.48117522      -0.06673904      -5.29652274
Si       9.61262062       3.93061936       6.78978170       0.31513380      -0.41757566      -0.80821865      -0.68794476       0.91356121      -0.71589396      -5.28772108
Si       5.53391128       5.60267218      -0.21558958      -0.56576916       1.21335099       0.60572373       0.10835932      -0.31509738       0.88641974      -5.29582528
Si       6.76604108       6.90289674       1.41313358      -0.09923814       0.84127234       1.09073234       0.37943712      -0.46250140      -1.19344493      -5.35397404
Si       5.47806572       8.13886799       2.73468423       1.53643857       0.32997078      -0.62139696      -0.81400738       0.47534817       0.95960137      -5.34004401
Si       6.87539150       9.59093990       3.97773522       0.98238257       0.72179474      -0.99045539      -0.17528380      -0.23574426       1.02905643      -5.29270872
Si       8.12950854       5.62136962       2.72517978       0.75273327       0.06983168      -1.75578857      -0.09653760      -0.48279445       0.70542719      -5.34559080
Si       9.57240894       6.94307570       4.05004559       0.48440577      -3.38570763      -1.42163466       0.22095040      -0.40785971       0.08953038      -5.41020697
Si       8.22694188       8.15571345       0.02896681      -0.28443321       0.44252272      -0.73627027       0.13335860       0.28000233      -0.03725125      -5.33302956
Si       9.63286871       9.60125764       1.34920525      -0.95429329       0.60752648      -0.48272617      -0.30255613      -0.17727806       0.02757876      -5.37275104
Si       5.40894575       5.43420576       5.55345615      -0.26749298       0.73938850       0.09128254       0.00164504      -0.11830626      -0.07104129      -5.42574399
Si       6.79846885       6.81356305       6.82844154      -0.52399528       0.09277885       0.47057311       0.85746533       0.18834742      -0.09563170      -5.28529782
Si       5.50019796       8.26603574       8.13619011      -1.21026469      -0.24349982       2.05418310       0.18153286      -0.28207636       0.26432762      -5.39705638
Si       6.83664267       9.54234896       9.62150670       0.29763688      -1.12090035      -1.93986473       0.35471155      -0.19758458      -0.40217645      -5.35611872
Si       8.31671566       5.46178967       8.16296007       0.33086024       0.06346876       0.55957838      -0.16426565      -0.13301587      -0.32820985      -5.33306685
Si       9.62400625       6.81653015       9.56470136       0.07949031       1.34431547       0.62481930      -0.19056080      -0.04149801       0.28308261      -5.38688179
Si       8.32651676       8.25190779       5.48511352      -0.94555035      -1.79982917       1.62042361      -1.07062258      -0.00493634       0.04378822      -5.28086473
Si       9.56510123       9.56305746       6.97659090      -0.04400783       0.45399110       0.30821642       0.33311023       0.52133518      -0.73552719      -5.29209644
