64
Lattice="10.928961396379115 0.0002980815354075122 -0.00035645289611243284 0.0002982840981878396 10.929437781966067 0.0005226584863396209 -0.0003568867642005803 0.0005228376982594227 10.929586768934772" Properties=species:S:1:pos:R:3:momenta:R:3:forces:R:3:energies:R:1 energy=-341.198021614655 stress="-0.0010249045390794311 0.000690908923713514 -0.0003170499635875053 0.000690908923713514 -0.0011162002299993973 0.0008102541149282579 -0.0003170499635875053 0.0008102541149282579 -0.00059306457037207" free_energy=-341.198021614655 pbc="T T T"
Si      -0.06675573       0.11219879      -0.01890296      -0.81546855       0.00400787      -1.61354972       0.50956825      -0.71551562      -0.44620137      -5.29040795
Si       1.32571130       1.42963595       1.29404204      -0.88352899      -0.23981189       0.28833210       0.34195117       0.06411454      -0.22008199      -5.43542465
Si       0.07513649       2.77333853       2.69297220       0.26646011      -1.55005843       0.78081493      -0.23026524       0.38905899       0.33636294      -5.32571585
Si       1.52917394       4.02676618       4.15789101      -0.17096845       1.41383546       0.15524702      -0.68991920       0.26547801      -0.28785034      -5.34615262
Si       2.71919831       0.06358239       2.57145547      -1.16213696      -0.24470442      -0.71905938      -0.00642050      -0.28727691       0.52482851      -5.33849138
Si       3.94599358       1.46910928       4.03272042       0.98935226       1.34832984      -0.02921100       0.93823087      -0.85552098      -0.21301199      -5.30230681
Si       2.76580098       2.74781790      -0.05503048       1.31883577      -1.55584692       0.21847058       0.37394869       0.20246246      -0.04710353      -5.24825997
Si       4.33423593       4.15806239       1.29908073      -0.24473274       0.19806934       1.10269666      -0.90299219      -0.09504218      -0.36386804      -5.25422407
Si      -0.06661348       0.09997552       5.39013222      -0.10491309      -0.09788362      -0.27769576       0.17667000      -0.51985508       0.76015144      -5.26910516
Si       1.32177668       1.33999047       6.93797813       1.12362391      -1.43468239       0.37691500       0.31018412      -0.81962320      -0.61010161      -5.34004617
Si      -0.13761578       2.55355510       8.13413151       0.33840100      -0.91481061      -0.16088371       0.10575297       0.49574952       1.05166066      -5.38020667
Si       1.24619350       4.00237214       9.46100091       0.68093690       0.55612607      -1.54470046       0.15550190       0.27644846       0.47404291      -5.25530111
Si       2.84004456       0.04399414       8.24975581       0.73762228      -0.42935707       0.07980441       0.07441726      -0.62089492      -0.60783637      -5.28684602
Si       4.27388004       1.30955029       9.59216423      -1.95471022       0.04917868       1.86433789      -0.43185582      -0.11023578       0.76430530      -5.35585037
Si       2.70450878       2.58025143       5.54694784      -1.98365760       0.06916989      -0.10033350       0.20086085       1.11739636       0.69571559      -5.30632640
Si       4.07581661       4.10321750       7.00876985      -1.43466136      -0.05664947       0.88557591       0.29147109      -0.90771184      -0.56350465      -5.23756881
Si      -0.15524544       5.33243071       0.06976786      -0.70037871       0.28606230       0.76153424       0.86026434       0.19898780      -0.34161085      -5.30985665
Si       1.39785750       6.64100680       1.42502958       1.24787529       0.90833168       0.75742408      -0.21420540       0.51334866      -0.34113695      -5.27956523
Si       0.05531545       8.21563319       2.68987590       0.82508177      -0.46440406       0.25804945       0.46275040       0.10392577       0.16323414      -5.34407850
Si       1.41663287       9.68862687       4.10601892       0.40669101      -2.03757731       0.63335607      -0.07329026      -0.59233400      -0.04407078      -5.26675894
Si       2.86788704       5.39741359       2.77523007      -1.60424633      -0.49871588      -1.19491663       0.16374945       0.05219065       0.04875970      -5.37426876
Si       4.04972171       6.86913020       4.28402828       0.89070584       0.18498655      -1.15229762       0.40272642      -0.26268117      -0.87722942      -5.28766142
Si       2.73778265       8.15676821       0.04617287       1.45044137      -0.38207727       0.65109872      -0.35150039      -0.53922676      -0.43227005      -5.33240744
Si       4.08244905       9.45148874       1.36807024       0.10090669       1.07562136       1.65136716       0.05370630       0.36672984       0.35893836      -5.38221239
Si      -0.00369405       5.46314776       5.36723122      -0.40878461       0.61473255      -0.02859496       0.02693049      -0.42661718       0.19434783      -5.28260952
Si       1.34537759       6.79001089       6.78194747       0.86529037      -0.15160358       0.36090798      -0.47573072       0.13692805       0.42379300      -5.36591168
Si       0.05388966       8.20975869       8.26898159       0.07387534      -0.14787777      -0.88876778      -0.00752273      -0.37137890      -0.50186694      -5.38829622
Si       1.44082632       9.54012161       9.51455906      -0.42038947      -1.08767757      -1.41495487      -0.16349184       0.66169503       0.85608552      -5.29028525
Si       2.68488812       5.50606354       8.19029072      -0.28010176       0.46250245       0.54552639      -0.34111347      -0.35205535       0.31621944      -5.38789746
Si       4.10237212       6.89123190       9.44032845       0.67507807      -0.77318979      -0.56704513      -0.26158706       0.23336046       0.26979719      -5.36997010
Si       2.73707526       8.20600416       5.63178146      -0.06603603      -1.41570774      -0.48624931      -0.76702115       0.23408995      -1.19429240      -5.32183158
Si       4.19586824       9.50354975       6.70693760      -0.69843153       0.05732025      -0.36187646      -0.25944653       1.18277495       1.04859022      -5.29385437
Si       5.55622641      -0.16262589       0.14456795      -1.29939378       1.59827914      -1.15703319      -0.64720633       0.45463961      -0.63573989      -5.32805656
Si       6.83875868       1.29625832       1.35195343       1.11101264       1.24110243      -0.93944515      -0.07799812      -0.18740570       0.74998675      -5.36264291
Si       5.48289625       2.66693507       2.68183633       0.29350347      -0.28377604       1.09462844      -0.09463292       0.31988140       0.19292457      -5.38944384
Si       6.74014671       4.13164895       4.05871776      -0.56032849       1.32780617       0.35567347       0.27169390      -0.04292410       0.23495268      -5.30528617
Si       8.26360388       0.02228611       2.76759775      -0.19308662       0.67655902      -0.41313253      -0.11161634      -0.18742731      -0.84280881      -5.36687465
Si       9.56260557       1.43850722       3.97267002       0.75176584      -0.50536209       1.28594463       0.07769954       0.23733253       0.66026710      -5.39025841
Si       8.03309164       2.75338181       0.10506761      -0.55196056      -0.01214615       0.68147206       0.93241849       0.32198382       0.15059620      -5.33975016
Si       9.41882011       4.13783122       1.52858523      -0.22467186      -1.06129787       0.92896355       0.22343945      -0.48641114      -0.46713655      -5.33985193
Si       5.41304694       0.04259379       5.39536952       1.24793067       1.43849877      -0.58094777       0.22286723      -0.05633973      -0.59014190      -5.30356554
Si       6.82945975       1.24784636       6.86212510      -1.18766805       1.14041070       0.06970019      -0.80990210       0.89569326      -0.84927868      -5.36839546
Si       5.61086294       2.66614545       8.32191158       1.71092856      -0.94793948      -0.99705985      -0.24138475       0.60638079      -0.59045017      -5.31250417
Si       6.98014915       4.14433424       9.58221051       0.33546353      -0.02549376      -0.12940401      -0.50681151       0.21542847      -0.45679549      -5.38233316
Si       8.11581977       0.05294620       8.18408673      -0.30185268       0.54545709       0.57133756       0.74832173      -0.92864577       1.10926717      -5.34576943
Si       9.38272599       1.42274267       9.67320420      -0.23235077       1.12900335      -0.22474341       0.20064560      -0.17823961      -0.49703937      -5.32780356
Si       8.07168686       2.63928372       5.41534268       0.14994981       0.04686133      -0.04233568       0.46661446       0.48090154      -0.06641303      -5.29659195
Si       9.61259895       3.93070735       6.78996786       0.32019056      -0.42363691      -0.80286992      -0.68837703       0.91336220      -0.71842138      -5.28778858
Si       5.53414736       5.60244789      -0.21553006      -0.56793067       1.21346347       0.60184181       0.10515288      -0.31236307       0.88540865      -5.29608397
Si       6.76621413       6.90281177       1.41279999      -0.10113501       0.84579052       1.10133522       0.37559669      -0.45985008      -1.18631601      -5.35447656
Si       5.47788516       8.13900159       2.73484907       1.54416498       0.32618564      -0.62934146      -0.80902276       0.47159057       0.95518859      -5.34018491
Si       6.87543775       9.59090163       3.97804065       0.98363800       0.72355328      -0.99892839      -0.17546803      -0.23457904       1.02551712      -5.29305451
Si       8.12932316       5.62121749       2.72541696       0.75355891       0.07166642      -1.76042904      -0.09366829      -0.48073824       0.70310917      -5.34574964
Si       9.57214937       6.94374294       4.05028811       0.48262708      -3.38364167      -1.42161649       0.22422179      -0.41620122       0.08617330      -5.40992002
Si       8.22687330       8.15580784       0.02917676      -0.28532341       0.44019472      -0.73606777       0.13492781       0.27980753      -0.03993860      -5.33297755
Si       9.63314202       9.60106146       1.34933479      -0.95080992       0.60879199      -0.48401552      -0.30511392      -0.17527701       0.02634292      -5.37285298
Si       5.40877335       5.43408913       5.55357623      -0.26653013       0.73990569       0.09161711       0.00438093      -0.11739903      -0.07292428      -5.42560235
Si       6.79841651       6.81347941       6.82865051      -0.52949824       0.09115798       0.47060385       0.85946562       0.18852868      -0.09978904      -5.28487558
Si       5.50016619       8.26599890       8.13560946      -1.21312476      -0.24278260       2.05266843       0.18202967      -0.28207422       0.27216020      -5.39695359
Si       6.83637823       9.54267941       9.62186908       0.29539085      -1.12056739      -1.93838726       0.35776565      -0.20236026      -0.40815019      -5.35573357
Si       8.31681219       5.46175164       8.16281001       0.33112891       0.06439307       0.56276693      -0.16560513      -0.13286837      -0.32632595      -5.33326947
Si       9.62403253       6.81633675       9.56465904       0.08091836       1.34363690       0.62293624      -0.19124172      -0.03987019       0.28397728      -5.38672637
Si       8.32682959       8.25207826       5.48462228      -0.93732811      -1.80059902       1.62091250      -1.07579513      -0.00424954       0.05083638      -5.28075212
Si       9.56501662       9.56302624       6.97644891      -0.04721072       0.44888679       0.31203318       0.33428057       0.52092360      -0.73383421      -5.29219242
