8
Lattice="-3.956067800811 0.000000000000 3.956067800811 0.000000000000 3.956067800811 3.956067800811 -3.956067800811 3.956067800811 0.000000000000" Properties=species:S:1:pos:R:3 pbc="T T T" time_fs=0.0
Al 0.0000000000 0.0000000000 0.0000000000
Al -1.9780339004 0.0000000000 1.9780339004
Al 0.0000000000 1.9780339004 1.9780339004
Al -1.9780339004 1.9780339004 3.9560678008
Al -1.9780339004 1.9780339004 0.0000000000
Al -3.9560678008 1.9780339004 1.9780339004
Al -1.9780339004 3.9560678008 1.9780339004
Al -3.9560678008 3.9560678008 3.9560678008
8
Lattice="-3.956067800811 0.000000000000 3.956067800811 0.000000000000 3.956067800811 3.956067800811 -3.956067800811 3.956067800811 0.000000000000" Properties=species:S:1:pos:R:3 pbc="T T T" time_fs=0.9675537305999999
Al -0.0031411934 0.0057855411 0.0037330741
Al -1.9760945699 -0.0002369989 1.9812608364
Al -0.0038368932 1.9720751318 1.9740326737
Al -1.9774379156 1.9790122747 3.9549754751
Al -1.9746288954 1.9799073719 0.0003249613
Al -3.9529999403 1.9784060343 1.9762556752
Al -1.9796318622 3.9534895230 1.9792735168
Al -3.9564999332 3.9558323250 3.9544149909
8
Lattice="-3.956067800811 0.000000000000 3.956067800811 0.000000000000 3.956067800811 3.956067800811 -3.956067800811 3.956067800811 0.000000000000" Properties=species:S:1:pos:R:3 pbc="T T T" time_fs=1.9351074611999999
Al -0.0061029047 0.0112388041 0.0072487822
Al -1.9742735393 -0.0004663674 1.9843064754
Al -0.0074513775 1.9664602951 1.9702631796
Al -1.9768742005 1.9799366721 3.9539486552
Al -1.9714234963 1.9816766674 0.0006262669
Al -3.9501056340 1.9787539427 1.9745746063
Al -1.9811361610 3.9510596979 1.9804431018
Al -3.9569038904 3.9556114913 3.9528601364
8
Lattice="-3.956067800811 0.000000000000 3.956067800811 0.000000000000 3.956067800811 3.956067800811 -3.956067800811 3.956067800811 0.000000000000" Properties=species:S:1:pos:R:3 pbc="T T T" time_fs=2.9026611918
Al -0.0090570742 0.0166748408 0.0107476065
Al -1.9724717094 -0.0007066463 1.9873503530
Al -0.0110504806 1.9608665054 1.9665093626
Al -1.9763084515 1.9808624560 3.9529304658
Al -1.9682360798 1.9834470414 0.0009169085
Al -3.9472153233 1.9790952050 1.9728891699
Al -1.9826320400 3.9486382715 1.9816112558
Al -3.9573000439 3.9553935290 3.9513160803
8
Lattice="-3.956067800811 0.000000000000 3.956067800811 0.000000000000 3.956067800811 3.956067800811 -3.956067800811 3.956067800811 0.000000000000" Properties=species:S:1:pos:R:3 pbc="T T T" time_fs=3.8702149223999998
Al -0.0118029516 0.0217225744 0.0139878831
Al -1.9708185759 -0.0009470775 1.9901885342
Al -0.0143866374 1.9556772086 1.9630293253
Al -1.9757774309 1.9817285137 3.9519930170
Al -1.9652880062 1.9851009064 0.0011723344
Al -3.9445237893 1.9794038357 1.9713097099
Al -1.9840156169 3.9463908736 1.9826993359
Al -3.9576581955 3.9551943683 3.9498910640
8
Lattice="-3.956067800811 0.000000000000 3.956067800811 0.000000000000 3.956067800811 3.956067800811 -3.956067800811 3.956067800811 0.000000000000" Properties=species:S:1:pos:R:3 pbc="T T T" time_fs=4.8377686529999995
Al -0.0145844008 0.0268290438 0.0172545337
Al -1.9691723406 -0.0012129802 1.9930751610
Al -0.0177540130 1.9504339594 1.9595162275
Al -1.9752327730 1.9826130248 3.9510551377
Al -1.9623208418 1.9867870952 0.0014118023
Al -3.9417908379 1.9797052489 1.9696929642
Al -1.9854081702 3.9441186931 1.9838044844
Al -3.9580078260 3.9549971184 3.9484608925
8
Lattice="-3.956067800811 0.000000000000 3.956067800811 0.000000000000 3.956067800811 3.956067800811 -3.956067800811 3.956067800811 0.000000000000" Properties=species:S:1:pos:R:3 pbc="T T T" time_fs=5.8053223836
Al -0.0172703750 0.0317518258 0.0203895303
Al -1.9676177491 -0.0014975070 1.9958772145
Al -0.0209909223 1.9453872963 1.9561388200
Al -1.9746984119 1.9834761141 3.9501640069
Al -1.9594792347 1.9884289662 0.0016191200
Al -3.9391435798 1.9799823829 1.9681108279
Al -1.9867417963 3.9419299139 1.9848753524
Al -3.9583291343 3.9548122117 3.9470963319
8
Lattice="-3.956067800811 0.000000000000 3.956067800811 0.000000000000 3.956067800811 3.956067800811 -3.956067800811 3.956067800811 0.000000000000" Properties=species:S:1:pos:R:3 pbc="T T T" time_fs=6.7728761142
Al -0.0198532762 0.0364754855 0.0233807437
Al -1.9661646585 -0.0018041726 1.9985890468
Al -0.0240859112 1.9405542652 1.9529092596
Al -1.9741745347 1.9843166745 3.9493244328
Al -1.9567749186 1.9900240298 0.0017899522
Al -3.9365882583 1.9802322687 1.9665645189
Al -1.9880109554 3.9398316143 1.9859094258
Al -3.9586186899 3.9546410374 3.9458038229
8
Lattice="-3.956067800811 0.000000000000 3.956067800811 0.000000000000 3.956067800811 3.956067800811 -3.956067800811 3.956067800811 0.000000000000" Properties=species:S:1:pos:R:3 pbc="T T T" time_fs=7.7404298447999995
Al -0.0225080153 0.0413184345 0.0264276711
Al -1.9647196071 -0.0021576524 2.0013963698
Al -0.0272465004 1.9356101849 1.9496113303
Al -1.9736244597 1.9851928066 3.9484816484
Al -1.9540281079 1.9916822706 0.0019324632
Al -3.9339507142 1.9804698436 1.9649463740
Al -1.9892999737 3.9376825300 1.9869771681
Al -3.9588938250 3.9544727855 3.9444981785
8
Lattice="-3.956067800811 0.000000000000 3.956067800811 0.000000000000 3.956067800811 3.956067800811 -3.956067800811 3.956067800811 0.000000000000" Properties=species:S:1:pos:R:3 pbc="T T T" time_fs=8.7079835754
Al -0.0250216415 0.0458897927 0.0292808576
Al -1.9634067179 -0.0025360843 2.0040774215
Al -0.0302157211 1.9309559352 1.9465136537
Al -1.9730903099 1.9860361987 3.9477067215
Al -1.9514647050 1.9932739304 0.0020295712
Al -3.9314406584 1.9806727571 1.9633812935
Al -1.9905027674 3.9356564235 1.9879936643
Al -3.9591286821 3.9543222500 3.9432880201
8
Lattice="-3.956067800811 0.000000000000 3.956067800811 0.000000000000 3.956067800811 3.956067800811 -3.956067800811 3.956067800811 0.000000000000" Properties=species:S:1:pos:R:3 pbc="T T T" time_fs=9.675537305999999
Al -0.0273349992 0.0500806163 0.0318705834
Al -1.9622605640 -0.0029334686 2.0065706565
Al -0.0329221806 1.9267032402 1.9436913166
Al -1.9725837370 1.9868278004 3.9470194873
Al -1.9491475478 1.9947630576 0.0020764249
Al -3.9291163574 1.9808347359 1.9619039074
Al -1.9915897667 3.9338016714 1.9889352381
Al -3.9593160505 3.9541935496 3.9422035887
8
Lattice="-3.956067800811 0.000000000000 3.956067800811 0.000000000000 3.956067800811 3.956067800811 -3.956067800811 3.956067800811 0.000000000000" Properties=species:S:1:pos:R:3 pbc="T T T" time_fs=10.6430910366
Al -0.0293669764 0.0537431668 0.0341048155
Al -1.9613225633 -0.0033368376 2.0087891813
Al -0.0352705056 1.9230022652 1.9412444372
Al -1.9721221667 1.9875400216 3.9464446358
Al -1.9471587538 1.9960979920 0.0020704836
Al -3.9270590712 1.9809495770 1.9605652746
Al -1.9925223598 3.9321836396 1.9897688528
Al -3.9594488059 3.9540913782 3.9412835217
8
Lattice="-3.956067800811 0.000000000000 3.956067800811 0.000000000000 3.956067800811 3.956067800811 -3.956067800811 3.956067800811 0.000000000000" Properties=species:S:1:pos:R:3 pbc="T T T" time_fs=11.6106447672
Al -0.0315486948 0.0576548673 0.0364588926
Al -1.9603905798 -0.0038292901 2.0112023961
Al -0.0377602977 1.9190666835 1.9386530273
Al -1.9716083859 1.9883230516 3.9458589898
Al -1.9450742973 1.9975607951 0.0020125700
Al -3.9248330734 1.9810428634 1.9590832366
Al -1.9934993044 3.9304586872 1.9906709161
Al -3.9595565696 3.9539935447 3.9403311739
8
Lattice="-3.956067800811 0.000000000000 3.956067800811 0.000000000000 3.956067800811 3.956067800811 -3.956067800811 3.956067800811 0.000000000000" Properties=species:S:1:pos:R:3 pbc="T T T" time_fs=12.578198497799999
Al -0.0338101019 0.0616861867 0.0388494233
Al -1.9595065165 -0.0044044434 2.0137377652
Al -0.0403066385 1.9150295310 1.9360067795
Al -1.9710559447 1.9891544679 3.9452865108
Al -1.9429692871 1.9991092499 0.0018962655
Al -3.9225071836 1.9811067848 1.9574982519
Al -1.9944851909 3.9286843778 1.9916133710
Al -3.9596303403 3.9539050490 3.9393828360
8
Lattice="-3.956067800811 0.000000000000 3.956067800811 0.000000000000 3.956067800811 3.956067800811 -3.956067800811 3.956067800811 0.000000000000" Properties=species:S:1:pos:R:3 pbc="T T T" time_fs=13.5457522284
Al -0.0360170849 0.0655944482 0.0411277726
Al -1.9587328477 -0.0050360680 2.0162490509
Al -0.0427543791 1.9111361083 1.9334684465
Al -1.9704951163 1.9899871427 3.9447655453
Al -1.9409754566 2.0006555166 0.0017215003
Al -3.9202171473 1.9811335025 1.9558983493
Al -1.9954180812 3.9269678760 1.9925409731
Al -3.9596610909 3.9538326775 3.9384995656
8
Lattice="-3.956067800811 0.000000000000 3.956067800811 0.000000000000 3.956067800811 3.956067800811 -3.956067800811 3.956067800811 0.000000000000" Properties=species:S:1:pos:R:3 pbc="T T T" time_fs=14.513305959
Al -0.0379930236 0.0690645340 0.0431075618
Al -1.9581366493 -0.0056776176 2.0185373430
Al -0.0449055570 1.9077014906 1.9312447760
Al -1.9699694732 1.9907553897 3.9443401561
Al -1.9392559755 2.0020779073 0.0014986431
Al -3.9181451675 1.9811187859 1.9544085183
Al -1.9962214027 3.9254477391 1.9933796401
Al -3.9596439544 3.9537829746 3.9377545644
8
Lattice="-3.956067800811 0.000000000000 3.956067800811 0.000000000000 3.956067800811 3.956067800811 -3.956067800811 3.956067800811 0.000000000000" Properties=species:S:1:pos:R:3 pbc="T T T" time_fs=15.480859689599999
Al -0.0399364348 0.0724453579 0.0449891563
Al -1.9576542456 -0.0063904816 2.0208308713
Al -0.0469779665 1.9043794159 1.9291115096
Al -1.9694270785 1.9915352101 3.9439662033
Al -1.9376356354 2.0035178353 0.0012078409
Al -3.9160840348 1.9810626485 1.9528813645
Al -1.9969768779 3.9239709279 1.9942129897
Al -3.9595789301 3.9537502896 3.9370712676
8
Lattice="-3.956067800811 0.000000000000 3.956067800811 0.000000000000 3.956067800811 3.956067800811 -3.956067800811 3.956067800811 0.000000000000" Properties=species:S:1:pos:R:3 pbc="T T T" time_fs=16.448413420199998
Al -0.0420582639 0.0761010695 0.0469719877
Al -1.9572393490 -0.0072567014 2.0233809400
Al -0.0491941292 1.9008134599 1.9268414091
Al -1.9688075251 1.9924123277 3.9436059301
Al -1.9359428308 2.0051339515 0.0008132849
Al -3.9138087938 1.9809565531 1.9511475684
Al -1.9977642145 3.9223786094 1.9951316010
Al -3.9594560969 3.9537319331 3.9363784818
8
Lattice="-3.956067800811 0.000000000000 3.956067800811 0.000000000000 3.956067800811 3.956067800811 -3.956067800811 3.956067800811 0.000000000000" Properties=species:S:1:pos:R:3 pbc="T T T" time_fs=17.4159671508
Al -0.0439816364 0.0793756410 0.0486914862
Al -1.9569831762 -0.0081360356 2.0257415992
Al -0.0511532594 1.8976476685 1.9248483599
Al -1.9682165154 1.9932345668 3.9433311602
Al -1.9344903657 2.0066460231 0.0003729187
Al -3.9117198250 1.9808123161 1.9495047479
Al -1.9984373517 3.9209572584 1.9959732192
Al -3.9592890737 3.9537337655 3.9358077118
8
Lattice="-3.956067800811 0.000000000000 3.956067800811 0.000000000000 3.956067800811 3.956067800811 -3.956067800811 3.956067800811 0.000000000000" Properties=species:S:1:pos:R:3 pbc="T T T" time_fs=18.3835208814
Al -0.0458133156 0.0824509433 0.0502444224
Al -1.9568676642 -0.0090740857 2.0280420499
Al -0.0529658395 1.8947052770 1.9230210858
Al -1.9676221392 1.9940462672 3.9431253046
Al -1.9331951732 2.0081363534 -0.0001350966
Al -3.9097021905 1.9806234775 1.9478640922
Al -1.9990346005 3.9196278056 1.9967837898
Al -3.9590702806 3.9537551651 3.9353255558
8
Lattice="-3.956067800811 0.000000000000 3.956067800811 0.000000000000 3.956067800811 3.956067800811 -3.956067800811 3.956067800811 0.000000000000" Properties=species:S:1:pos:R:3 pbc="T T T" time_fs=19.351074611999998
Al -0.0479347783 0.0859653873 0.0519513114
Al -1.9568713256 -0.0102679965 2.0307621163
Al -0.0550084589 1.8913760908 1.9209819422
Al -1.9668999388 1.9950165878 3.9429469726
Al -1.9317894783 2.0099161586 -0.0008183696
Al -3.9073353048 1.9803497010 1.9458825070
Al -1.9996790823 3.9181144478 1.9977317736
Al -3.9587528362 3.9538008272 3.9348329506
8
Lattice="-3.956067800811 0.000000000000 3.956067800811 0.000000000000 3.956067800811 3.956067800811 -3.956067800811 3.956067800811 0.000000000000" Properties=species:S:1:pos:R:3 pbc="T T T" time_fs=20.3186283426
Al -0.0501568181 0.0895944327 0.0536398664
Al -1.9570215901 -0.0116326587 2.0336699832
Al -0.0570876875 1.8879743860 1.9189302771
Al -1.9661074609 1.9960644864 3.9428246831
Al -1.9304179891 2.0118372769 -0.0016351409
Al -3.9048244356 1.9800043244 1.9437204657
Al -2.0003032719 3.9165582736 1.9987337823
Al -3.9583519497 3.9538706819 3.9343872869
8
Lattice="-3.956067800811 0.000000000000 3.956067800811 0.000000000000 3.956067800811 3.956067800811 -3.956067800811 3.956067800811 0.000000000000" Properties=species:S:1:pos:R:3 pbc="T T T" time_fs=21.2861820732
Al -0.0524717357 0.0933181488 0.0552917905
Al -1.9573337290 -0.0131752423 2.0367613345
Al -0.0591900606 1.8845228257 1.9168844366
Al -1.9652435293 1.9971890422 3.9427663825
Al -1.9290966561 2.0138988286 -0.0025934829
Al -3.9021751381 1.9795822800 1.9413763471
Al -2.0008989374 3.9149687141 1.9997865125
Al -3.9578614167 3.9539666054 3.9339978820
8
Lattice="-3.956067800811 0.000000000000 3.956067800811 0.000000000000 3.956067800811 3.956067800811 -3.956067800811 3.956067800811 0.000000000000" Properties=species:S:1:pos:R:3 pbc="T T T" time_fs=22.253735803799998
Al -0.0544256123 0.0963986961 0.0565704866
Al -1.9577620947 -0.0146048453 2.0394354749
Al -0.0608972336 1.8817093300 1.9152571702
Al -1.9644736860 1.9981722378 3.9427910723
Al -1.9280956918 2.0157021198 -0.0035161851
Al -3.8999038722 1.9791601799 1.9393008919
Al -2.0013431472 3.9136616894 2.0006834943
Al -3.9573698662 3.9540717957 3.9337487989
8
Lattice="-3.956067800811 0.000000000000 3.956067800811 0.000000000000 3.956067800811 3.956067800811 -3.956067800811 3.956067800811 0.000000000000" Properties=species:S:1:pos:R:3 pbc="T T T" time_fs=23.2212895344
Al -0.0565566985 0.0996904958 0.0578405236
Al -1.9584045784 -0.0162992047 2.0424204000
Al -0.0626879588 1.8787484154 1.9135902949
Al -1.9635908032 1.9992800282 3.9428971744
Al -1.9271257716 2.0177356858 -0.0046434809
Al -3.8973895521 1.9786298725 1.9369344540
Al -2.0017647790 3.9122739408 2.0016699161
Al -3.9567510604 3.9542119691 3.9335619202
8
Lattice="-3.956067800811 0.000000000000 3.956067800811 0.000000000000 3.956067800811 3.956067800811 -3.956067800811 3.956067800811 0.000000000000" Properties=species:S:1:pos:R:3 pbc="T T T" time_fs=24.188843265
Al -0.0584627138 0.1025604362 0.0588425101
Al -1.9591646236 -0.0179568576 2.0451613169
Al -0.0642144629 1.8762162428 1.9122163000
Al -1.9627554467 2.0003073925 3.9430766051
Al -1.9263876010 2.0196243822 -0.0057795085
Al -3.8951019472 1.9780817277 1.9347096011
Al -2.0020746119 3.9110740132 2.0025596428
Al -3.9561097964 3.9543638658 3.9334847357
8
Lattice="-3.956067800811 0.000000000000 3.956067800811 0.000000000000 3.956067800811 3.956067800811 -3.956067800811 3.956067800811 0.000000000000" Properties=species:S:1:pos:R:3 pbc="T T T" time_fs=25.156396995599998
Al -0.0604348266 0.1054491886 0.0597352566
Al -1.9601476638 -0.0198221214 2.0480718095
Al -0.0657145761 1.8737212656 1.9109210580
Al -1.9618426529 2.0014082700 3.9433526986
Al -1.9257613994 2.0216519512 -0.0070902969
Al -3.8926942049 1.9774364096 1.9322930687
Al -2.0023230870 3.9098774846 2.0034870836
Al -3.9553527922 3.9545487550 3.9335005256
8
Lattice="-3.956067800811 0.000000000000 3.956067800811 0.000000000000 3.956067800811 3.956067800811 -3.956067800811 3.956067800811 0.000000000000" Properties=species:S:1:pos:R:3 pbc="T T T" time_fs=26.1239507262
Al -0.0624090611 0.1082535098 0.0604746298
Al -1.9613395985 -0.0218471791 2.0510629413
Al -0.0671328185 1.8713578972 1.9097607774
Al -1.9608776900 2.0025493440 3.9437256011
Al -1.9252804187 2.0237582942 -0.0085453410
Al -3.8902411746 1.9767079772 1.9297533507
Al -2.0024947475 3.9087287059 2.0044215278
Al -3.9544956955 3.9547626549 3.9336177174
8
Lattice="-3.956067800811 0.000000000000 3.956067800811 0.000000000000 3.956067800811 3.956067800811 -3.956067800811 3.956067800811 0.000000000000" Properties=species:S:1:pos:R:3 pbc="T T T" time_fs=27.0915044568
Al -0.0645413916 0.1111876987 0.0611081601
Al -1.9628462119 -0.0241997893 2.0543738745
Al -0.0685769696 1.8689492362 1.9086543404
Al -1.9597815234 2.0038217990 3.9442312005
Al -1.9249153563 2.0261129434 -0.0102672698
Al -3.8875471506 1.9758345213 1.9268836025
Al -2.0025978830 3.9075412941 2.0054357484
Al -3.9534647165 3.9550234998 3.9338515463
8
Lattice="-3.956067800811 0.000000000000 3.956067800811 0.000000000000 3.956067800811 3.956067800811 -3.956067800811 3.956067800811 0.000000000000" Properties=species:S:1:pos:R:3 pbc="T T T" time_fs=28.059058187399998
Al -0.0667790353 0.1141648047 0.0615973512
Al -1.9646571218 -0.0268406909 2.0579306453
Al -0.0700009958 1.8665752284 1.9076505040
Al -1.9585747668 2.0051976877 3.9448708436
Al -1.9246948439 2.0286658988 -0.0122314820
Al -3.8846739230 1.9748273437 1.9237399967
Al -2.0026187030 3.9063531481 2.0065035896
Al -3.9522718141 3.9553277823 3.9342097548
8
Lattice="-3.956067800811 0.000000000000 3.956067800811 0.000000000000 3.956067800811 3.956067800811 -3.956067800811 3.956067800811 0.000000000000" Properties=species:S:1:pos:R:3 pbc="T T T" time_fs=29.026611918
Al -0.0690632119 0.1170943889 0.0619106041
Al -1.9667456352 -0.0297145166 2.0616450452
Al -0.0713597318 1.8643151253 1.9067936284
Al -1.9572841294 2.0066429884 3.9456390677
Al -1.9246401537 2.0313557072 -0.0144000722
Al -3.8816934318 1.9737050796 1.9203939368
Al -2.0025474221 3.9052029941 2.0075954054
Al -3.9509374870 3.9556694359 3.9346935870
8
Lattice="-3.956067800811 0.000000000000 3.956067800811 0.000000000000 3.956067800811 3.956067800811 -3.956067800811 3.956067800811 0.000000000000" Properties=species:S:1:pos:R:3 pbc="T T T" time_fs=29.9941656486
Al -0.0714231824 0.1200041823 0.0620376999
Al -1.9691530235 -0.0328669167 2.0655670723
Al -0.0726654533 1.8621530183 1.9060868828
Al -1.9558896977 2.0081769315 3.9465542960
Al -1.9247616758 2.0342196958 -0.0168099520
Al -3.8785653516 1.9724481463 1.9167952344
Al -2.0023760912 3.9040824201 2.0087231415
Al -3.9494367282 3.9560537259 3.9353168291
8
Lattice="-3.956067800811 0.000000000000 3.956067800811 0.000000000000 3.956067800811 3.956067800811 -3.956067800811 3.956067800811 0.000000000000" Properties=species:S:1:pos:R:3 pbc="T T T" time_fs=30.961719379199998
Al -0.0736620216 0.1226400391 0.0619515415
Al -1.9716953106 -0.0360449316 2.0693720416
Al -0.0738032560 1.8602844730 1.9056056628
Al -1.9545039236 2.0096722919 3.9475502060
Al -1.9250621763 2.0370219895 -0.0192705166
Al -3.8755482165 1.9711554228 1.9132357288
Al -2.0021107846 3.9030923687 2.0097902358
Al -3.9478855148 3.9564495495 3.9360363037
8
Lattice="-3.956067800811 0.000000000000 3.956067800811 0.000000000000 3.956067800811 3.956067800811 -3.956067800811 3.956067800811 0.000000000000" Properties=species:S:1:pos:R:3 pbc="T T T" time_fs=31.9292731098
Al -0.0758167980 0.1250444861 0.0616513321
Al -1.9744099160 -0.0392952255 2.0731180197
Al -0.0747945287 1.8586786683 1.9053428861
Al -1.9531052618 2.0111510333 3.9486428728
Al -1.9255441294 2.0398045202 -0.0218181926
Al -3.8725938030 1.9698079881 1.9096603593
Al -2.0017473213 3.9022180911 2.0108118559
Al -3.9462594448 3.9568616412 3.9368620700
8
Lattice="-3.956067800811 0.000000000000 3.956067800811 0.000000000000 3.956067800811 3.956067800811 -3.956067800811 3.956067800811 0.000000000000" Properties=species:S:1:pos:R:3 pbc="T T T" time_fs=32.896826840399996
Al -0.0780491252 0.1273949723 0.0611122451
Al -1.9774995160 -0.0428580447 2.0770819086
Al -0.0757147461 1.8572179405 1.9052824888
Al -1.9515893417 2.0127217295 3.9499157894
Al -1.9262438731 2.0427724121 -0.0246420765
Al -3.8694815680 1.9683059024 1.9058028566
Al -2.0012570988 3.9013968708 2.0118619292
Al -3.9444359345 3.9573194204 3.9378560613
8
Lattice="-3.956067800811 0.000000000000 3.956067800811 0.000000000000 3.956067800811 3.956067800811 -3.956067800811 3.956067800811 0.000000000000" Properties=species:S:1:pos:R:3 pbc="T T T" time_fs=33.864380571
Al -0.0801447286 0.1294532412 0.0603680696
Al -1.9806854497 -0.0464005926 2.0808841368
Al -0.0764695599 1.8560593158 1.9054486382
Al -1.9500977336 2.0142336088 3.9512581445
Al -1.9271081078 2.0456423672 -0.0274813128
Al -3.8665078915 1.9667874247 1.9020252110
Al -2.0006779202 3.9007165316 2.0128360262
Al -3.9425798123 3.9577793069 3.9389322905
8
Lattice="-3.956067800811 0.000000000000 3.956067800811 0.000000000000 3.956067800811 3.956067800811 -3.956067800811 3.956067800811 0.000000000000" Properties=species:S:1:pos:R:3 pbc="T T T" time_fs=34.8319343016
Al -0.0819187058 0.1310393194 0.0594895329
Al -1.9836768486 -0.0495997903 2.0841816649
Al -0.0769970006 1.8553013941 1.9058236580
Al -1.9487648188 2.0155493899 3.9525488045
Al -1.9280543941 2.0481540332 -0.0300770131
Al -3.8639379092 1.9653912738 1.8986678327
Al -2.0000630143 3.9002376480 2.0136453673
Al -3.9408585118 3.9581979356 3.9399913564
8
Lattice="-3.956067800811 0.000000000000 3.956067800811 0.000000000000 3.956067800811 3.956067800811 -3.956067800811 3.956067800811 0.000000000000" Properties=species:S:1:pos:R:3 pbc="T T T" time_fs=35.799488032199996
Al -0.0835683706 0.1323485642 0.0584111551
Al -1.9867651501 -0.0527797049 2.0873255536
Al -0.0773722206 1.8548318390 1.9064204794
Al -1.9474526315 2.0168079155 3.9539118993
Al -1.9291586833 2.0505710596 -0.0326889768
Al -3.8614940570 1.9639787321 1.8953813690
Al -1.9993596710 3.8998967679 2.0143790442
Al -3.9391004195 3.9586160303 3.9411306802
8
Lattice="-3.956067800811 0.000000000000 3.956067800811 0.000000000000 3.956067800811 3.956067800811 -3.956067800811 3.956067800811 0.000000000000" Properties=species:S:1:pos:R:3 pbc="T T T" time_fs=36.7670417628
Al -0.0849520888 0.1332709882 0.0572313450
Al -1.9896755240 -0.0556569075 2.0900384765
Al -0.0775675226 1.8546866572 1.9071840069
Al -1.9462766168 2.0178974542 3.9552275518
Al -1.9303198703 2.0526788573 -0.0350845479
Al -3.8593887627 1.9626758431 1.8924550055
Al -1.9986306128 3.8997233916 2.0149714543
Al -3.9374602045 3.9589949187 3.9422479109
8
Lattice="-3.956067800811 0.000000000000 3.956067800811 0.000000000000 3.956067800811 3.956067800811 -3.956067800811 3.956067800811 0.000000000000" Properties=species:S:1:pos:R:3 pbc="T T T" time_fs=37.7345954934
Al -0.0864680010 0.1340933179 0.0556457593
Al -1.9932021982 -0.0590270908 2.0930859859
Al -0.0776560467 1.8547932661 1.9083019758
Al -1.9449090738 2.0191244701 3.9568532492
Al -1.9318410725 2.0550686558 -0.0379232651
Al -3.8570245735 1.9611248327 1.8890714254
Al -1.9976831547 3.8996557804 2.0155930838
Al -3.9354870828 3.9594379710 3.9436429890
8
Lattice="-3.956067800811 0.000000000000 3.956067800811 0.000000000000 3.956067800811 3.956067800811 -3.956067800811 3.956067800811 0.000000000000" Properties=species:S:1:pos:R:3 pbc="T T T" time_fs=38.702149223999996
Al -0.0878673160 0.1346534088 0.0538742579
Al -1.9968104473 -0.0623607457 2.0959717652
Al -0.0776079290 1.8551719239 1.9096316399
Al -1.9435647778 2.0202889169 3.9585488737
Al -1.9335059026 2.0573532311 -0.0407644643
Al -3.8547829504 1.9595656609 1.8857650369
Al -1.9966514008 3.8997250247 2.0161345564
Al -3.9334804790 3.9598737817 3.9451095373
8
Lattice="-3.956067800811 0.000000000000 3.956067800811 0.000000000000 3.956067800811 3.956067800811 -3.956067800811 3.956067800811 0.000000000000" Properties=species:S:1:pos:R:3 pbc="T T T" time_fs=39.6697029546
Al -0.0891805264 0.1349682284 0.0518874743
Al -2.0005660461 -0.0657172817 2.0987497224
Al -0.0774278971 1.8558237201 1.9111951040
Al -1.9422181359 2.0214118598 3.9603470489
Al -1.9353419425 2.0595736375 -0.0436591101
Al -3.8526181790 1.9579706586 1.8824728412
Al -1.9955165560 3.8999320236 2.0166048822
Al -3.9314019202 3.9603083566 3.9466732408
8
Lattice="-3.956067800811 0.000000000000 3.956067800811 0.000000000000 3.956067800811 3.956067800811 -3.956067800811 3.956067800811 0.000000000000" Properties=species:S:1:pos:R:3 pbc="T T T" time_fs=40.6372566852
Al -0.0903508048 0.1350252844 0.0497749436
Al -2.0043003601 -0.0689421348 2.1012916898
Al -0.0771270797 1.8567185534 1.9129234605
Al -1.9409296228 2.0224408485 3.9621694732
Al -1.9372660006 2.0616261859 -0.0464749912
Al -3.8506259373 1.9564128794 1.8793430124
Al -1.9943283855 3.9002698721 2.0169800994
Al -3.9293430124 3.9607197144 3.9482635155
8
Lattice="-3.956067800811 0.000000000000 3.956067800811 0.000000000000 3.956067800811 3.956067800811 -3.956067800811 3.956067800811 0.000000000000" Properties=species:S:1:pos:R:3 pbc="T T T" time_fs=41.604810415799996
Al -0.0914320001 0.1348394758 0.0474599410
Al -2.0081602365 -0.0721629259 2.1037033863
Al -0.0767018044 1.8578802064 1.9148784543
Al -1.9396464936 2.0234179909 3.9640888038
Al -1.9393488015 2.0635940408 -0.0493231591
Al -3.8487195786 1.9548314025 1.8762468283
Al -1.9930415439 3.9007486596 2.0172759749
Al -3.9272207443 3.9611223519 3.9499409737
8
Lattice="-3.956067800811 0.000000000000 3.956067800811 0.000000000000 3.956067800811 3.956067800811 -3.956067800811 3.956067800811 0.000000000000" Properties=species:S:1:pos:R:3 pbc="T T T" time_fs=42.5723641464
Al -0.0923960962 0.1344184327 0.0450083954
Al -2.0120373721 -0.0752852326 2.1059136405
Al -0.0761672494 1.8592746253 1.9170060220
Al -1.9384047935 2.0243138132 3.9660536905
Al -1.9415309487 2.0654178158 -0.0521213112
Al -3.8469507887 1.9532722454 1.8732714974
Al -1.9916910721 3.9013572532 2.0174812687
Al -3.9250928826 3.9615022504 3.9516579997
8
Lattice="-3.956067800811 0.000000000000 3.956067800811 0.000000000000 3.956067800811 3.956067800811 -3.956067800811 3.956067800811 0.000000000000" Properties=species:S:1:pos:R:3 pbc="T T T" time_fs=43.539917877
Al -0.0934182373 0.1336964578 0.0419928847
Al -2.0166145892 -0.0788576050 2.1083134043
Al -0.0754351965 1.8611401139 1.9196774399
Al -1.9369847519 2.0252861181 3.9684117926
Al -1.9441935141 2.0674182339 -0.0553613659
Al -3.8450025772 1.9514618340 1.8698900612
Al -1.9900395451 3.9022019603 2.0176314114
Al -3.9225827916 3.9619240898 3.9537155743
8
Lattice="-3.956067800811 0.000000000000 3.956067800811 0.000000000000 3.956067800811 3.956067800811 -3.956067800811 3.956067800811 0.000000000000" Properties=species:S:1:pos:R:3 pbc="T T T" time_fs=44.507471607599996
Al -0.0943144057 0.1327703471 0.0389079466
Al -2.0211206387 -0.0822588908 2.1104677784
Al -0.0746201975 1.8631877401 1.9224632217
Al -1.9356315223 2.0261578931 3.9707735947
Al -1.9468974508 2.0692339934 -0.0584865151
Al -3.8432185022 1.9497111763 1.8666892118
Al -1.9883569334 3.9031589493 2.0176859482
Al -3.9201115524 3.9623099947 3.9557700173
8
Lattice="-3.956067800811 0.000000000000 3.956067800811 0.000000000000 3.956067800811 3.956067800811 -3.956067800811 3.956067800811 0.000000000000" Properties=species:S:1:pos:R:3 pbc="T T T" time_fs=45.4750253382
Al -0.0951624427 0.1315789250 0.0355163139
Al -2.0259114166 -0.0857573235 2.1125508680
Al -0.0736654199 1.8655687035 1.9255777623
Al -1.9342366271 2.0269988767 3.9733270256
Al -1.9498517781 2.0710094787 -0.0617432154
Al -3.8414500948 1.9478829904 1.8634116184
Al -1.9865115203 3.9043014712 2.0176492572
Al -3.9174819042 3.9626880821 3.9579815735
8
Lattice="-3.956067800811 0.000000000000 3.956067800811 0.000000000000 3.956067800811 3.956067800811 -3.956067800811 3.956067800811 0.000000000000" Properties=species:S:1:pos:R:3 pbc="T T T" time_fs=46.4425790688
Al -0.0958925880 0.1302144693 0.0320901606
Al -2.0305993039 -0.0890599743 2.1143815704
Al -0.0726487797 1.8680957724 1.9287754475
Al -1.9329148308 2.0277350436 3.9758703247
Al -1.9528191174 2.0725896188 -0.0648623082
Al -3.8398429003 1.9461289494 1.8603279066
Al -1.9846493802 3.9055446659 2.0175167578
Al -3.9149043029 3.9630226578 3.9601713433
8
Lattice="-3.956067800811 0.000000000000 3.956067800811 0.000000000000 3.956067800811 3.956067800811 -3.956067800811 3.956067800811 0.000000000000" Properties=species:S:1:pos:R:3 pbc="T T T" time_fs=47.410132799399996
Al -0.0965015526 0.1287070762 0.0286824165
Al -2.0351204418 -0.0921212425 2.1159384422
Al -0.0715912800 1.8707244734 1.9320074299
Al -1.9316827274 2.0283570506 3.9783703043
Al -1.9557546922 2.0739535934 -0.0678008698
Al -3.8384115993 1.9444741413 1.8574759667
Al -1.9827970626 3.9068694830 2.0172900735
Al -3.9124118469 3.9633066283 3.9623074399
8
Lattice="-3.956067800811 0.000000000000 3.956067800811 0.000000000000 3.956067800811 3.956067800811 -3.956067800811 3.956067800811 0.000000000000" Properties=species:S:1:pos:R:3 pbc="T T T" time_fs=48.37768653
Al -0.0970179089 0.1270172426 0.0251813495
Al -2.0396325428 -0.0950488841 2.1172816067
Al -0.0704636148 1.8735348011 1.9353797677
Al -1.9304955399 2.0288882729 3.9809149991
Al -1.9587559432 2.0751516276 -0.0706619186
Al -3.8370980815 1.9428615954 1.8547510343
Al -1.9808917871 3.9083186416 2.0169622615
Al -3.9099157861 3.9635479069 3.9644621043
8
Lattice="-3.956067800811 0.000000000000 3.956067800811 0.000000000000 3.956067800811 3.956067800811 -3.956067800811 3.956067800811 0.000000000000" Properties=species:S:1:pos:R:3 pbc="T T T" time_fs=49.3452402606
Al -0.0974538169 0.1251223126 0.0215316305
Al -2.0442108831 -0.0978879716 2.1184312020
Al -0.0692514807 1.8765694817 1.9389479205
Al -1.9293333655 2.0293357944 3.9835495610
Al -1.9618708877 2.0762002119 -0.0734911124
Al -3.8358769142 1.9412666778 1.8521071855
Al -1.9789014368 3.9099177495 2.0165249024
Al -3.9073724182 3.9637469474 3.9666699134
8
Lattice="-3.956067800811 0.000000000000 3.956067800811 0.000000000000 3.956067800811 3.956067800811 -3.956067800811 3.956067800811 0.000000000000" Properties=species:S:1:pos:R:3 pbc="T T T" time_fs=50.312793991199996
Al -0.0978178369 0.1229944328 0.0176771778
Al -2.0489271635 -0.1006765769 2.1193986509
Al -0.0679390315 1.8798756633 1.9427700967
Al -1.9281788069 2.0297029219 3.9863191111
Al -1.9651476896 2.0771089329 -0.0763293030
Al -3.8347277129 1.9396676317 1.8495050641
Al -1.9767933650 3.9116959624 2.0159659484
Al -3.9047395966 3.9639022353 3.9689644568
8
Lattice="-3.956067800811 0.000000000000 3.956067800811 0.000000000000 3.956067800811 3.956067800811 -3.956067800811 3.956067800811 0.000000000000" Properties=species:S:1:pos:R:3 pbc="T T T" time_fs=51.2803477218
Al -0.0980928592 0.1207338284 0.0138013146
Al -2.0535562839 -0.1032726424 2.1201271473
Al -0.0665910291 1.8832984563 1.9466690998
Al -1.9270885929 2.0299665534 3.9890965634
Al -1.9684305478 2.0778243696 -0.0790362487
Al -3.8337059536 1.9381450128 1.8470731980
Al -1.9746656327 3.9135750816 2.0153046240
Al -3.9021403046 3.9640005444 3.9712355060
8
Lattice="-3.956067800811 0.000000000000 3.956067800811 0.000000000000 3.956067800811 3.956067800811 -3.956067800811 3.956067800811 0.000000000000" Properties=species:S:1:pos:R:3 pbc="T T T" time_fs=52.2479014524
Al -0.0982764156 0.1183980520 0.0099957257
Al -2.0579926171 -0.1056141495 2.1205990338
Al -0.0652429693 1.8867551208 1.9505550914
Al -1.9260873996 2.0301191797 3.9918212339
Al -1.9716423127 2.0783278556 -0.0815489887
Al -3.8328309782 1.9367359061 1.8448661833
Al -1.9725667567 3.9155132434 2.0145532682
Al -3.8996317548 3.9640359951 3.9734296555
8
Lattice="-3.956067800811 0.000000000000 3.956067800811 0.000000000000 3.956067800811 3.956067800811 -3.956067800811 3.956067800811 0.000000000000" Properties=species:S:1:pos:R:3 pbc="T T T" time_fs=53.215455182999996
Al -0.0983724028 0.1160116206 0.0062907602
Al -2.0622062621 -0.1076857551 2.1208147364
Al -0.0639095118 1.8902146783 1.9543984105
Al -1.9251809497 2.0301602631 3.9944761783
Al -1.9747579993 2.0786175501 -0.0838513145
Al -3.8321029074 1.9354511419 1.8428956640
Al -1.9705120076 3.9174957414 2.0137165314
Al -3.8972291629 3.9640059634 3.9755302385
8
Lattice="-3.956067800811 0.000000000000 3.956067800811 0.000000000000 3.956067800811 3.956067800811 -3.956067800811 3.956067800811 0.000000000000" Properties=species:S:1:pos:R:3 pbc="T T T" time_fs=54.1830089136
Al -0.0983877468 0.1135391775 0.0026224659
Al -2.0662752693 -0.1095273846 2.1207831401
Al -0.0625713940 1.8937332877 1.9582664554
Al -1.9243512658 2.0300915786 3.9971115896
Al -1.9778319467 2.0787015979 -0.0859873498
Al -3.8315023506 1.9342679247 1.8411214431
Al -1.9684646993 3.9195570406 2.0127791498
Al -3.8948865302 3.9639079811 3.9775743091
8
Lattice="-3.956067800811 0.000000000000 3.956067800811 0.000000000000 3.956067800811 3.956067800811 -3.956067800811 3.956067800811 0.000000000000" Properties=species:S:1:pos:R:3 pbc="T T T" time_fs=55.1505626442
Al -0.0983258708 0.1109463082 -0.0010647001
Al -2.0702638054 -0.1111665686 2.1205036423
Al -0.0612115511 1.8973628862 1.9622202188
Al -1.9235851024 2.0299107222 3.9997715448
Al -1.9809109143 2.0785801925 -0.0879907180
Al -3.8310164557 1.9331698030 1.8395147479
Al -1.9663925067 3.9217306411 2.0117238066
Al -3.8925649973 3.9637372186 3.9795926605
8
Lattice="-3.956067800811 0.000000000000 3.956067800811 0.000000000000 3.956067800811 3.956067800811 -3.956067800811 3.956067800811 0.000000000000" Properties=species:S:1:pos:R:3 pbc="T T T" time_fs=56.118116374799996
Al -0.0981894956 0.1082865746 -0.0046954197
Al -2.0740905319 -0.1125653444 2.1199770268
Al -0.0598606315 1.9010299430 1.9661827425
Al -1.9228989023 2.0296177283 4.0024059109
Al -1.9839319113 2.0782508511 -0.0898190377
Al -3.8306539905 1.9321826667 1.8381102995
Al -1.9643362696 3.9239764178 2.0105666659
Al -3.8903094710 3.9634923657 3.9815430149
8
Lattice="-3.956067800811 0.000000000000 3.956067800811 0.000000000000 3.956067800811 3.956067800811 -3.956067800811 3.956067800811 0.000000000000" Properties=species:S:1:pos:R:3 pbc="T T T" time_fs=57.0856701054
Al -0.0979722446 0.1053897534 -0.0085047779
Al -2.0780045321 -0.1138132990 2.1191683820
Al -0.0584342048 1.9049711447 1.9704133804
Al -1.9222480797 2.0291917077 4.0051890268
Al -1.9870905193 2.0776908226 -0.0915916361
Al -3.8303887642 1.9312447634 1.8368165688
Al -1.9621617307 3.9264423507 2.0092292519
Al -3.8879711279 3.9631539593 3.9835510069
8
Lattice="-3.956067800811 0.000000000000 3.956067800811 0.000000000000 3.956067800811 3.956067800811 -3.956067800811 3.956067800811 0.000000000000" Properties=species:S:1:pos:R:3 pbc="T T T" time_fs=58.053223836
Al -0.0976738210 0.1022804989 -0.0124534427
Al -2.0819596180 -0.1148820469 2.1180683740
Al -0.0569495831 1.9091513285 1.9748763040
Al -1.9216439141 2.0286271013 4.0080971647
Al -1.9903532554 2.0768903970 -0.0932816691
Al -3.8302285625 1.9303747354 1.8356585344
Al -1.9598891597 3.9291129046 2.0077134481
Al -3.8855732891 3.9627162841 3.9855924898
8
Lattice="-3.956067800811 0.000000000000 3.956067800811 0.000000000000 3.956067800811 3.956067800811 -3.956067800811 3.956067800811 0.000000000000" Properties=species:S:1:pos:R:3 pbc="T T T" time_fs=59.020777566599996
Al -0.0973204777 0.0992485381 -0.0161675349
Al -2.0855758239 -0.1156563918 2.1167653149
Al -0.0555502998 1.9131796199 1.9791566625
Al -1.9211478387 2.0279679420 4.0108599760
Al -1.9934102549 2.0759114466 -0.0947217921
Al -3.8301928447 1.9296637074 1.8347565478
Al -1.9577317042 3.9317445996 2.0061513184
Al -3.8833419589 3.9622117411 3.9874707106
8
Lattice="-3.956067800811 0.000000000000 3.956067800811 0.000000000000 3.956067800811 3.956067800811 -3.956067800811 3.956067800811 0.000000000000" Properties=species:S:1:pos:R:3 pbc="T T T" time_fs=59.9883312972
Al -0.0968890883 0.0960617170 -0.0199374748
Al -2.0891395598 -0.1162042997 2.1151664230
Al -0.0541301715 1.9173671382 1.9835893340
Al -1.9207187659 2.0271650094 4.0136957388
Al -1.9965006089 2.0746846182 -0.0960312213
Al -3.8302727715 1.9290551348 1.8340338260
Al -1.9555205974 3.9345414936 2.0044218312
Al -3.8810996395 3.9616003917 3.9893327458
8
Lattice="-3.956067800811 0.000000000000 3.956067800811 0.000000000000 3.956067800811 3.956067800811 -3.956067800811 3.956067800811 0.000000000000" Properties=species:S:1:pos:R:3 pbc="T T T" time_fs=60.9558850278
Al -0.0963752607 0.0926950369 -0.0237878840
Al -2.0926686836 -0.1165177433 2.1132483536
Al -0.0526831345 1.9217454039 1.9882105474
Al -1.9203577213 2.0262045810 4.0166274509
Al -1.9996434290 2.0731906040 -0.0972129779
Al -3.8304724623 1.9285533701 1.8334952244
Al -1.9532397617 3.9375301304 2.0025032906
Al -3.8788307492 3.9608698199 3.9911871969
8
Lattice="-3.956067800811 0.000000000000 3.956067800811 0.000000000000 3.956067800811 3.956067800811 -3.956067800811 3.956067800811 0.000000000000" Properties=species:S:1:pos:R:3 pbc="T T T" time_fs=61.923438758399996
Al -0.0958327869 0.0895111539 -0.0272975771
Al -2.0957700600 -0.1165483134 2.1112052159
Al -0.0513709670 1.9258408009 1.9925233674
Al -1.9201090038 2.0251815395 4.0193392321
Al -2.0024935654 2.0715792193 -0.0981308607
Al -3.8307750537 1.9282233249 1.8332117021
Al -1.9511369016 3.9403933641 2.0005933019
Al -3.8767828653 3.9600901149 3.9928268221
8
Lattice="-3.956067800811 0.000000000000 3.956067800811 0.000000000000 3.956067800811 3.956067800811 -3.956067800811 3.956067800811 0.000000000000" Properties=species:S:1:pos:R:3 pbc="T T T" time_fs=62.890992489
Al -0.0952489900 0.0864100399 -0.0305842886
Al -2.0985529610 -0.1163112255 2.1089855331
Al -0.0501522987 1.9297845870 1.9966699053
Al -1.9199603165 2.0240677003 4.0219221674
Al -2.0051467873 2.0698106180 -0.0988264091
Al -3.8311826679 1.9280500064 1.8331631667
Al -1.9491424485 3.9432215182 1.9986334564
Al -3.8748847341 3.9592379597 3.9943076720
8
Lattice="-3.956067800811 0.000000000000 3.956067800811 0.000000000000 3.956067800811 3.956067800811 -3.956067800811 3.956067800811 0.000000000000" Properties=species:S:1:pos:R:3 pbc="T T T" time_fs=63.8585462196
Al -0.0945840952 0.0831685368 -0.0338872824
Al -2.1012210111 -0.1157949970 2.1064350728
Al -0.0489410469 1.9338613719 2.0009526545
Al -1.9198996637 2.0227832798 4.0245653025
Al -2.0077958772 2.0677621222 -0.0993556657
Al -3.8317213490 1.9280211022 1.8333426761
Al -1.9471115172 3.9462191815 1.9964816138
Al -3.8729966430 3.9582506051 3.9957368316
8
Lattice="-3.956067800811 0.000000000000 3.956067800811 0.000000000000 3.956067800811 3.956067800811 -3.956067800811 3.956067800811 0.000000000000" Properties=species:S:1:pos:R:3 pbc="T T T" time_fs=64.8260999502
Al -0.0938072454 0.0796453811 -0.0373433526
Al -2.1038757478 -0.1149634292 2.1034319387
Al -0.0476906533 1.9382460745 2.0055582845
Al -1.9199301001 2.0212640457 4.0273823848
Al -2.0105488153 2.0653349955 -0.0997334243
Al -3.8324196583 1.9281467350 1.8337715581
Al -1.9449584237 3.9495207104 1.9940356372
Al -3.8710405597 3.9570766907 3.9971681768
8
Lattice="-3.956067800811 0.000000000000 3.956067800811 0.000000000000 3.956067800811 3.956067800811 -3.956067800811 3.956067800811 0.000000000000" Properties=species:S:1:pos:R:3 pbc="T T T" time_fs=65.79365368079999
Al -0.0930562005 0.0764836921 -0.0403089057
Al -2.1060073345 -0.1139442001 2.1005050965
Al -0.0466386067 1.9421334491 2.0096441493
Al -1.9200557571 2.0197740960 4.0298552191
Al -2.0128902228 2.0629554698 -0.0998749961
Al -3.8331597508 1.9284220928 1.8343946297
Al -1.9430814310 3.9525286642 1.9917293561
Al -3.8693818996 3.9559179386 3.9983266539
8
Lattice="-3.956067800811 0.000000000000 3.956067800811 0.000000000000 3.956067800811 3.956067800811 -3.956067800811 3.956067800811 0.000000000000" Properties=species:S:1:pos:R:3 pbc="T T T" time_fs=66.7612074114
Al -0.0922294227 0.0732304308 -0.0432219278
Al -2.1079434954 -0.1126195631 2.0972606854
Al -0.0456299285 1.9460845390 2.0138024085
Al -1.9202855840 2.0181111151 4.0323442152
Al -2.0151672171 2.0603046788 -0.0998227178
Al -3.8340358038 1.9288736569 1.8352788508
Al -1.9412065060 3.9556702235 1.9892412882
Al -3.8677732453 3.9546161209 3.9993884008
8
Lattice="-3.956067800811 0.000000000000 3.956067800811 0.000000000000 3.956067800811 3.956067800811 -3.956067800811 3.956067800811 0.000000000000" Properties=species:S:1:pos:R:3 pbc="T T T" time_fs=67.728761142
Al -0.0912946106 0.0697656821 -0.0461829523
Al -2.1097410333 -0.1109298383 2.0935717471
Al -0.0446334805 1.9502419034 2.0181859896
Al -1.9206333216 2.0162067645 4.0349387650
Al -2.0174564001 2.0572784456 -0.0995684028
Al -3.8350847627 1.9295288640 1.8364691394
Al -1.9392676902 3.9590635304 1.9864728082
Al -3.8661599043 3.9531158511 4.0003841087
8
Lattice="-3.956067800811 0.000000000000 3.956067800811 0.000000000000 3.956067800811 3.956067800811 -3.956067800811 3.956067800811 0.000000000000" Properties=species:S:1:pos:R:3 pbc="T T T" time_fs=68.6963148726
Al -0.0903317927 0.0664001378 -0.0489144929
Al -2.1112143889 -0.1090064452 2.0897543956
Al -0.0437475642 1.9542276595 2.0223997521
Al -1.9210767378 2.0142202409 4.0374014556
Al -2.0195401528 2.0541353165 -0.0991220618
Al -3.8362213220 1.9303461232 1.8378799037
Al -1.9374442642 3.9624079047 1.9836613226
Al -3.8646949807 3.9515402656 4.0012109280
8
Lattice="-3.956067800811 0.000000000000 3.956067800811 0.000000000000 3.956067800811 3.956067800811 -3.956067800811 3.956067800811 0.000000000000" Properties=species:S:1:pos:R:3 pbc="T T T" time_fs=69.6638686032
Al -0.0893196731 0.0630562960 -0.0514800187
Al -2.1123966387 -0.1068100957 2.0857272029
Al -0.0429535533 1.9581329381 2.0265423145
Al -1.9216257764 2.0121064114 4.0397888302
Al -2.0214661976 2.0508084941 -0.0984783135
Al -3.8374701865 1.9313456660 1.8395425211
Al -1.9356946204 3.9657793139 1.9807422755
Al -3.8633445572 3.9498521798 4.0018863918
8
Lattice="-3.956067800811 0.000000000000 3.956067800811 0.000000000000 3.956067800811 3.956067800811 -3.956067800811 3.956067800811 0.000000000000" Properties=species:S:1:pos:R:3 pbc="T T T" time_fs=70.6314223338
Al -0.0882397010 0.0596748731 -0.0539219676
Al -2.1133010769 -0.1043003006 2.0814200289
Al -0.0422410101 1.9620249319 2.0306873343
Al -1.9222924703 2.0098253486 4.0421412129
Al -2.0232649346 2.0472400470 -0.0976258936
Al -3.8388549796 1.9325509565 1.8414915214
Al -1.9339897308 3.9692372317 1.9776615181
Al -3.8620872991 3.9480181143 4.0024174480
8
Lattice="-3.956067800811 0.000000000000 3.956067800811 0.000000000000 3.956067800811 3.956067800811 -3.956067800811 3.956067800811 0.000000000000" Properties=species:S:1:pos:R:3 pbc="T T T" time_fs=71.59897606439999
Al -0.0871380078 0.0564059423 -0.0561260125
Al -2.1138743345 -0.1015819005 2.0770214912
Al -0.0416467525 1.9657276942 2.0346499795
Al -1.9230515879 2.0074734592 4.0443506147
Al -2.0248499522 2.0435860894 -0.0965991939
Al -3.8403180450 1.9339178032 1.8436503698
Al -1.9324086001 3.9726283425 1.9745513969
Al -3.8609839237 3.9461137733 4.0027725577
8
Lattice="-3.956067800811 0.000000000000 3.956067800811 0.000000000000 3.956067800811 3.956067800811 -3.956067800811 3.956067800811 0.000000000000" Properties=species:S:1:pos:R:3 pbc="T T T" time_fs=72.566529795
Al -0.0859970339 0.0531957321 -0.0581292758
Al -2.1141257541 -0.0986166932 2.0724673557
Al -0.0411618561 1.9693014765 2.0384962308
Al -1.9239149245 2.0050139450 4.0464522211
Al -2.0262474679 2.0397935398 -0.0953868091
Al -3.8418818727 1.9354690268 1.8460524285
Al -1.9309257369 3.9760060411 1.9713625609
Al -3.8600165571 3.9441081355 4.0029564915
8
Lattice="-3.956067800811 0.000000000000 3.956067800811 0.000000000000 3.956067800811 3.956067800811 -3.956067800811 3.956067800811 0.000000000000" Properties=species:S:1:pos:R:3 pbc="T T T" time_fs=73.5340835256
Al -0.0847261827 0.0497909455 -0.0600880413
Al -2.1140700752 -0.0951725354 2.0674027597
Al -0.0407502518 1.9730265748 2.0425293486
Al -1.9249517937 2.0022524696 4.0486092398
Al -2.0275653469 2.0355670095 -0.0938951524
Al -3.8436704220 1.9373305680 1.8488895834
Al -1.9294258674 3.9796348602 1.9678434135
Al -3.8591112640 3.9418413110 4.0029800523
8
Lattice="-3.956067800811 0.000000000000 3.956067800811 0.000000000000 3.956067800811 3.956067800811 -3.956067800811 3.956067800811 0.000000000000" Properties=species:S:1:pos:R:3 pbc="T T T" time_fs=74.5016372562
Al -0.0834149583 0.0464454817 -0.0618420779
Al -2.1136822544 -0.0914863225 2.0621931470
Al -0.0404523041 1.9766185570 2.0464446614
Al -1.9260950589 1.9993837065 4.0506523190
Al -2.0286906468 2.0312109895 -0.0922224679
Al -3.8455605675 1.9393832066 1.8519740511
Al -1.9280281519 3.9832450633 1.9642467145
Al -3.8583472614 3.9394705215 4.0028248565
8
Lattice="-3.956067800811 0.000000000000 3.956067800811 0.000000000000 3.956067800811 3.956067800811 -3.956067800811 3.956067800811 0.000000000000" Properties=species:S:1:pos:R:3 pbc="T T T" time_fs=75.4691909868
Al -0.0821129835 0.0432882813 -0.0633220247
Al -2.1129722399 -0.0877026633 2.0570447662
Al -0.0402812180 1.9799372216 2.0500905477
Al -1.9273017470 1.9965187071 4.0524992262
Al -2.0295776751 2.0268980927 -0.0904355200
Al -3.8474800453 1.9415510807 1.8551890118
Al -1.9267883930 3.9866944957 1.9607120803
Al -3.8577569018 3.9370859874 4.0024931161
8
Lattice="-3.956067800811 0.000000000000 3.956067800811 0.000000000000 3.956067800811 3.956067800811 -3.956067800811 3.956067800811 0.000000000000" Properties=species:S:1:pos:R:3 pbc="T T T" time_fs=76.4367447174
Al -0.0808030258 0.0402737588 -0.0645546899
Al -2.1119390799 -0.0837818745 2.0518981111
Al -0.0402314087 1.9830316911 2.0535207030
Al -1.9285850946 1.9936233145 4.0541762132
Al -2.0302441982 2.0225789473 -0.0885191011
Al -3.8494516632 1.9438590499 1.8585704006
Al -1.9256873905 3.9900279278 1.9571955704
Al -3.8573293426 3.9346583879 4.0019839959
8
Lattice="-3.956067800811 0.000000000000 3.956067800811 0.000000000000 3.956067800811 3.956067800811 -3.956067800811 3.956067800811 0.000000000000" Properties=species:S:1:pos:R:3 pbc="T T T" time_fs=77.40429844799999
Al -0.0795844141 0.0376290543 -0.0654505367
Al -2.1106660118 -0.0800304893 2.0471527575
Al -0.0403045165 1.9856692204 2.0564769028
Al -1.9298457253 1.9909212158 4.0555553274
Al -2.0306429706 2.0185892668 -0.0866253991
Al -3.8513236642 1.9461293051 1.8618565534
Al -1.9248077537 3.9929894418 1.9539678444
Al -3.8570961467 3.9323741884 4.0013377532
8
Lattice="-3.956067800811 0.000000000000 3.956067800811 0.000000000000 3.956067800811 3.956067800811 -3.956067800811 3.956067800811 0.000000000000" Properties=species:S:1:pos:R:3 pbc="T T T" time_fs=78.3718521786
Al -0.0783191430 0.0350399915 -0.0661360516
Al -2.1090405142 -0.0760414872 2.0422766983
Al -0.0404962900 1.9881706488 2.0593151761
Al -1.9312185785 1.9881115254 4.0568071510
Al -2.0308412345 2.0144827675 -0.0845558174
Al -3.8533025415 1.9486052524 1.8654022096
Al -1.9240367801 3.9959228581 1.9506640483
Al -3.8570161218 3.9299796470 4.0004977890
8
Lattice="-3.956067800811 0.000000000000 3.956067800811 0.000000000000 3.956067800811 3.956067800811 -3.956067800811 3.956067800811 0.000000000000" Properties=species:S:1:pos:R:3 pbc="T T T" time_fs=79.3394059092
Al -0.0770543656 0.0326063329 -0.0665830485
Al -2.1071209418 -0.0719706903 2.0374626444
Al -0.0407998336 1.9904380169 2.0619244853
Al -1.9326517563 1.9853039104 4.0578789776
Al -2.0308294363 2.0104219790 -0.0823914369
Al -3.8553129297 1.9511938639 1.8690725983
Al -1.9234061972 3.9987110662 1.9474137366
Al -3.8570957424 3.9275667249 3.9994932461
8
Lattice="-3.956067800811 0.000000000000 3.956067800811 0.000000000000 3.956067800811 3.956067800811 -3.956067800811 3.956067800811 0.000000000000" Properties=species:S:1:pos:R:3 pbc="T T T" time_fs=80.3069596398
Al -0.0757996836 0.0303439100 -0.0667950653
Al -2.1049319918 -0.0678600431 2.0327562664
Al -0.0412082394 1.9924585283 2.0642883885
Al -1.9341309728 1.9825252254 4.0587634736
Al -2.0306140976 2.0064459572 -0.0801566297
Al -3.8573364347 1.9538695733 1.8728315661
Al -1.9229182459 4.0013302723 1.9442466686
Al -3.8573315371 3.9251577803 3.9983365350
8
Lattice="-3.956067800811 0.000000000000 3.956067800811 0.000000000000 3.956067800811 3.956067800811 -3.956067800811 3.956067800811 0.000000000000" Properties=species:S:1:pos:R:3 pbc="T T T" time_fs=81.2745133704
Al -0.0746332058 0.0283895907 -0.0667681506
Al -2.1026233394 -0.0639773358 2.0284590040
Al -0.0416901094 1.9941130140 2.0662649784
Al -1.9355600156 1.9799542730 4.0594080350
Al -2.0302172427 2.0028099891 -0.0779992534
Al -3.8592435501 1.9564583453 1.8764352677
Al -1.9225993896 4.0036159767 1.9413649386
Al -3.8577043498 3.9229073494 3.9971063827
8
Lattice="-3.956067800811 0.000000000000 3.956067800811 0.000000000000 3.956067800811 3.956067800811 -3.956067800811 3.956067800811 0.000000000000" Properties=species:S:1:pos:R:3 pbc="T T T" time_fs=82.242067101
Al -0.0733883780 0.0264497906 -0.0665235932
Al -2.0998983908 -0.0597838569 2.0239593748
Al -0.0423008856 1.9956603104 2.0681573638
Al -1.9371349938 1.9772287627 4.0599199905
Al -2.0296048711 1.9989977291 -0.0756252060
Al -3.8613012929 1.9593149756 1.8803807325
Al -1.9223905286 4.0059039820 1.9383574144
Al -3.8582518620 3.9204995101 3.9956451263
8
Lattice="-3.956067800811 0.000000000000 3.956067800811 0.000000000000 3.956067800811 3.956067800811 -3.956067800811 3.956067800811 0.000000000000" Properties=species:S:1:pos:R:3 pbc="T T T" time_fs=83.20962083159999
Al -0.0722012432 0.0247424317 -0.0660831566
Al -2.0970519249 -0.0557466636 2.0197631990
Al -0.0429736770 1.9969234160 2.0697490774
Al -1.9386827025 1.9746541245 4.0602340920
Al -2.0288403662 1.9954380914 -0.0732977793
Al -3.8632825533 1.9621251351 1.8842328657
Al -1.9223192410 4.0079324162 1.9355628576
Al -3.8589194944 3.9182022516 3.9941100470
8
Lattice="-3.956067800811 0.000000000000 3.956067800811 0.000000000000 3.956067800811 3.956067800811 -3.956067800811 3.956067800811 0.000000000000" Properties=species:S:1:pos:R:3 pbc="T T T" time_fs=84.1771745622
Al -0.0710253313 0.0231900307 -0.0654489717
Al -2.0939989818 -0.0517212146 2.0157093254
Al -0.0437238001 1.9979687195 2.0711174338
Al -1.9402571356 1.9721346350 4.0603736154
Al -2.0279115962 1.9919953147 -0.0709371929
Al -3.8652603297 1.9649861444 1.8881276536
Al -1.9223725126 4.0097865642 1.9328737704
Al -3.8597215163 3.9159310094 3.9924555696
8
Lattice="-3.956067800811 0.000000000000 3.956067800811 0.000000000000 3.956067800811 3.956067800811 -3.956067800811 3.956067800811 0.000000000000" Properties=species:S:1:pos:R:3 pbc="T T T" time_fs=85.1447282928
Al -0.0698027252 0.0217107276 -0.0646016037
Al -2.0906068297 -0.0475211939 2.0116043472
Al -0.0445803346 1.9988569002 2.0723369234
Al -1.9419308799 1.9695521982 4.0603501215
Al -2.0267841081 1.9885059600 -0.0684360149
Al -3.8673281715 1.9680291201 1.8922452828
Al -1.9225473823 4.0115580776 1.9301623464
Al -3.8606907719 3.9135794131 3.9906098001
8
Lattice="-3.956067800811 0.000000000000 3.956067800811 0.000000000000 3.956067800811 3.956067800811 -3.956067800811 3.956067800811 0.000000000000" Properties=species:S:1:pos:R:3 pbc="T T T" time_fs=86.1122820234
Al -0.0685683145 0.0203475770 -0.0635685470
Al -2.0869804345 -0.0432780537 2.0075768744
Al -0.0455141625 1.9995627221 2.0733703135
Al -1.9436527330 1.9669885646 4.0601611833
Al -2.0254941966 1.9850800729 -0.0658724264
Al -3.8694236112 1.9711600510 1.8964592839
Al -1.9228387246 4.0131893431 1.9275148786
Al -3.8617990267 3.9112209265 3.9886296430
8
Lattice="-3.956067800811 0.000000000000 3.956067800811 0.000000000000 3.956067800811 3.956067800811 -3.956067800811 3.956067800811 0.000000000000" Properties=species:S:1:pos:R:3 pbc="T T T" time_fs=87.079835754
Al -0.0672534481 0.0190213773 -0.0623017033
Al -2.0829335813 -0.0387680296 2.0034109016
Al -0.0465698756 2.0001318653 2.0742789222
Al -1.9455137350 1.9643082611 4.0597985384
Al -2.0239795563 1.9815347910 -0.0631121727
Al -3.8716592911 1.9745433182 1.9009925728
Al -1.9232587901 4.0147688764 1.9247906278
Al -3.8631029261 3.9087307440 3.9864135171
8
Lattice="-3.956067800811 0.000000000000 3.956067800811 0.000000000000 3.956067800811 3.956067800811 -3.956067800811 3.956067800811 0.000000000000" Properties=species:S:1:pos:R:3 pbc="T T T" time_fs=88.0473894846
Al -0.0658887689 0.0177658555 -0.0608321159
Al -2.0785679382 -0.0341097230 1.9992181668
Al -0.0477179881 2.0005486232 2.0750357619
Al -1.9474668014 1.9615840000 4.0592648550
Al -2.0222784899 1.9779661001 -0.0602268696
Al -3.8739791317 1.9780918627 1.9057294062
Al -1.9237991463 4.0162494668 1.9220650099
Al -3.8645729392 3.9061750178 3.9840169894
8
Lattice="-3.956067800811 0.000000000000 3.956067800811 0.000000000000 3.956067800811 3.956067800811 -3.956067800811 3.956067800811 0.000000000000" Properties=species:S:1:pos:R:3 pbc="T T T" time_fs=89.01494321519999
Al -0.0645683858 0.0166668234 -0.0592677613
Al -2.0741981334 -0.0296383749 1.9952994510
Al -0.0488721618 2.0007871626 2.0755881295
Al -1.9493724463 1.9590130975 4.0585956968
Al -2.0205158243 1.9746310503 -0.0574240470
Al -3.8762188155 1.9815505353 1.9103309112
Al -1.9244206580 4.0175227478 1.9195358736
Al -3.8661047777 3.9037381607 3.9816129487
8
Lattice="-3.956067800811 0.000000000000 3.956067800811 0.000000000000 3.956067800811 3.956067800811 -3.956067800811 3.956067800811 0.000000000000" Properties=species:S:1:pos:R:3 pbc="T T T" time_fs=89.9824969458
Al -0.0632280692 0.0156614042 -0.0575497958
Al -2.0696361649 -0.0251476481 1.9914651676
Al -0.0500780627 2.0008743105 2.0759757553
Al -1.9513173794 1.9564750625 4.0577687920
Al -2.0186221057 1.9713693266 -0.0545766174
Al -3.8784833617 1.9850750859 1.9150072959
Al -1.9251442991 4.0186564219 1.9170819785
Al -3.8677617609 3.9013072398 3.9790986275
8
Lattice="-3.956067800811 0.000000000000 3.956067800811 0.000000000000 3.956067800811 3.956067800811 -3.956067800811 3.956067800811 0.000000000000" Properties=species:S:1:pos:R:3 pbc="T T T" time_fs=90.9500506764
Al -0.0618485908 0.0147309917 -0.0556644509
Al -2.0648348563 -0.0205860017 1.9876675241
Al -0.0513442793 2.0008191269 2.0762088199
Al -1.9533241557 1.9539411187 4.0567757050
Al -2.0165813242 1.9681413672 -0.0516525041
Al -3.8808010826 1.9887043861 1.9198125997
Al -1.9259756252 4.0196653240 1.9146749407
Al -3.8695612891 3.8988548903 3.9764485688
8
Lattice="-3.956067800811 0.000000000000 3.956067800811 0.000000000000 3.956067800811 3.956067800811 -3.956067800811 3.956067800811 0.000000000000" Properties=species:S:1:pos:R:3 pbc="T T T" time_fs=91.917604407
Al -0.0604715421 0.0139005221 -0.0536784005
Al -2.0599566386 -0.0161047889 1.9840298817
Al -0.0526238888 2.0006296676 2.0762830970
Al -1.9553268288 1.9514963685 4.0556483927
Al -2.0144654815 1.9650532045 -0.0487488666
Al -3.8830977046 1.9923168354 1.9245883770
Al -1.9268855841 4.0205159130 1.9123956629
Al -3.8714435339 3.8964634798 3.9737530585
8
Lattice="-3.956067800811 0.000000000000 3.956067800811 0.000000000000 3.956067800811 3.956067800811 -3.956067800811 3.956067800811 0.000000000000" Properties=species:S:1:pos:R:3 pbc="T T T" time_fs=92.8851581376
Al -0.0590939756 0.0131617533 -0.0516007777
Al -2.0550118146 -0.0117057708 1.9805479621
Al -0.0539102249 2.0003165104 2.0762068529
Al -1.9573242316 1.9491414318 4.0543911737
Al -2.0122832793 1.9621022773 -0.0458679386
Al -3.8853743519 1.9959080952 1.9293318527
Al -1.9278693937 4.0212123008 1.9102434331
Al -3.8734039321 3.8941346060 3.9710186454
8
Lattice="-3.956067800811 0.000000000000 3.956067800811 0.000000000000 3.956067800811 3.956067800811 -3.956067800811 3.956067800811 0.000000000000" Properties=species:S:1:pos:R:3 pbc="T T T" time_fs=93.8527118682
Al -0.0576505703 0.0124732349 -0.0493461992
Al -2.0497862794 -0.0071912313 1.9770596772
Al -0.0552550395 1.9998756672 2.0759845002
Al -1.9594057661 1.9467701762 4.0529512663
Al -2.0099442471 1.9591522629 -0.0428812419
Al -3.8877353609 1.9996365467 1.9342552566
Al -1.9289670458 4.0217900881 1.9081200513
Al -3.8755268945 3.8917644585 3.9681278933
8
Lattice="-3.956067800811 0.000000000000 3.956067800811 0.000000000000 3.956067800811 3.956067800811 -3.956067800811 3.956067800811 0.000000000000" Properties=species:S:1:pos:R:3 pbc="T T T" time_fs=94.82026559879999
Al -0.0561204791 0.0118222909 -0.0468919825
Al -2.0442233669 -0.0025111556 1.9735246339
Al -0.0566681504 1.9993068191 2.0756146062
Al -1.9615955929 1.9443581973 4.0513094926
Al -2.0074255220 1.9561703598 -0.0397552616
Al -3.8902101286 2.0035422256 1.9394146360
Al -1.9301905809 4.0222536550 1.9060045658
Al -3.8778373825 3.8893288112 3.9650505128
8
Lattice="-3.956067800811 0.000000000000 3.956067800811 0.000000000000 3.956067800811 3.956067800811 -3.956067800811 3.956067800811 0.000000000000" Properties=species:S:1:pos:R:3 pbc="T T T" time_fs=95.7878193294
Al -0.0544926577 0.0112018647 -0.0442305261
Al -2.0383030157 0.0023511979 1.9699290790
Al -0.0581492726 1.9986116086 2.0750953605
Al -1.9639030517 1.9418993543 4.0494550040
Al -2.0047203877 1.9531465034 -0.0364780123
Al -3.8928113163 2.0076379509 1.9448305197
Al -1.9315451725 4.0226011473 1.9038930953
Al -3.8803463290 3.8868215757 3.9617766828
8
Lattice="-3.956067800811 0.000000000000 3.956067800811 0.000000000000 3.956067800811 3.956067800811 -3.956067800811 3.956067800811 0.000000000000" Properties=species:S:1:pos:R:3 pbc="T T T" time_fs=96.75537306
Al -0.0528225843 0.0106304107 -0.0414635980
Al -2.0322489221 0.0072118293 1.9664079132
Al -0.0596364874 1.9978201446 2.0744455562
Al -1.9662424989 1.9394894527 4.0474523981
Al -2.0019335710 1.9501958116 -0.0331725693
Al -3.8954447338 2.0117673226 1.9503001715
Al -1.9329805743 4.0228154795 1.9018696916
Al -3.8829618322 3.8843407521 3.9584316407
