
     Program PWSCF v.7.5 starts on 22Sep2026 at 22:43: 8 

     This program is part of the open-source Quantum ESPRESSO suite
     for quantum simulation of materials; please cite
         "P. Giannozzi et al., J. Phys.:Condens. Matter 21 395502 (2009);
         "P. Giannozzi et al., J. Phys.:Condens. Matter 29 465901 (2017);
         "P. Giannozzi et al., J. Chem. Phys. 152 154105 (2020);
          URL http://www.quantum-espresso.org", 
     in publications or presentations arising from this work. More details at
     http://www.quantum-espresso.org/quote

     Parallel version (MPI), running on     4 processors

     MPI processes distributed on     1 nodes
     4501 MiB available memory on the printing compute node when the environment starts

     Reading input from scf.in

     Current dimensions of program PWSCF are:
     Max number of different atomic species (ntypx) = 10
     Max number of k-points (npk) =  40000
     Max angular momentum in pseudopotentials (lmaxx) =  4
     Message from routine setup:
     using ibrav=0 with symmetry is DISCOURAGED, use correct ibrav instead

     R & G space division:  proc/nbgrp/npool/nimage =       4
     Subspace diagonalization in iterative solution of the eigenvalue problem:
     a serial algorithm will be used


     Parallelization info
     --------------------
     sticks:   dense  smooth     PW     G-vecs:    dense   smooth      PW
     Min         321     118     40                 7616     1718     322
     Max         322     119     42                 7618     1721     323
     Sum        1285     475    163                30467     6879    1291

     Using Slab Decomposition



     bravais-lattice index     =            0
     lattice parameter (alat)  =       5.4022  a.u.
     unit-cell volume          =     111.4774 (a.u.)^3
     number of atoms/cell      =            1
     number of atomic types    =            1
     number of electrons       =         3.00
     number of Kohn-Sham states=            6
     kinetic-energy cutoff     =      60.0000  Ry
     charge density cutoff     =     640.0000  Ry
     scf convergence threshold =      1.0E-10
     mixing beta               =       0.7000
     number of iterations used =            8  plain     mixing
     Exchange-correlation= PBE
                           (   1   4   3   4   0   0   0)

     celldm(1)=   5.402158  celldm(2)=   0.000000  celldm(3)=   0.000000
     celldm(4)=   0.000000  celldm(5)=   0.000000  celldm(6)=   0.000000

     crystal axes: (cart. coord. in units of alat)
               a(1) = (  -0.707107   0.000000   0.707107 )  
               a(2) = (   0.000000   0.707107   0.707107 )  
               a(3) = (  -0.707107   0.707107   0.000000 )  

     reciprocal axes: (cart. coord. in units 2 pi/alat)
               b(1) = ( -0.707107 -0.707107  0.707107 )  
               b(2) = (  0.707107  0.707107  0.707107 )  
               b(3) = ( -0.707107  0.707107 -0.707107 )  


     PseudoPot. # 1 for Al read from file:
     ../../pseudo/Al.pbe-n-rrkjus_psl.1.0.0.UPF
     MD5 check sum: bbe9f3f15d9b3b5ab9a58e4859ebdbfe
     Pseudo is Ultrasoft + core correction, Zval =  3.0
     Generated using &quot;atomic&quot; code by A. Dal Corso  v.6.3
     Using radial grid of 1135 points,  6 beta functions with: 
                l(1) =   0
                l(2) =   0
                l(3) =   1
                l(4) =   1
                l(5) =   2
                l(6) =   2
     Q(r) pseudized with 0 coefficients 


     atomic species   valence    mass     pseudopotential
     Al                3.00    26.98154     Al( 1.00)

     48 Sym. Ops., with inversion, found



   Cartesian axes

     site n.     atom                  positions (alat units)
         1        Al     tau(   1) = (   0.0000000   0.0000000   0.0000000  )

     number of k points=   256  Marzari-Vanderbilt smearing, width (Ry)=  0.0100

     Number of k-points >= 100: set verbosity='high' to print them.

     Dense  grid:    30467 G-vectors     FFT dimensions: (  45,  45,  45)

     Smooth grid:     6879 G-vectors     FFT dimensions: (  27,  27,  27)

     Estimated max dynamical RAM per process >      35.37 MB

     Estimated total dynamical RAM >     141.48 MB

     Initial potential from superposition of free atoms

     starting charge       2.9977, renormalised to       3.0000
     Starting wfcs are    4 randomized atomic wfcs +    2 random wfcs

     total cpu time spent up to now is        1.0 secs

     per-process dynamical memory:    23.2 Mb

     Self-consistent Calculation

     iteration #  1     ecut=    60.00 Ry     beta= 0.70
     CG style diagonalization
     ethr =  1.00E-10,  avg # of iterations = 36.1

     total cpu time spent up to now is       22.3 secs

     total energy              =      -5.03971739 Ry
     estimated scf accuracy    <       0.00549413 Ry

     iteration #  2     ecut=    60.00 Ry     beta= 0.70
     CG style diagonalization
     ethr =  1.83E-04,  avg # of iterations =  3.0

     total cpu time spent up to now is       24.2 secs

     total energy              =      -5.03967627 Ry
     estimated scf accuracy    <       0.00039662 Ry

     iteration #  3     ecut=    60.00 Ry     beta= 0.70
     CG style diagonalization
     ethr =  1.32E-05,  avg # of iterations =  3.0

     total cpu time spent up to now is       26.1 secs

     total energy              =      -5.03968620 Ry
     estimated scf accuracy    <       0.00000048 Ry

     iteration #  4     ecut=    60.00 Ry     beta= 0.70
     CG style diagonalization
     ethr =  1.59E-08,  avg # of iterations =  3.7

     total cpu time spent up to now is       28.4 secs

     total energy              =      -5.03969065 Ry
     estimated scf accuracy    <       0.00000067 Ry

     iteration #  5     ecut=    60.00 Ry     beta= 0.70
     CG style diagonalization
     ethr =  1.59E-08,  avg # of iterations =  3.0

     total cpu time spent up to now is       30.3 secs

     total energy              =      -5.03969068 Ry
     estimated scf accuracy    <       0.00000002 Ry

     iteration #  6     ecut=    60.00 Ry     beta= 0.70
     CG style diagonalization
     ethr =  5.41E-10,  avg # of iterations =  3.0

     total cpu time spent up to now is       32.3 secs

     total energy              =      -5.03969067 Ry
     estimated scf accuracy    <       0.00000001 Ry

     iteration #  7     ecut=    60.00 Ry     beta= 0.70
     CG style diagonalization
     ethr =  4.26E-10,  avg # of iterations =  3.0

     total cpu time spent up to now is       34.2 secs

     total energy              =      -5.03969067 Ry
     estimated scf accuracy    <          1.5E-09 Ry

     iteration #  8     ecut=    60.00 Ry     beta= 0.70
     CG style diagonalization
     ethr =  4.86E-11,  avg # of iterations =  3.0

     total cpu time spent up to now is       36.1 secs

     total energy              =      -5.03969067 Ry
     estimated scf accuracy    <          1.1E-10 Ry

     iteration #  9     ecut=    60.00 Ry     beta= 0.70
     CG style diagonalization
     ethr =  3.65E-12,  avg # of iterations =  3.0

     total cpu time spent up to now is       38.0 secs

     End of self-consistent calculation

     Number of k-points >= 100: set verbosity='high' to print the bands.

     the Fermi energy is     7.9494 ev

!    total energy              =      -5.03969067 Ry
     estimated scf accuracy    <          5.3E-11 Ry
     smearing contrib. (-TS)   =      -0.00003854 Ry
     internal energy E=F+TS    =      -5.03965213 Ry

     The total energy is F=E-TS. E is the sum of the following terms:
     one-electron contribution =       2.94570117 Ry
     hartree contribution      =       0.00575743 Ry
     xc contribution           =      -2.58995742 Ry
     ewald contribution        =      -5.40115331 Ry

     convergence has been achieved in   9 iterations

     Forces acting on atoms (cartesian axes, Ry/au):

     atom    1 type  1   force =     0.00000000    0.00000000    0.00000000

     Total force =     0.000000     Total SCF correction =     0.000000


     Computing stress (Cartesian axis) and pressure

          total   stress  (Ry/bohr**3)                   (kbar)     P=       -2.53
  -0.00001722   0.00000000   0.00000000           -2.53        0.00        0.00
   0.00000000  -0.00001722  -0.00000000            0.00       -2.53       -0.00
   0.00000000  -0.00000000  -0.00001722            0.00       -0.00       -2.53


     Writing all to output data dir ./tmp/al-fcc.save/ :
     XML data file, charge density, pseudopotentials, collected wavefunctions

     init_run     :      0.79s CPU      0.83s WALL (       1 calls)
     electrons    :     33.68s CPU     37.02s WALL (       1 calls)
     forces       :      0.17s CPU      0.17s WALL (       1 calls)
     stress       :      0.90s CPU      0.90s WALL (       1 calls)

     Called by init_run:
     wfcinit      :      0.46s CPU      0.49s WALL (       1 calls)
     potinit      :      0.06s CPU      0.06s WALL (       1 calls)
     hinit0       :      0.18s CPU      0.18s WALL (       1 calls)

     Called by electrons:
     c_bands      :     31.17s CPU     34.36s WALL (       9 calls)
     sum_band     :      2.14s CPU      2.28s WALL (       9 calls)
     v_of_rho     :      0.12s CPU      0.13s WALL (      10 calls)
     newd         :      0.27s CPU      0.28s WALL (      10 calls)
     mix_rho      :      0.01s CPU      0.01s WALL (       9 calls)

     Called by c_bands:
     init_us_2    :      0.40s CPU      0.43s WALL (    5376 calls)
     ccgdiagg     :     27.61s CPU     30.45s WALL (    2304 calls)
     wfcrot       :      3.74s CPU      4.10s WALL (    2304 calls)

     Called by *cgdiagg:
     h_psi        :     23.45s CPU     25.86s WALL (   83520 calls)
     s_psi        :      2.65s CPU      2.91s WALL (  164736 calls)

     Called by h_psi:
     h_psi:calbec :      2.15s CPU      2.38s WALL (   83520 calls)
     vloc_psi     :     19.46s CPU     21.47s WALL (   83520 calls)
                                        0.00s GPU  (   83520 calls)
     add_vuspsi   :      1.43s CPU      1.57s WALL (   83520 calls)
     hs_1psi      :     21.86s CPU     24.11s WALL (   81216 calls)
     s_1psi       :      3.24s CPU      3.56s WALL (   81216 calls)

     General routines
     calbec       :      4.33s CPU      4.73s WALL (  171392 calls)
     fft          :      0.14s CPU      0.15s WALL (     153 calls)
     ffts         :      0.04s CPU      0.04s WALL (      19 calls)
     fftw         :     19.35s CPU     21.31s WALL (  203904 calls)
     interpolate  :      0.04s CPU      0.05s WALL (      10 calls)

     Parallel routines

     PWSCF        :     35.72s CPU     39.14s WALL


   This run was terminated on:  22:43:47  22Sep2026            

=------------------------------------------------------------------------------=
   JOB DONE.
=------------------------------------------------------------------------------=
