 running on   32 total cores
 distrk:  each k-point on   32 cores,    1 groups
 distr:  one band on    8 cores,    4 groups
 using from now: INCAR     
 vasp.5.4.4.18Apr17-6-g9f103f2a35 (build Feb 26 2024 21:30:50) complex          
  
 POSCAR found type information on POSCAR  Sn Se N  Sr
 POSCAR found :  4 types and       6 ions
 scaLAPACK will be used

 ----------------------------------------------------------------------------- 
|                                                                             |
|  ADVICE TO THIS USER RUNNING 'VASP/VAMP'   (HEAR YOUR MASTER'S VOICE ...):  |
|                                                                             |
|      You have a (more or less) 'small supercell' and for smaller cells      |
|      it is recommended  to use the reciprocal-space projection scheme!      |
|      The real space optimization is not  efficient for small cells and it   |
|      is also less accurate ...                                              |
|      Therefore set LREAL=.FALSE. in the  INCAR file                         |
|                                                                             |
 ----------------------------------------------------------------------------- 

 LDA part: xc-table for Pade appr. of Perdew
 POSCAR, INCAR and KPOINTS ok, starting setup
 FFT: planning ...
 WAVECAR not read
 entering main loop
       N       E                     dE             d eps       ncg     rms          rms(c)
DAV:   1     0.448996638673E+03    0.44900E+03   -0.20977E+04  2760   0.123E+03
DAV:   2     0.327504729902E+02   -0.41625E+03   -0.40612E+03  3040   0.302E+02
DAV:   3    -0.299100580609E+02   -0.62661E+02   -0.62241E+02  3712   0.118E+02
DAV:   4    -0.320222872501E+02   -0.21122E+01   -0.20976E+01  2976   0.239E+01
DAV:   5    -0.322200995025E+02   -0.19781E+00   -0.19773E+00  4560   0.558E+00    0.251E+01
DAV:   6    -0.284217561761E+02    0.37983E+01   -0.57620E+00  3280   0.992E+00    0.237E+01
DAV:   7    -0.268332390947E+02    0.15885E+01   -0.90257E+00  2904   0.991E+00    0.255E+01
DAV:   8    -0.279843541857E+02   -0.11511E+01   -0.24364E+00  3456   0.461E+00    0.279E+01
DAV:   9    -0.264530274641E+02    0.15313E+01   -0.99728E+00  3280   0.104E+01    0.159E+01
DAV:  10    -0.267633501024E+02   -0.31032E+00   -0.24886E+00  3096   0.531E+00    0.101E+01
DAV:  11    -0.263211959445E+02    0.44215E+00   -0.54528E+00  3320   0.661E+00    0.324E+00
DAV:  12    -0.262238477046E+02    0.97348E-01   -0.28762E-01  3072   0.239E+00    0.259E+00
DAV:  13    -0.261695591951E+02    0.54289E-01   -0.58584E-02  3320   0.143E+00    0.199E+00
DAV:  14    -0.261525253877E+02    0.17034E-01   -0.84249E-02  3680   0.158E+00    0.132E+00
DAV:  15    -0.261447668227E+02    0.77586E-02   -0.33080E-02  3656   0.789E-01    0.843E-01
DAV:  16    -0.261430513646E+02    0.17155E-02   -0.71757E-03  3304   0.366E-01    0.767E-01
DAV:  17    -0.261385727095E+02    0.44787E-02   -0.88807E-03  3944   0.444E-01    0.266E-01
DAV:  18    -0.261389056442E+02   -0.33293E-03   -0.39629E-03  3176   0.284E-01    0.270E-01
DAV:  19    -0.261383705181E+02    0.53513E-03   -0.21138E-03  2992   0.233E-01    0.138E-01
DAV:  20    -0.261382733019E+02    0.97216E-04   -0.97801E-04  3024   0.143E-01    0.874E-02
DAV:  21    -0.261383055850E+02   -0.32283E-04   -0.15680E-04  3632   0.561E-02    0.675E-02
DAV:  22    -0.261382429473E+02    0.62638E-04   -0.26199E-04  2928   0.577E-02    0.295E-02
DAV:  23    -0.261382457820E+02   -0.28347E-05   -0.37380E-05  3256   0.302E-02    0.211E-02
DAV:  24    -0.261382474571E+02   -0.16751E-05   -0.10138E-05  2944   0.185E-02    0.114E-02
DAV:  25    -0.261382458930E+02    0.15641E-05   -0.10307E-05  2944   0.131E-02    0.580E-03
DAV:  26    -0.261382462108E+02   -0.31776E-06   -0.17047E-06  2312   0.630E-03
   1 F= -.27075118E+02 E0= -.27073536E+02  d E =-.316316E-02
