64
Lattice="10.929328630912805 0.0 0.0 0.0 10.929328630912805 0.0 0.0 0.0 10.929328630912805" Properties=species:S:1:pos:R:3 pbc="T T T"
Si       0.00000000       0.00000000       0.00000000
Si       1.36616608       1.36616608       1.36616608
Si       0.00000000       2.73233216       2.73233216
Si       1.36616608       4.09849824       4.09849824
Si       2.73233216       0.00000000       2.73233216
Si       4.09849824       1.36616608       4.09849824
Si       2.73233216       2.73233216       0.00000000
Si       4.09849824       4.09849824       1.36616608
Si       0.00000000       0.00000000       5.46466432
Si       1.36616608       1.36616608       6.83083039
Si       0.00000000       2.73233216       8.19699647
Si       1.36616608       4.09849824       9.56316255
Si       2.73233216       0.00000000       8.19699647
Si       4.09849824       1.36616608       9.56316255
Si       2.73233216       2.73233216       5.46466432
Si       4.09849824       4.09849824       6.83083039
Si       0.00000000       5.46466432       0.00000000
Si       1.36616608       6.83083039       1.36616608
Si       0.00000000       8.19699647       2.73233216
Si       1.36616608       9.56316255       4.09849824
Si       2.73233216       5.46466432       2.73233216
Si       4.09849824       6.83083039       4.09849824
Si       2.73233216       8.19699647       0.00000000
Si       4.09849824       9.56316255       1.36616608
Si       0.00000000       5.46466432       5.46466432
Si       1.36616608       6.83083039       6.83083039
Si       0.00000000       8.19699647       8.19699647
Si       1.36616608       9.56316255       9.56316255
Si       2.73233216       5.46466432       8.19699647
Si       4.09849824       6.83083039       9.56316255
Si       2.73233216       8.19699647       5.46466432
Si       4.09849824       9.56316255       6.83083039
Si       5.46466432       0.00000000       0.00000000
Si       6.83083039       1.36616608       1.36616608
Si       5.46466432       2.73233216       2.73233216
Si       6.83083039       4.09849824       4.09849824
Si       8.19699647       0.00000000       2.73233216
Si       9.56316255       1.36616608       4.09849824
Si       8.19699647       2.73233216       0.00000000
Si       9.56316255       4.09849824       1.36616608
Si       5.46466432       0.00000000       5.46466432
Si       6.83083039       1.36616608       6.83083039
Si       5.46466432       2.73233216       8.19699647
Si       6.83083039       4.09849824       9.56316255
Si       8.19699647       0.00000000       8.19699647
Si       9.56316255       1.36616608       9.56316255
Si       8.19699647       2.73233216       5.46466432
Si       9.56316255       4.09849824       6.83083039
Si       5.46466432       5.46466432       0.00000000
Si       6.83083039       6.83083039       1.36616608
Si       5.46466432       8.19699647       2.73233216
Si       6.83083039       9.56316255       4.09849824
Si       8.19699647       5.46466432       2.73233216
Si       9.56316255       6.83083039       4.09849824
Si       8.19699647       8.19699647       0.00000000
Si       9.56316255       9.56316255       1.36616608
Si       5.46466432       5.46466432       5.46466432
Si       6.83083039       6.83083039       6.83083039
Si       5.46466432       8.19699647       8.19699647
Si       6.83083039       9.56316255       9.56316255
Si       8.19699647       5.46466432       8.19699647
Si       9.56316255       6.83083039       9.56316255
Si       8.19699647       8.19699647       5.46466432
Si       9.56316255       9.56316255       6.83083039
