8
Lattice="5.464664315456402 0.0 0.0 0.0 5.464664315456402 0.0 0.0 0.0 5.464664315456402" Properties=species:S:1:pos:R:3:forces:R:3:energies:R:1 energy=-42.96716547010854 stress="1.3476746059391367e-07 -4.190839656418783e-17 -1.0755458939616247e-17 -4.190839656418783e-17 1.3476746062774258e-07 -3.30674418285811e-17 -1.0755458939616247e-17 -3.30674418285811e-17 1.347674606181336e-07" free_energy=-42.96716547010854 pbc="T T T"
Si       0.00000000       0.00000000       0.00000000      -0.00000000      -0.00000000      -0.00000000      -5.37089568
Si       1.36616608       1.36616608       1.36616608      -0.00000000      -0.00000000      -0.00000000      -5.37089568
Si       0.00000000       2.73233216       2.73233216      -0.00000000      -0.00000000      -0.00000000      -5.37089568
Si       1.36616608       4.09849824       4.09849824      -0.00000000       0.00000000       0.00000000      -5.37089568
Si       2.73233216       0.00000000       2.73233216      -0.00000000      -0.00000000      -0.00000000      -5.37089568
Si       4.09849824       1.36616608       4.09849824       0.00000000      -0.00000000       0.00000000      -5.37089568
Si       2.73233216       2.73233216       0.00000000      -0.00000000      -0.00000000      -0.00000000      -5.37089568
Si       4.09849824       4.09849824       1.36616608       0.00000000       0.00000000      -0.00000000      -5.37089568
