
     Program PWSCF v.7.5 starts on 22Sep2026 at 22:39:16 

     This program is part of the open-source Quantum ESPRESSO suite
     for quantum simulation of materials; please cite
         "P. Giannozzi et al., J. Phys.:Condens. Matter 21 395502 (2009);
         "P. Giannozzi et al., J. Phys.:Condens. Matter 29 465901 (2017);
         "P. Giannozzi et al., J. Chem. Phys. 152 154105 (2020);
          URL http://www.quantum-espresso.org", 
     in publications or presentations arising from this work. More details at
     http://www.quantum-espresso.org/quote

     Parallel version (MPI), running on     4 processors

     MPI processes distributed on     1 nodes
     4753 MiB available memory on the printing compute node when the environment starts

     Reading input from scf.in

     Current dimensions of program PWSCF are:
     Max number of different atomic species (ntypx) = 10
     Max number of k-points (npk) =  40000
     Max angular momentum in pseudopotentials (lmaxx) =  4
     Message from routine setup:
     using ibrav=0 with symmetry is DISCOURAGED, use correct ibrav instead

     R & G space division:  proc/nbgrp/npool/nimage =       4
     Subspace diagonalization in iterative solution of the eigenvalue problem:
     a serial algorithm will be used


     Parallelization info
     --------------------
     sticks:   dense  smooth     PW     G-vecs:    dense   smooth      PW
     Min         586     219     66                18825     4315     722
     Max         587     220     67                18830     4316     724
     Sum        2347     877    265                75313    17261    2891

     Using Slab Decomposition



     bravais-lattice index     =            0
     lattice parameter (alat)  =       7.3085  a.u.
     unit-cell volume          =     276.0338 (a.u.)^3
     number of atoms/cell      =            2
     number of atomic types    =            1
     number of electrons       =         8.00
     number of Kohn-Sham states=            8
     kinetic-energy cutoff     =      60.0000  Ry
     charge density cutoff     =     640.0000  Ry
     scf convergence threshold =      1.0E-10
     mixing beta               =       0.7000
     number of iterations used =            8  plain     mixing
     Exchange-correlation= PBE
                           (   1   4   3   4   0   0   0)

     celldm(1)=   7.308458  celldm(2)=   0.000000  celldm(3)=   0.000000
     celldm(4)=   0.000000  celldm(5)=   0.000000  celldm(6)=   0.000000

     crystal axes: (cart. coord. in units of alat)
               a(1) = (  -0.707107   0.000000   0.707107 )  
               a(2) = (   0.000000   0.707107   0.707107 )  
               a(3) = (  -0.707107   0.707107   0.000000 )  

     reciprocal axes: (cart. coord. in units 2 pi/alat)
               b(1) = ( -0.707107 -0.707107  0.707107 )  
               b(2) = (  0.707107  0.707107  0.707107 )  
               b(3) = ( -0.707107  0.707107 -0.707107 )  


     PseudoPot. # 1 for Si read from file:
     ../../pseudo/Si.pbe-n-rrkjus_psl.1.0.0.UPF
     MD5 check sum: fa25574f73a70a4139f2adfbefec430c
     Pseudo is Ultrasoft + core correction, Zval =  4.0
     Generated using &quot;atomic&quot; code by A. Dal Corso  v.6.3
     Using radial grid of 1141 points,  6 beta functions with: 
                l(1) =   0
                l(2) =   0
                l(3) =   1
                l(4) =   1
                l(5) =   2
                l(6) =   2
     Q(r) pseudized with 0 coefficients 


     atomic species   valence    mass     pseudopotential
     Si                4.00    28.08500     Si( 1.00)

     48 Sym. Ops., with inversion, found (24 have fractional translation)



   Cartesian axes

     site n.     atom                  positions (alat units)
         1        Si     tau(   1) = (  -0.0000000   0.0000000   0.0000000  )
         2        Si     tau(   2) = (   0.3535534   0.3535534   0.3535534  )

     number of k points=   145  Marzari-Vanderbilt smearing, width (Ry)=  0.0100

     Number of k-points >= 100: set verbosity='high' to print them.

     Dense  grid:    75313 G-vectors     FFT dimensions: (  60,  60,  60)

     Smooth grid:    17261 G-vectors     FFT dimensions: (  40,  40,  40)

     Estimated max dynamical RAM per process >      81.15 MB

     Estimated total dynamical RAM >     324.59 MB

     Initial potential from superposition of free atoms

     starting charge       7.9989, renormalised to       8.0000
     Starting wfcs are    8 randomized atomic wfcs

     total cpu time spent up to now is        1.9 secs

     per-process dynamical memory:    32.9 Mb

     Self-consistent Calculation

     iteration #  1     ecut=    60.00 Ry     beta= 0.70
     CG style diagonalization
     ethr =  1.00E-10,  avg # of iterations = 34.9

     total cpu time spent up to now is       41.6 secs

     total energy              =     -22.83794908 Ry
     estimated scf accuracy    <       0.05475389 Ry

     iteration #  2     ecut=    60.00 Ry     beta= 0.70
     CG style diagonalization
     ethr =  6.84E-04,  avg # of iterations =  3.0

     total cpu time spent up to now is       45.3 secs

     WARNING: integrated charge=     8.00000977, expected=     8.00000000

     total energy              =     -22.84010525 Ry
     estimated scf accuracy    <       0.00210642 Ry

     iteration #  3     ecut=    60.00 Ry     beta= 0.70
     CG style diagonalization
     ethr =  2.63E-05,  avg # of iterations =  3.0

     total cpu time spent up to now is       49.0 secs

     WARNING: integrated charge=     8.00001434, expected=     8.00000000

     total energy              =     -22.84019497 Ry
     estimated scf accuracy    <       0.00004134 Ry

     iteration #  4     ecut=    60.00 Ry     beta= 0.70
     CG style diagonalization
     ethr =  5.17E-07,  avg # of iterations =  4.3

     total cpu time spent up to now is       54.1 secs

     WARNING: integrated charge=     8.00001438, expected=     8.00000000

     total energy              =     -22.84022605 Ry
     estimated scf accuracy    <       0.00000458 Ry

     iteration #  5     ecut=    60.00 Ry     beta= 0.70
     CG style diagonalization
     ethr =  5.73E-08,  avg # of iterations =  3.5

     total cpu time spent up to now is       58.3 secs

     WARNING: integrated charge=     8.00001324, expected=     8.00000000

     total energy              =     -22.84022730 Ry
     estimated scf accuracy    <       0.00000243 Ry

     iteration #  6     ecut=    60.00 Ry     beta= 0.70
     CG style diagonalization
     ethr =  3.04E-08,  avg # of iterations =  3.1

     total cpu time spent up to now is       62.1 secs

     WARNING: integrated charge=     8.00001315, expected=     8.00000000

     total energy              =     -22.84022729 Ry
     estimated scf accuracy    <       0.00000003 Ry

     iteration #  7     ecut=    60.00 Ry     beta= 0.70
     CG style diagonalization
     ethr =  4.35E-10,  avg # of iterations =  3.8

     total cpu time spent up to now is       66.6 secs

     WARNING: integrated charge=     8.00001316, expected=     8.00000000

     total energy              =     -22.84022734 Ry
     estimated scf accuracy    <          7.9E-09 Ry

     iteration #  8     ecut=    60.00 Ry     beta= 0.70
     CG style diagonalization
     ethr =  9.91E-11,  avg # of iterations =  3.5

     total cpu time spent up to now is       70.8 secs

     WARNING: integrated charge=     8.00001316, expected=     8.00000000

     total energy              =     -22.84022738 Ry
     estimated scf accuracy    <          5.1E-09 Ry

     iteration #  9     ecut=    60.00 Ry     beta= 0.70
     CG style diagonalization
     ethr =  6.36E-11,  avg # of iterations =  3.0

     total cpu time spent up to now is       74.5 secs

     End of self-consistent calculation

     Number of k-points >= 100: set verbosity='high' to print the bands.

     the Fermi energy is     6.3706 ev

     WARNING: integrated charge=     8.00001316, expected=     8.00000000

!    total energy              =     -22.84022736 Ry
     estimated scf accuracy    <          1.3E-11 Ry
     smearing contrib. (-TS)   =       0.00000010 Ry
     internal energy E=F+TS    =     -22.84022747 Ry

     The total energy is F=E-TS. E is the sum of the following terms:
     one-electron contribution =       5.00133307 Ry
     hartree contribution      =       1.11928118 Ry
     xc contribution           =     -12.28299736 Ry
     ewald contribution        =     -16.67784435 Ry

     convergence has been achieved in   9 iterations

     Forces acting on atoms (cartesian axes, Ry/au):

     atom    1 type  1   force =     0.00000000    0.00000000    0.00000000
     atom    2 type  1   force =     0.00000000    0.00000000    0.00000000

     Total force =     0.000000     Total SCF correction =     0.000000


     Computing stress (Cartesian axis) and pressure

          total   stress  (Ry/bohr**3)                   (kbar)     P=        0.01
   0.00000008  -0.00000000  -0.00000000            0.01       -0.00       -0.00
  -0.00000000   0.00000008   0.00000000           -0.00        0.01        0.00
  -0.00000000   0.00000000   0.00000008           -0.00        0.00        0.01


     Writing all to output data dir ./tmp/si-diamond.save/ :
     XML data file, charge density, pseudopotentials, collected wavefunctions

     init_run     :      1.68s CPU      1.76s WALL (       1 calls)
     electrons    :     68.86s CPU     72.61s WALL (       1 calls)
     forces       :      0.53s CPU      0.56s WALL (       1 calls)
     stress       :      2.31s CPU      2.40s WALL (       1 calls)

     Called by init_run:
     wfcinit      :      0.86s CPU      0.91s WALL (       1 calls)
     potinit      :      0.18s CPU      0.18s WALL (       1 calls)
     hinit0       :      0.31s CPU      0.32s WALL (       1 calls)

     Called by electrons:
     c_bands      :     63.81s CPU     66.97s WALL (       9 calls)
     sum_band     :      4.07s CPU      4.42s WALL (       9 calls)
     v_of_rho     :      0.28s CPU      0.32s WALL (      10 calls)
     newd         :      0.74s CPU      0.97s WALL (      10 calls)
     mix_rho      :      0.03s CPU      0.03s WALL (       9 calls)

     Called by c_bands:
     init_us_2    :      0.69s CPU      0.71s WALL (    3045 calls)
     ccgdiagg     :     57.24s CPU     60.11s WALL (    1305 calls)
     wfcrot       :      6.95s CPU      7.26s WALL (    1305 calls)

     Called by *cgdiagg:
     h_psi        :     43.41s CPU     45.63s WALL (   64014 calls)
     s_psi        :      9.52s CPU      9.97s WALL (  126723 calls)

     Called by h_psi:
     h_psi:calbec :      6.90s CPU      7.25s WALL (   64014 calls)
     vloc_psi     :     31.04s CPU     32.65s WALL (   64014 calls)
                                        0.00s GPU  (   64014 calls)
     add_vuspsi   :      5.09s CPU      5.33s WALL (   64014 calls)
     hs_1psi      :     42.58s CPU     44.73s WALL (   62709 calls)
     s_1psi       :     10.64s CPU     11.14s WALL (   62709 calls)

     General routines
     calbec       :     14.79s CPU     15.47s WALL (  130493 calls)
     fft          :      0.35s CPU      0.38s WALL (     153 calls)
     ffts         :      0.14s CPU      0.14s WALL (      19 calls)
     fftw         :     29.11s CPU     30.62s WALL (  156738 calls)
     interpolate  :      0.15s CPU      0.15s WALL (      10 calls)

     Parallel routines

     PWSCF        :   1m13.57s CPU   1m17.56s WALL


   This run was terminated on:  22:40:34  22Sep2026            

=------------------------------------------------------------------------------=
   JOB DONE.
=------------------------------------------------------------------------------=
