
     Program PWSCF v.7.5 starts on 23Sep2026 at  0: 6:36 

     This program is part of the open-source Quantum ESPRESSO suite
     for quantum simulation of materials; please cite
         "P. Giannozzi et al., J. Phys.:Condens. Matter 21 395502 (2009);
         "P. Giannozzi et al., J. Phys.:Condens. Matter 29 465901 (2017);
         "P. Giannozzi et al., J. Chem. Phys. 152 154105 (2020);
          URL http://www.quantum-espresso.org", 
     in publications or presentations arising from this work. More details at
     http://www.quantum-espresso.org/quote

     Parallel version (MPI), running on     8 processors

     MPI processes distributed on     1 nodes
     2452 MiB available memory on the printing compute node when the environment starts
 
     Reading input from mos2.bands.in

     Current dimensions of program PWSCF are:
     Max number of different atomic species (ntypx) = 10
     Max number of k-points (npk) =  40000
     Max angular momentum in pseudopotentials (lmaxx) =  4
     file Mo.pbe-spn-rrkjus_psl.1.0.0.UPF: wavefunction(s)  4S renormalized

     Atomic positions and unit cell read from directory:
     ./tmp/mos2.save/
 
 
     R & G space division:  proc/nbgrp/npool/nimage =       8
     Subspace diagonalization in iterative solution of the eigenvalue problem:
     a serial algorithm will be used

 
     Parallelization info
     --------------------
     sticks:   dense  smooth     PW     G-vecs:    dense   smooth      PW
     Min         147      73     21                30135    10661    1714
     Max         148      74     23                30152    10682    1731
     Sum        1177     591    175               241125    85351   13777
 
     Using Slab Decomposition
 


     bravais-lattice index     =            0
     lattice parameter (alat)  =       5.9543  a.u.
     unit-cell volume          =    1359.1338 (a.u.)^3
     number of atoms/cell      =            3
     number of atomic types    =            2
     number of electrons       =        26.00
     number of Kohn-Sham states=           16
     kinetic-energy cutoff     =      60.0000  Ry
     charge density cutoff     =     480.0000  Ry
     Exchange-correlation= PBE
                           (   1   4   3   4   0   0   0)

     celldm(1)=   5.954339  celldm(2)=   0.000000  celldm(3)=   0.000000
     celldm(4)=   0.000000  celldm(5)=   0.000000  celldm(6)=   0.000000

     crystal axes: (cart. coord. in units of alat)
               a(1) = (   1.000000   0.000000   0.000000 )  
               a(2) = (  -0.500000   0.874773   0.000000 )  
               a(3) = (   0.000000   0.000000   7.359800 )  

     reciprocal axes: (cart. coord. in units 2 pi/alat)
               b(1) = (  1.000000  0.571577  0.000000 )  
               b(2) = (  0.000000  1.143154  0.000000 )  
               b(3) = (  0.000000  0.000000  0.135873 )  


     PseudoPot. # 1 for Mo read from file:
     ../pseudo/Mo.pbe-spn-rrkjus_psl.1.0.0.UPF
     MD5 check sum: 03f09b12e49601d1a456a78ce8b2d514
     Pseudo is Ultrasoft + core correction, Zval = 14.0
     Generated using &quot;atomic&quot; code by A. Dal Corso  v.6.3
     Using radial grid of 1229 points,  6 beta functions with: 
                l(1) =   0
                l(2) =   0
                l(3) =   1
                l(4) =   1
                l(5) =   2
                l(6) =   2
     Q(r) pseudized with 0 coefficients 


     PseudoPot. # 2 for S  read from file:
     ../pseudo/S.pbe-n-rrkjus_psl.1.0.0.UPF
     MD5 check sum: 9d0fe39aa2a799ea84730884c9b010f4
     Pseudo is Ultrasoft + core correction, Zval =  6.0
     Generated using &quot;atomic&quot; code by A. Dal Corso  v.6.3
     Using radial grid of 1151 points,  6 beta functions with: 
                l(1) =   0
                l(2) =   0
                l(3) =   1
                l(4) =   1
                l(5) =   2
                l(6) =   2
     Q(r) pseudized with 0 coefficients 


     atomic species   valence    mass     pseudopotential
     Mo               14.00    95.95000     Mo( 1.00)
     S                 6.00    32.06000     S ( 1.00)

     No symmetry found


                                    s                        frac. trans.

      isym =  1     identity                                     

 cryst.   s( 1) = (     1          0          0      )
                  (     0          1          0      )
                  (     0          0          1      )

 cart.    s( 1) = (  1.0000000  0.0000000  0.0000000 )
                  (  0.0000000  1.0000000  0.0000000 )
                  (  0.0000000  0.0000000  1.0000000 )


   Cartesian axes

     site n.     atom                  positions (alat units)
         1        Mo     tau(   1) = (  -0.0000000  -0.0006530   3.6799002  )
         2        S      tau(   2) = (   0.5000000   0.2919175   4.1782439  )
         3        S      tau(   3) = (   0.5000000   0.2919175   3.1815565  )

   Crystallographic axes

     site n.     atom                  positions (cryst. coord.)
         1        Mo     tau(   1) = ( -0.0003732 -0.0007465  0.5000000  )
         2        S      tau(   2) = (  0.6668533  0.3337066  0.5677116  )
         3        S      tau(   3) = (  0.6668533  0.3337066  0.4322884  )

     number of k points=    97
                       cart. coord. in units 2pi/alat
        k(    1) = (   0.3182889   0.5565323   0.0000000), wk =   0.0206186
        k(    2) = (   0.3182889   0.5615471   0.0000000), wk =   0.0206186
        k(    3) = (   0.3182889   0.5665620   0.0000000), wk =   0.0206186
        k(    4) = (   0.3182889   0.5715768   0.0000000), wk =   0.0206186
        k(    5) = (   0.3182889   0.5765916   0.0000000), wk =   0.0206186
        k(    6) = (   0.3182889   0.5816064   0.0000000), wk =   0.0206186
        k(    7) = (   0.3182889   0.5866212   0.0000000), wk =   0.0206186
        k(    8) = (   0.3233037   0.5565323   0.0000000), wk =   0.0206186
        k(    9) = (   0.3233037   0.5615471   0.0000000), wk =   0.0206186
        k(   10) = (   0.3233037   0.5665620   0.0000000), wk =   0.0206186
        k(   11) = (   0.3233037   0.5715768   0.0000000), wk =   0.0206186
        k(   12) = (   0.3233037   0.5765916   0.0000000), wk =   0.0206186
        k(   13) = (   0.3233037   0.5816064   0.0000000), wk =   0.0206186
        k(   14) = (   0.3233037   0.5866212   0.0000000), wk =   0.0206186
        k(   15) = (   0.3283185   0.5565323   0.0000000), wk =   0.0206186
        k(   16) = (   0.3283185   0.5615471   0.0000000), wk =   0.0206186
        k(   17) = (   0.3283185   0.5665620   0.0000000), wk =   0.0206186
        k(   18) = (   0.3283185   0.5715768   0.0000000), wk =   0.0206186
        k(   19) = (   0.3283185   0.5765916   0.0000000), wk =   0.0206186
        k(   20) = (   0.3283185   0.5816064   0.0000000), wk =   0.0206186
        k(   21) = (   0.3283185   0.5866212   0.0000000), wk =   0.0206186
        k(   22) = (   0.3333333   0.5565323   0.0000000), wk =   0.0206186
        k(   23) = (   0.3333333   0.5615471   0.0000000), wk =   0.0206186
        k(   24) = (   0.3333333   0.5665620   0.0000000), wk =   0.0206186
        k(   25) = (   0.3333333   0.5715768   0.0000000), wk =   0.0206186
        k(   26) = (   0.3333333   0.5765916   0.0000000), wk =   0.0206186
        k(   27) = (   0.3333333   0.5816064   0.0000000), wk =   0.0206186
        k(   28) = (   0.3333333   0.5866212   0.0000000), wk =   0.0206186
        k(   29) = (   0.3383481   0.5565323   0.0000000), wk =   0.0206186
        k(   30) = (   0.3383481   0.5615471   0.0000000), wk =   0.0206186
        k(   31) = (   0.3383481   0.5665620   0.0000000), wk =   0.0206186
        k(   32) = (   0.3383481   0.5715768   0.0000000), wk =   0.0206186
        k(   33) = (   0.3383481   0.5765916   0.0000000), wk =   0.0206186
        k(   34) = (   0.3383481   0.5816064   0.0000000), wk =   0.0206186
        k(   35) = (   0.3383481   0.5866212   0.0000000), wk =   0.0206186
        k(   36) = (   0.3433630   0.5565323   0.0000000), wk =   0.0206186
        k(   37) = (   0.3433630   0.5615471   0.0000000), wk =   0.0206186
        k(   38) = (   0.3433630   0.5665620   0.0000000), wk =   0.0206186
        k(   39) = (   0.3433630   0.5715768   0.0000000), wk =   0.0206186
        k(   40) = (   0.3433630   0.5765916   0.0000000), wk =   0.0206186
        k(   41) = (   0.3433630   0.5816064   0.0000000), wk =   0.0206186
        k(   42) = (   0.3433630   0.5866212   0.0000000), wk =   0.0206186
        k(   43) = (   0.3483778   0.5565323   0.0000000), wk =   0.0206186
        k(   44) = (   0.3483778   0.5615471   0.0000000), wk =   0.0206186
        k(   45) = (   0.3483778   0.5665620   0.0000000), wk =   0.0206186
        k(   46) = (   0.3483778   0.5715768   0.0000000), wk =   0.0206186
        k(   47) = (   0.3483778   0.5765916   0.0000000), wk =   0.0206186
        k(   48) = (   0.3483778   0.5816064   0.0000000), wk =   0.0206186
        k(   49) = (   0.3483778   0.5866212   0.0000000), wk =   0.0206186
        k(   50) = (   0.0000000   0.0000000   0.0000000), wk =   0.0206186
        k(   51) = (   0.5000000   0.2857884   0.0000000), wk =   0.0206186
        k(   52) = (  -0.3333333  -0.5715768   0.0000000), wk =   0.0206186
        k(   53) = (   0.0833333   0.1428942   0.0000000), wk =   0.0206186
        k(   54) = (   0.1000000   0.1714730   0.0000000), wk =   0.0206186
        k(   55) = (   0.1166667   0.2000519   0.0000000), wk =   0.0206186
        k(   56) = (   0.1333333   0.2286307   0.0000000), wk =   0.0206186
        k(   57) = (   0.1500000   0.2572095   0.0000000), wk =   0.0206186
        k(   58) = (   0.1666667   0.2857884   0.0000000), wk =   0.0206186
        k(   59) = (   0.1833333   0.3143672   0.0000000), wk =   0.0206186
        k(   60) = (   0.2000000   0.3429461   0.0000000), wk =   0.0206186
        k(   61) = (   0.2166667   0.3715249   0.0000000), wk =   0.0206186
        k(   62) = (   0.2333333   0.4001037   0.0000000), wk =   0.0206186
        k(   63) = (   0.2500000   0.4286826   0.0000000), wk =   0.0206186
        k(   64) = (   0.2666667   0.4572614   0.0000000), wk =   0.0206186
        k(   65) = (   0.2833333   0.4858403   0.0000000), wk =   0.0206186
        k(   66) = (   0.3000000   0.5144191   0.0000000), wk =   0.0206186
        k(   67) = (   0.3166667   0.5429979   0.0000000), wk =   0.0206186
        k(   68) = (  -0.1666667  -0.0000000   0.0000000), wk =   0.0206186
        k(   69) = (  -0.2000000  -0.0000000   0.0000000), wk =   0.0206186
        k(   70) = (  -0.2333333   0.0000000   0.0000000), wk =   0.0206186
        k(   71) = (  -0.2666667  -0.0000000   0.0000000), wk =   0.0206186
        k(   72) = (  -0.3000000  -0.0000000   0.0000000), wk =   0.0206186
        k(   73) = (  -0.3333333   0.0000000   0.0000000), wk =   0.0206186
        k(   74) = (  -0.3666667  -0.0000000   0.0000000), wk =   0.0206186
        k(   75) = (  -0.4000000  -0.0000000   0.0000000), wk =   0.0206186
        k(   76) = (  -0.4333333   0.0000000   0.0000000), wk =   0.0206186
        k(   77) = (  -0.4666667  -0.0000000   0.0000000), wk =   0.0206186
        k(   78) = (  -0.5000000  -0.0000000   0.0000000), wk =   0.0206186
        k(   79) = (  -0.5333333   0.0000000   0.0000000), wk =   0.0206186
        k(   80) = (  -0.5666667  -0.0000000   0.0000000), wk =   0.0206186
        k(   81) = (  -0.6000000  -0.0000000   0.0000000), wk =   0.0206186
        k(   82) = (  -0.6333333   0.0000000   0.0000000), wk =   0.0206186
        k(   83) = (   0.0833333  -0.1428942   0.0000000), wk =   0.0206186
        k(   84) = (   0.1000000  -0.1714730   0.0000000), wk =   0.0206186
        k(   85) = (   0.1166667  -0.2000519   0.0000000), wk =   0.0206186
        k(   86) = (   0.1333333  -0.2286307   0.0000000), wk =   0.0206186
        k(   87) = (   0.1500000  -0.2572095   0.0000000), wk =   0.0206186
        k(   88) = (   0.1666667  -0.2857884   0.0000000), wk =   0.0206186
        k(   89) = (   0.1833333  -0.3143672   0.0000000), wk =   0.0206186
        k(   90) = (   0.2000000  -0.3429461   0.0000000), wk =   0.0206186
        k(   91) = (   0.2166667  -0.3715249   0.0000000), wk =   0.0206186
        k(   92) = (   0.2333333  -0.4001037   0.0000000), wk =   0.0206186
        k(   93) = (   0.2500000  -0.4286826   0.0000000), wk =   0.0206186
        k(   94) = (   0.2666667  -0.4572614   0.0000000), wk =   0.0206186
        k(   95) = (   0.2833333  -0.4858403   0.0000000), wk =   0.0206186
        k(   96) = (   0.3000000  -0.5144191   0.0000000), wk =   0.0206186
        k(   97) = (   0.3166667  -0.5429979   0.0000000), wk =   0.0206186

                       cryst. coord.
        k(    1) = (   0.3182889   0.3276951   0.0000000), wk =   0.0206186
        k(    2) = (   0.3182889   0.3320819   0.0000000), wk =   0.0206186
        k(    3) = (   0.3182889   0.3364687   0.0000000), wk =   0.0206186
        k(    4) = (   0.3182889   0.3408556   0.0000000), wk =   0.0206186
        k(    5) = (   0.3182889   0.3452424   0.0000000), wk =   0.0206186
        k(    6) = (   0.3182889   0.3496292   0.0000000), wk =   0.0206186
        k(    7) = (   0.3182889   0.3540160   0.0000000), wk =   0.0206186
        k(    8) = (   0.3233037   0.3251877   0.0000000), wk =   0.0206186
        k(    9) = (   0.3233037   0.3295745   0.0000000), wk =   0.0206186
        k(   10) = (   0.3233037   0.3339613   0.0000000), wk =   0.0206186
        k(   11) = (   0.3233037   0.3383481   0.0000000), wk =   0.0206186
        k(   12) = (   0.3233037   0.3427350   0.0000000), wk =   0.0206186
        k(   13) = (   0.3233037   0.3471218   0.0000000), wk =   0.0206186
        k(   14) = (   0.3233037   0.3515086   0.0000000), wk =   0.0206186
        k(   15) = (   0.3283185   0.3226803   0.0000000), wk =   0.0206186
        k(   16) = (   0.3283185   0.3270671   0.0000000), wk =   0.0206186
        k(   17) = (   0.3283185   0.3314539   0.0000000), wk =   0.0206186
        k(   18) = (   0.3283185   0.3358407   0.0000000), wk =   0.0206186
        k(   19) = (   0.3283185   0.3402276   0.0000000), wk =   0.0206186
        k(   20) = (   0.3283185   0.3446144   0.0000000), wk =   0.0206186
        k(   21) = (   0.3283185   0.3490012   0.0000000), wk =   0.0206186
        k(   22) = (   0.3333333   0.3201729   0.0000000), wk =   0.0206186
        k(   23) = (   0.3333333   0.3245597   0.0000000), wk =   0.0206186
        k(   24) = (   0.3333333   0.3289465   0.0000000), wk =   0.0206186
        k(   25) = (   0.3333333   0.3333333   0.0000000), wk =   0.0206186
        k(   26) = (   0.3333333   0.3377202   0.0000000), wk =   0.0206186
        k(   27) = (   0.3333333   0.3421070   0.0000000), wk =   0.0206186
        k(   28) = (   0.3333333   0.3464938   0.0000000), wk =   0.0206186
        k(   29) = (   0.3383481   0.3176655   0.0000000), wk =   0.0206186
        k(   30) = (   0.3383481   0.3220523   0.0000000), wk =   0.0206186
        k(   31) = (   0.3383481   0.3264391   0.0000000), wk =   0.0206186
        k(   32) = (   0.3383481   0.3308259   0.0000000), wk =   0.0206186
        k(   33) = (   0.3383481   0.3352128   0.0000000), wk =   0.0206186
        k(   34) = (   0.3383481   0.3395996   0.0000000), wk =   0.0206186
        k(   35) = (   0.3383481   0.3439864   0.0000000), wk =   0.0206186
        k(   36) = (   0.3433630   0.3151580   0.0000000), wk =   0.0206186
        k(   37) = (   0.3433630   0.3195449   0.0000000), wk =   0.0206186
        k(   38) = (   0.3433630   0.3239317   0.0000000), wk =   0.0206186
        k(   39) = (   0.3433630   0.3283185   0.0000000), wk =   0.0206186
        k(   40) = (   0.3433630   0.3327053   0.0000000), wk =   0.0206186
        k(   41) = (   0.3433630   0.3370922   0.0000000), wk =   0.0206186
        k(   42) = (   0.3433630   0.3414790   0.0000000), wk =   0.0206186
        k(   43) = (   0.3483778   0.3126506   0.0000000), wk =   0.0206186
        k(   44) = (   0.3483778   0.3170375   0.0000000), wk =   0.0206186
        k(   45) = (   0.3483778   0.3214243   0.0000000), wk =   0.0206186
        k(   46) = (   0.3483778   0.3258111   0.0000000), wk =   0.0206186
        k(   47) = (   0.3483778   0.3301979   0.0000000), wk =   0.0206186
        k(   48) = (   0.3483778   0.3345848   0.0000000), wk =   0.0206186
        k(   49) = (   0.3483778   0.3389716   0.0000000), wk =   0.0206186
        k(   50) = (   0.0000000   0.0000000   0.0000000), wk =   0.0206186
        k(   51) = (   0.5000000  -0.0000000   0.0000000), wk =   0.0206186
        k(   52) = (  -0.3333333  -0.3333333   0.0000000), wk =   0.0206186
        k(   53) = (   0.0833333   0.0833333   0.0000000), wk =   0.0206186
        k(   54) = (   0.1000000   0.1000000   0.0000000), wk =   0.0206186
        k(   55) = (   0.1166667   0.1166667   0.0000000), wk =   0.0206186
        k(   56) = (   0.1333333   0.1333333   0.0000000), wk =   0.0206186
        k(   57) = (   0.1500000   0.1500000   0.0000000), wk =   0.0206186
        k(   58) = (   0.1666667   0.1666667   0.0000000), wk =   0.0206186
        k(   59) = (   0.1833333   0.1833333   0.0000000), wk =   0.0206186
        k(   60) = (   0.2000000   0.2000000   0.0000000), wk =   0.0206186
        k(   61) = (   0.2166667   0.2166667   0.0000000), wk =   0.0206186
        k(   62) = (   0.2333333   0.2333333   0.0000000), wk =   0.0206186
        k(   63) = (   0.2500000   0.2500000   0.0000000), wk =   0.0206186
        k(   64) = (   0.2666667   0.2666667   0.0000000), wk =   0.0206186
        k(   65) = (   0.2833333   0.2833333   0.0000000), wk =   0.0206186
        k(   66) = (   0.3000000   0.3000000   0.0000000), wk =   0.0206186
        k(   67) = (   0.3166667   0.3166667   0.0000000), wk =   0.0206186
        k(   68) = (  -0.1666667   0.0833333   0.0000000), wk =   0.0206186
        k(   69) = (  -0.2000000   0.1000000   0.0000000), wk =   0.0206186
        k(   70) = (  -0.2333333   0.1166667   0.0000000), wk =   0.0206186
        k(   71) = (  -0.2666667   0.1333333   0.0000000), wk =   0.0206186
        k(   72) = (  -0.3000000   0.1500000   0.0000000), wk =   0.0206186
        k(   73) = (  -0.3333333   0.1666667   0.0000000), wk =   0.0206186
        k(   74) = (  -0.3666667   0.1833333   0.0000000), wk =   0.0206186
        k(   75) = (  -0.4000000   0.2000000   0.0000000), wk =   0.0206186
        k(   76) = (  -0.4333333   0.2166667   0.0000000), wk =   0.0206186
        k(   77) = (  -0.4666667   0.2333333   0.0000000), wk =   0.0206186
        k(   78) = (  -0.5000000   0.2500000   0.0000000), wk =   0.0206186
        k(   79) = (  -0.5333333   0.2666667   0.0000000), wk =   0.0206186
        k(   80) = (  -0.5666667   0.2833333   0.0000000), wk =   0.0206186
        k(   81) = (  -0.6000000   0.3000000   0.0000000), wk =   0.0206186
        k(   82) = (  -0.6333333   0.3166667   0.0000000), wk =   0.0206186
        k(   83) = (   0.0833333  -0.1666667   0.0000000), wk =   0.0206186
        k(   84) = (   0.1000000  -0.2000000   0.0000000), wk =   0.0206186
        k(   85) = (   0.1166667  -0.2333333   0.0000000), wk =   0.0206186
        k(   86) = (   0.1333333  -0.2666667   0.0000000), wk =   0.0206186
        k(   87) = (   0.1500000  -0.3000000   0.0000000), wk =   0.0206186
        k(   88) = (   0.1666667  -0.3333333   0.0000000), wk =   0.0206186
        k(   89) = (   0.1833333  -0.3666667   0.0000000), wk =   0.0206186
        k(   90) = (   0.2000000  -0.4000000   0.0000000), wk =   0.0206186
        k(   91) = (   0.2166667  -0.4333333   0.0000000), wk =   0.0206186
        k(   92) = (   0.2333333  -0.4666667   0.0000000), wk =   0.0206186
        k(   93) = (   0.2500000  -0.5000000   0.0000000), wk =   0.0206186
        k(   94) = (   0.2666667  -0.5333333   0.0000000), wk =   0.0206186
        k(   95) = (   0.2833333  -0.5666667   0.0000000), wk =   0.0206186
        k(   96) = (   0.3000000  -0.6000000   0.0000000), wk =   0.0206186
        k(   97) = (   0.3166667  -0.6333333   0.0000000), wk =   0.0206186

     Dense  grid:   241125 G-vectors     FFT dimensions: (  45,  45, 320)

     Smooth grid:    85351 G-vectors     FFT dimensions: (  30,  30, 225)

     Dynamical RAM for                 wfc:       0.33 MB

     Dynamical RAM for     wfc (w. buffer):       0.33 MB

     Dynamical RAM for           str. fact:       0.92 MB

     Dynamical RAM for           local pot:       0.00 MB

     Dynamical RAM for          nlocal pot:       1.10 MB

     Dynamical RAM for                qrad:       3.52 MB

     Dynamical RAM for          rho,v,vnew:       3.23 MB

     Dynamical RAM for           G-vectors:       1.81 MB

     Dynamical RAM for          h,s,v(r/c):       0.01 MB

     Dynamical RAM for          <psi|beta>:       0.01 MB

     Dynamical RAM for      wfcinit/wfcrot:       0.66 MB

     Dynamical RAM for           addusdens:      86.45 MB

     Estimated static dynamical RAM per process >      15.37 MB

     Estimated max dynamical RAM per process >     101.82 MB

     Estimated total dynamical RAM >     814.56 MB

     The potential is recalculated from file :
     ./tmp/mos2.save/charge-density


     negative rho (up, down):  3.845E-04 0.000E+00
     Starting wfcs are   18 randomized atomic wfcs

     Band Structure Calculation
     CG style diagonalization

     Computing kpt #:     1  of    97
     total cpu time spent up to now is        2.4 secs

     Computing kpt #:     2  of    97
     total cpu time spent up to now is        3.8 secs

     Computing kpt #:     3  of    97
     total cpu time spent up to now is        5.3 secs

     Computing kpt #:     4  of    97
     total cpu time spent up to now is        6.7 secs

     Computing kpt #:     5  of    97
     total cpu time spent up to now is        7.9 secs

     Computing kpt #:     6  of    97
     total cpu time spent up to now is        9.1 secs

     Computing kpt #:     7  of    97
     total cpu time spent up to now is       10.2 secs

     Computing kpt #:     8  of    97
     total cpu time spent up to now is       11.3 secs

     Computing kpt #:     9  of    97
     total cpu time spent up to now is       12.5 secs

     Computing kpt #:    10  of    97
     total cpu time spent up to now is       13.7 secs

     Computing kpt #:    11  of    97
     total cpu time spent up to now is       15.1 secs

     Computing kpt #:    12  of    97
     total cpu time spent up to now is       16.0 secs

     Computing kpt #:    13  of    97
     total cpu time spent up to now is       16.6 secs

     Computing kpt #:    14  of    97
     total cpu time spent up to now is       17.3 secs

     Computing kpt #:    15  of    97
     total cpu time spent up to now is       18.4 secs

     Computing kpt #:    16  of    97
     total cpu time spent up to now is       19.8 secs

     Computing kpt #:    17  of    97
     total cpu time spent up to now is       21.1 secs

     Computing kpt #:    18  of    97
     total cpu time spent up to now is       22.3 secs

     Computing kpt #:    19  of    97
     total cpu time spent up to now is       23.4 secs

     Computing kpt #:    20  of    97
     total cpu time spent up to now is       24.9 secs

     Computing kpt #:    21  of    97
     total cpu time spent up to now is       26.5 secs

     Computing kpt #:    22  of    97
     total cpu time spent up to now is       27.7 secs

     Computing kpt #:    23  of    97
     total cpu time spent up to now is       28.8 secs

     Computing kpt #:    24  of    97
     total cpu time spent up to now is       29.9 secs

     Computing kpt #:    25  of    97
     total cpu time spent up to now is       31.1 secs

     Computing kpt #:    26  of    97
     total cpu time spent up to now is       32.0 secs

     Computing kpt #:    27  of    97
     total cpu time spent up to now is       33.1 secs

     Computing kpt #:    28  of    97
     total cpu time spent up to now is       34.5 secs

     Computing kpt #:    29  of    97
     total cpu time spent up to now is       35.1 secs

     Computing kpt #:    30  of    97
     total cpu time spent up to now is       35.9 secs

     Computing kpt #:    31  of    97
     total cpu time spent up to now is       36.8 secs

     Computing kpt #:    32  of    97
     total cpu time spent up to now is       37.5 secs

     Computing kpt #:    33  of    97
     total cpu time spent up to now is       38.1 secs

     Computing kpt #:    34  of    97
     total cpu time spent up to now is       38.9 secs

     Computing kpt #:    35  of    97
     total cpu time spent up to now is       40.0 secs

     Computing kpt #:    36  of    97
     total cpu time spent up to now is       41.5 secs

     Computing kpt #:    37  of    97
     total cpu time spent up to now is       42.8 secs

     Computing kpt #:    38  of    97
     total cpu time spent up to now is       44.2 secs

     Computing kpt #:    39  of    97
     total cpu time spent up to now is       45.5 secs

     Computing kpt #:    40  of    97
     total cpu time spent up to now is       46.8 secs

     Computing kpt #:    41  of    97
     total cpu time spent up to now is       48.1 secs

     Computing kpt #:    42  of    97
     total cpu time spent up to now is       49.4 secs

     Computing kpt #:    43  of    97
     total cpu time spent up to now is       50.9 secs

     Computing kpt #:    44  of    97
     total cpu time spent up to now is       52.3 secs

     Computing kpt #:    45  of    97
     total cpu time spent up to now is       53.8 secs

     Computing kpt #:    46  of    97
     total cpu time spent up to now is       55.1 secs

     Computing kpt #:    47  of    97
     total cpu time spent up to now is       56.5 secs

     Computing kpt #:    48  of    97
     total cpu time spent up to now is       58.0 secs

     Computing kpt #:    49  of    97
     total cpu time spent up to now is       59.4 secs

     Computing kpt #:    50  of    97
     total cpu time spent up to now is       62.1 secs

     Computing kpt #:    51  of    97
     total cpu time spent up to now is       63.5 secs

     Computing kpt #:    52  of    97
     total cpu time spent up to now is       64.8 secs

     Computing kpt #:    53  of    97
     total cpu time spent up to now is       66.5 secs

     Computing kpt #:    54  of    97
     total cpu time spent up to now is       68.3 secs

     Computing kpt #:    55  of    97
     total cpu time spent up to now is       70.3 secs

     Computing kpt #:    56  of    97
     total cpu time spent up to now is       71.8 secs

     Computing kpt #:    57  of    97
     total cpu time spent up to now is       73.3 secs

     Computing kpt #:    58  of    97
     total cpu time spent up to now is       74.9 secs

     Computing kpt #:    59  of    97
     total cpu time spent up to now is       76.2 secs

     Computing kpt #:    60  of    97
     total cpu time spent up to now is       77.5 secs

     Computing kpt #:    61  of    97
     total cpu time spent up to now is       78.8 secs

     Computing kpt #:    62  of    97
     total cpu time spent up to now is       80.2 secs

     Computing kpt #:    63  of    97
     total cpu time spent up to now is       81.6 secs

     Computing kpt #:    64  of    97
     total cpu time spent up to now is       83.5 secs

     Computing kpt #:    65  of    97
     total cpu time spent up to now is       85.2 secs

     Computing kpt #:    66  of    97
     total cpu time spent up to now is       86.6 secs

     Computing kpt #:    67  of    97
     total cpu time spent up to now is       88.0 secs

     Computing kpt #:    68  of    97
     total cpu time spent up to now is       89.8 secs

     Computing kpt #:    69  of    97
     total cpu time spent up to now is       91.5 secs

     Computing kpt #:    70  of    97
     total cpu time spent up to now is       93.3 secs

     Computing kpt #:    71  of    97
     total cpu time spent up to now is       95.0 secs

     Computing kpt #:    72  of    97
     total cpu time spent up to now is       96.4 secs

     Computing kpt #:    73  of    97
     total cpu time spent up to now is       98.0 secs

     Computing kpt #:    74  of    97
     total cpu time spent up to now is       99.4 secs

     Computing kpt #:    75  of    97
     total cpu time spent up to now is      100.8 secs

     Computing kpt #:    76  of    97
     total cpu time spent up to now is      102.0 secs

     Computing kpt #:    77  of    97
     total cpu time spent up to now is      103.3 secs

     Computing kpt #:    78  of    97
     total cpu time spent up to now is      104.6 secs

     Computing kpt #:    79  of    97
     total cpu time spent up to now is      106.6 secs

     Computing kpt #:    80  of    97
     total cpu time spent up to now is      108.4 secs

     Computing kpt #:    81  of    97
     total cpu time spent up to now is      109.8 secs

     Computing kpt #:    82  of    97
     total cpu time spent up to now is      111.3 secs

     Computing kpt #:    83  of    97
     total cpu time spent up to now is      112.8 secs

     Computing kpt #:    84  of    97
     total cpu time spent up to now is      114.6 secs

     Computing kpt #:    85  of    97
     total cpu time spent up to now is      116.6 secs

     Computing kpt #:    86  of    97
     total cpu time spent up to now is      118.2 secs

     Computing kpt #:    87  of    97
     total cpu time spent up to now is      119.6 secs

     Computing kpt #:    88  of    97
     total cpu time spent up to now is      121.2 secs

     Computing kpt #:    89  of    97
     total cpu time spent up to now is      122.5 secs

     Computing kpt #:    90  of    97
     total cpu time spent up to now is      123.9 secs

     Computing kpt #:    91  of    97
     total cpu time spent up to now is      125.2 secs

     Computing kpt #:    92  of    97
     total cpu time spent up to now is      126.5 secs

     Computing kpt #:    93  of    97
     total cpu time spent up to now is      127.8 secs

     Computing kpt #:    94  of    97
     total cpu time spent up to now is      129.5 secs

     Computing kpt #:    95  of    97
     total cpu time spent up to now is      131.1 secs

     Computing kpt #:    96  of    97
     total cpu time spent up to now is      132.6 secs

     Computing kpt #:    97  of    97
     total cpu time spent up to now is      134.0 secs

     ethr =  1.00E-10,  avg # of iterations = 34.4

     total cpu time spent up to now is      134.0 secs

     End of band structure calculation

          k = 0.3183 0.5565 0.0000 ( 10622 PWs)   bands (ev):

   -62.4216 -36.6886 -36.6366 -36.5303 -13.5323 -13.4834  -7.0182  -6.2468
    -5.6480  -5.1351  -4.5089  -3.7788  -1.6112   0.1539   1.4292   1.9477

          k = 0.3183 0.5615 0.0000 ( 10628 PWs)   bands (ev):

   -62.4216 -36.6880 -36.6375 -36.5303 -13.5311 -13.4827  -7.0204  -6.2369
    -5.6590  -5.1369  -4.5057  -3.7826  -1.6079   0.1499   1.4280   1.9519

          k = 0.3183 0.5666 0.0000 ( 10622 PWs)   bands (ev):

   -62.4215 -36.6876 -36.6380 -36.5302 -13.5303 -13.4824  -7.0217  -6.2308
    -5.6659  -5.1380  -4.5037  -3.7849  -1.6058   0.1474   1.4273   1.9544

          k = 0.3183 0.5716 0.0000 ( 10620 PWs)   bands (ev):

   -62.4215 -36.6874 -36.6382 -36.5302 -13.5301 -13.4822  -7.0222  -6.2287
    -5.6682  -5.1383  -4.5030  -3.7857  -1.6051   0.1466   1.4271   1.9552

          k = 0.3183 0.5766 0.0000 ( 10622 PWs)   bands (ev):

   -62.4215 -36.6876 -36.6380 -36.5302 -13.5303 -13.4824  -7.0217  -6.2308
    -5.6659  -5.1380  -4.5037  -3.7849  -1.6058   0.1474   1.4273   1.9544

          k = 0.3183 0.5816 0.0000 ( 10628 PWs)   bands (ev):

   -62.4216 -36.6880 -36.6375 -36.5303 -13.5311 -13.4827  -7.0204  -6.2369
    -5.6590  -5.1369  -4.5057  -3.7826  -1.6079   0.1499   1.4280   1.9519

          k = 0.3183 0.5866 0.0000 ( 10622 PWs)   bands (ev):

   -62.4216 -36.6886 -36.6366 -36.5303 -13.5323 -13.4834  -7.0182  -6.2468
    -5.6480  -5.1351  -4.5089  -3.7788  -1.6112   0.1539   1.4292   1.9477

          k = 0.3233 0.5565 0.0000 ( 10624 PWs)   bands (ev):

   -62.4215 -36.6877 -36.6380 -36.5302 -13.5306 -13.4822  -7.0210  -6.2375
    -5.6572  -5.1387  -4.5071  -3.7814  -1.6083   0.1510   1.4277   1.9529

          k = 0.3233 0.5615 0.0000 ( 10626 PWs)   bands (ev):

   -62.4215 -36.6870 -36.6389 -36.5302 -13.5294 -13.4815  -7.0232  -6.2271
    -5.6684  -5.1408  -4.5039  -3.7851  -1.6050   0.1469   1.4263   1.9570

          k = 0.3233 0.5666 0.0000 ( 10622 PWs)   bands (ev):

   -62.4215 -36.6865 -36.6395 -36.5302 -13.5287 -13.4812  -7.0245  -6.2206
    -5.6754  -5.1421  -4.5019  -3.7874  -1.6030   0.1445   1.4256   1.9594

          k = 0.3233 0.5716 0.0000 ( 10626 PWs)   bands (ev):

   -62.4215 -36.6864 -36.6397 -36.5302 -13.5284 -13.4810  -7.0249  -6.2184
    -5.6777  -5.1425  -4.5013  -3.7882  -1.6023   0.1437   1.4253   1.9603

          k = 0.3233 0.5766 0.0000 ( 10622 PWs)   bands (ev):

   -62.4215 -36.6865 -36.6395 -36.5302 -13.5287 -13.4812  -7.0245  -6.2206
    -5.6754  -5.1421  -4.5019  -3.7874  -1.6030   0.1445   1.4256   1.9594

          k = 0.3233 0.5816 0.0000 ( 10626 PWs)   bands (ev):

   -62.4215 -36.6870 -36.6389 -36.5302 -13.5294 -13.4815  -7.0232  -6.2271
    -5.6684  -5.1408  -4.5039  -3.7851  -1.6050   0.1469   1.4263   1.9570

          k = 0.3233 0.5866 0.0000 ( 10624 PWs)   bands (ev):

   -62.4215 -36.6877 -36.6380 -36.5302 -13.5306 -13.4822  -7.0210  -6.2375
    -5.6572  -5.1387  -4.5071  -3.7814  -1.6083   0.1510   1.4277   1.9529

          k = 0.3283 0.5565 0.0000 ( 10632 PWs)   bands (ev):

   -62.4215 -36.6871 -36.6390 -36.5302 -13.5293 -13.4812  -7.0230  -6.2323
    -5.6628  -5.1406  -4.5064  -3.7827  -1.6067   0.1496   1.4267   1.9567

          k = 0.3283 0.5615 0.0000 ( 10630 PWs)   bands (ev):

   -62.4215 -36.6863 -36.6400 -36.5301 -13.5281 -13.4806  -7.0251  -6.2215
    -5.6740  -5.1430  -4.5033  -3.7864  -1.6035   0.1456   1.4253   1.9607

          k = 0.3283 0.5666 0.0000 ( 10630 PWs)   bands (ev):

   -62.4215 -36.6858 -36.6406 -36.5301 -13.5274 -13.4802  -7.0264  -6.2147
    -5.6810  -5.1445  -4.5014  -3.7886  -1.6015   0.1432   1.4245   1.9631

          k = 0.3283 0.5716 0.0000 ( 10626 PWs)   bands (ev):

   -62.4215 -36.6857 -36.6408 -36.5301 -13.5272 -13.4801  -7.0268  -6.2125
    -5.6834  -5.1450  -4.5007  -3.7893  -1.6008   0.1424   1.4242   1.9639

          k = 0.3283 0.5766 0.0000 ( 10630 PWs)   bands (ev):

   -62.4215 -36.6858 -36.6406 -36.5301 -13.5274 -13.4802  -7.0264  -6.2147
    -5.6810  -5.1445  -4.5014  -3.7886  -1.6015   0.1432   1.4245   1.9631

          k = 0.3283 0.5816 0.0000 ( 10630 PWs)   bands (ev):

   -62.4215 -36.6863 -36.6400 -36.5301 -13.5281 -13.4806  -7.0251  -6.2215
    -5.6740  -5.1430  -4.5033  -3.7864  -1.6035   0.1456   1.4253   1.9607

          k = 0.3283 0.5866 0.0000 ( 10632 PWs)   bands (ev):

   -62.4215 -36.6871 -36.6390 -36.5302 -13.5293 -13.4812  -7.0230  -6.2323
    -5.6628  -5.1406  -4.5064  -3.7827  -1.6067   0.1496   1.4267   1.9567

          k = 0.3333 0.5565 0.0000 ( 10628 PWs)   bands (ev):

   -62.4215 -36.6868 -36.6395 -36.5301 -13.5284 -13.4804  -7.0241  -6.2314
    -5.6643  -5.1409  -4.5069  -3.7827  -1.6064   0.1498   1.4264   1.9591

          k = 0.3333 0.5615 0.0000 ( 10628 PWs)   bands (ev):

   -62.4214 -36.6860 -36.6405 -36.5301 -13.5273 -13.4798  -7.0262  -6.2205
    -5.6753  -5.1438  -4.5038  -3.7862  -1.6032   0.1459   1.4249   1.9630

          k = 0.3333 0.5666 0.0000 ( 10628 PWs)   bands (ev):

   -62.4214 -36.6855 -36.6412 -36.5301 -13.5266 -13.4795  -7.0275  -6.2136
    -5.6822  -5.1455  -4.5019  -3.7884  -1.6013   0.1435   1.4240   1.9654

          k = 0.3333 0.5716 0.0000 ( 10624 PWs)   bands (ev):

   -62.4214 -36.6853 -36.6414 -36.5301 -13.5264 -13.4793  -7.0279  -6.2113
    -5.6845  -5.1460  -4.5013  -3.7891  -1.6007   0.1427   1.4237   1.9662

          k = 0.3333 0.5766 0.0000 ( 10628 PWs)   bands (ev):

   -62.4214 -36.6855 -36.6412 -36.5301 -13.5266 -13.4795  -7.0275  -6.2136
    -5.6822  -5.1455  -4.5019  -3.7884  -1.6013   0.1435   1.4240   1.9654

          k = 0.3333 0.5816 0.0000 ( 10628 PWs)   bands (ev):

   -62.4214 -36.6860 -36.6405 -36.5301 -13.5273 -13.4798  -7.0262  -6.2205
    -5.6753  -5.1438  -4.5038  -3.7862  -1.6032   0.1459   1.4249   1.9630

          k = 0.3333 0.5866 0.0000 ( 10628 PWs)   bands (ev):

   -62.4215 -36.6868 -36.6395 -36.5301 -13.5284 -13.4804  -7.0241  -6.2314
    -5.6643  -5.1409  -4.5069  -3.7827  -1.6064   0.1498   1.4264   1.9591

          k = 0.3383 0.5565 0.0000 ( 10628 PWs)   bands (ev):

   -62.4214 -36.6869 -36.6396 -36.5301 -13.5280 -13.4799  -7.0245  -6.2350
    -5.6616  -5.1400  -4.5085  -3.7813  -1.6074   0.1517   1.4267   1.9601

          k = 0.3383 0.5615 0.0000 ( 10630 PWs)   bands (ev):

   -62.4214 -36.6861 -36.6406 -36.5301 -13.5269 -13.4793  -7.0265  -6.2241
    -5.6721  -5.1433  -4.5055  -3.7847  -1.6044   0.1478   1.4251   1.9639

          k = 0.3383 0.5666 0.0000 ( 10628 PWs)   bands (ev):

   -62.4214 -36.6855 -36.6413 -36.5300 -13.5262 -13.4790  -7.0278  -6.2173
    -5.6787  -5.1452  -4.5037  -3.7867  -1.6026   0.1455   1.4242   1.9662

          k = 0.3383 0.5716 0.0000 ( 10626 PWs)   bands (ev):

   -62.4214 -36.6854 -36.6415 -36.5300 -13.5260 -13.4789  -7.0282  -6.2150
    -5.6809  -5.1458  -4.5031  -3.7874  -1.6020   0.1447   1.4239   1.9670

          k = 0.3383 0.5766 0.0000 ( 10628 PWs)   bands (ev):

   -62.4214 -36.6855 -36.6413 -36.5300 -13.5262 -13.4790  -7.0278  -6.2173
    -5.6787  -5.1452  -4.5037  -3.7867  -1.6026   0.1455   1.4242   1.9662

          k = 0.3383 0.5816 0.0000 ( 10630 PWs)   bands (ev):

   -62.4214 -36.6861 -36.6406 -36.5301 -13.5269 -13.4793  -7.0265  -6.2241
    -5.6721  -5.1433  -4.5055  -3.7847  -1.6044   0.1478   1.4251   1.9639

          k = 0.3383 0.5866 0.0000 ( 10628 PWs)   bands (ev):

   -62.4214 -36.6869 -36.6396 -36.5301 -13.5280 -13.4799  -7.0245  -6.2350
    -5.6616  -5.1400  -4.5085  -3.7813  -1.6074   0.1517   1.4267   1.9601

          k = 0.3434 0.5565 0.0000 ( 10623 PWs)   bands (ev):

   -62.4214 -36.6873 -36.6392 -36.5301 -13.5281 -13.4797  -7.0240  -6.2427
    -5.6547  -5.1379  -4.5114  -3.7785  -1.6099   0.1552   1.4275   1.9596

          k = 0.3434 0.5615 0.0000 ( 10625 PWs)   bands (ev):

   -62.4214 -36.6865 -36.6403 -36.5300 -13.5270 -13.4791  -7.0260  -6.2321
    -5.6645  -5.1416  -4.5085  -3.7817  -1.6070   0.1514   1.4259   1.9633

          k = 0.3434 0.5666 0.0000 ( 10627 PWs)   bands (ev):

   -62.4214 -36.6860 -36.6410 -36.5300 -13.5263 -13.4788  -7.0272  -6.2254
    -5.6707  -5.1437  -4.5067  -3.7837  -1.6052   0.1491   1.4249   1.9655

          k = 0.3434 0.5716 0.0000 ( 10627 PWs)   bands (ev):

   -62.4214 -36.6858 -36.6412 -36.5300 -13.5261 -13.4787  -7.0276  -6.2232
    -5.6728  -5.1445  -4.5062  -3.7844  -1.6046   0.1484   1.4245   1.9663

          k = 0.3434 0.5766 0.0000 ( 10627 PWs)   bands (ev):

   -62.4214 -36.6860 -36.6410 -36.5300 -13.5263 -13.4788  -7.0272  -6.2254
    -5.6707  -5.1437  -4.5067  -3.7837  -1.6052   0.1491   1.4249   1.9655

          k = 0.3434 0.5816 0.0000 ( 10625 PWs)   bands (ev):

   -62.4214 -36.6865 -36.6403 -36.5300 -13.5270 -13.4791  -7.0260  -6.2321
    -5.6645  -5.1416  -4.5085  -3.7817  -1.6070   0.1514   1.4259   1.9633

          k = 0.3434 0.5866 0.0000 ( 10623 PWs)   bands (ev):

   -62.4214 -36.6873 -36.6392 -36.5301 -13.5281 -13.4797  -7.0240  -6.2427
    -5.6547  -5.1379  -4.5114  -3.7785  -1.6099   0.1552   1.4275   1.9596

          k = 0.3484 0.5565 0.0000 ( 10618 PWs)   bands (ev):

   -62.4214 -36.6881 -36.6385 -36.5301 -13.5286 -13.4797  -7.0226  -6.2543
    -5.6439  -5.1347  -4.5154  -3.7743  -1.6138   0.1603   1.4289   1.9576

          k = 0.3484 0.5615 0.0000 ( 10619 PWs)   bands (ev):

   -62.4214 -36.6872 -36.6395 -36.5300 -13.5275 -13.4791  -7.0246  -6.2440
    -5.6529  -5.1388  -4.5127  -3.7774  -1.6110   0.1566   1.4271   1.9612

          k = 0.3484 0.5666 0.0000 ( 10623 PWs)   bands (ev):

   -62.4214 -36.6867 -36.6402 -36.5300 -13.5269 -13.4788  -7.0258  -6.2376
    -5.6585  -5.1413  -4.5110  -3.7792  -1.6093   0.1544   1.4261   1.9633

          k = 0.3484 0.5716 0.0000 ( 10623 PWs)   bands (ev):

   -62.4214 -36.6865 -36.6404 -36.5300 -13.5267 -13.4787  -7.0262  -6.2354
    -5.6604  -5.1421  -4.5104  -3.7799  -1.6087   0.1537   1.4257   1.9641

          k = 0.3484 0.5766 0.0000 ( 10623 PWs)   bands (ev):

   -62.4214 -36.6867 -36.6402 -36.5300 -13.5269 -13.4788  -7.0258  -6.2376
    -5.6585  -5.1413  -4.5110  -3.7792  -1.6093   0.1544   1.4261   1.9633

          k = 0.3484 0.5816 0.0000 ( 10619 PWs)   bands (ev):

   -62.4214 -36.6872 -36.6395 -36.5300 -13.5275 -13.4791  -7.0246  -6.2440
    -5.6529  -5.1388  -4.5127  -3.7774  -1.6110   0.1566   1.4271   1.9612

          k = 0.3484 0.5866 0.0000 ( 10618 PWs)   bands (ev):

   -62.4214 -36.6881 -36.6385 -36.5301 -13.5286 -13.4797  -7.0226  -6.2543
    -5.6439  -5.1347  -4.5154  -3.7743  -1.6138   0.1603   1.4289   1.9576

          k = 0.0000 0.0000 0.0000 ( 10763 PWs)   bands (ev):

   -62.4666 -36.6186 -36.4011 -36.3846 -15.7158 -14.4267  -7.2373  -4.2171
    -4.1075  -3.4301  -3.0831  -3.0178  -1.6642   1.1753   1.2316   1.3852

          k = 0.5000 0.2858 0.0000 ( 10656 PWs)   bands (ev):

   -62.4258 -36.7806 -36.5390 -36.4890 -13.7891 -13.6323  -7.3944  -6.4327
    -5.6732  -4.7721  -3.5028  -2.5551  -2.2244   0.7030   1.2120   2.2713

          k =-0.3333-0.5716 0.0000 ( 10624 PWs)   bands (ev):

   -62.4214 -36.6853 -36.6414 -36.5301 -13.5264 -13.4793  -7.0279  -6.2113
    -5.6845  -5.1460  -4.5013  -3.7891  -1.6007   0.1427   1.4237   1.9662

          k = 0.0833 0.1429 0.0000 ( 10701 PWs)   bands (ev):

   -62.4589 -36.6037 -36.4713 -36.4072 -15.4126 -14.3001  -6.9051  -4.7893
    -4.3128  -3.8339  -3.5959  -2.5819  -1.8456   0.7778   0.9280   1.1232

          k = 0.1000 0.1715 0.0000 ( 10690 PWs)   bands (ev):

   -62.4559 -36.5978 -36.4993 -36.4159 -15.2867 -14.2475  -6.7851  -4.9809
    -4.5029  -3.8355  -3.7241  -2.5439  -1.9519   0.6393   0.9081   1.0168

          k = 0.1167 0.2001 0.0000 ( 10691 PWs)   bands (ev):

   -62.4526 -36.5913 -36.5294 -36.4261 -15.1437 -14.1878  -6.6684  -5.1598
    -4.6812  -4.0998  -3.6169  -2.5337  -2.0798   0.5233   0.9200   0.9301

          k = 0.1333 0.2286 0.0000 ( 10697 PWs)   bands (ev):

   -62.4491 -36.5843 -36.5604 -36.4377 -14.9866 -14.1221  -6.5730  -5.3045
    -4.8535  -4.3692  -3.5321  -2.5502  -2.2121   0.4272   0.8791   0.9621

          k = 0.1500 0.2572 0.0000 ( 10697 PWs)   bands (ev):

   -62.4455 -36.5911 -36.5772 -36.4508 -14.8188 -14.0518  -6.5210  -5.3918
    -5.0393  -4.6105  -3.4977  -2.5924  -2.3211   0.3551   0.8687   1.0296

          k = 0.1667 0.2858 0.0000 ( 10695 PWs)   bands (ev):

   -62.4418 -36.6201 -36.5700 -36.4653 -14.6442 -13.9785  -6.5252  -5.4099
    -5.2662  -4.7842  -3.5400  -2.6588  -2.3799   0.3202   0.8898   1.1158

          k = 0.1833 0.3144 0.0000 ( 10679 PWs)   bands (ev):

   -62.4383 -36.6465 -36.5630 -36.4812 -14.4673 -13.9039  -6.5734  -5.5304
    -5.3728  -4.8840  -3.6623  -2.7477  -2.3834   0.3359   0.9282   1.2122

          k = 0.2000 0.3429 0.0000 ( 10675 PWs)   bands (ev):

   -62.4349 -36.6693 -36.5564 -36.4983 -14.2929 -13.8298  -6.6380  -5.8044
    -5.3112  -4.9291  -3.8428  -2.8565  -2.3472   0.4044   0.9717   1.3092

          k = 0.2167 0.3715 0.0000 ( 10680 PWs)   bands (ev):

   -62.4319 -36.6876 -36.5504 -36.5164 -14.1263 -13.7582  -6.6939  -6.0685
    -5.2519  -4.9334  -4.0573  -2.9821  -2.2840   0.5061   1.0200   1.3957

          k = 0.2333 0.4001 0.0000 ( 10660 PWs)   bands (ev):

   -62.4291 -36.7009 -36.5450 -36.5355 -13.9727 -13.6911  -6.7239  -6.3109
    -5.2113  -4.9046  -4.2893  -3.1202  -2.1974   0.5884   1.1002   1.4611

          k = 0.2500 0.4287 0.0000 ( 10653 PWs)   bands (ev):

   -62.4268 -36.7088 -36.5553 -36.5404 -13.8373 -13.6305  -6.7172  -6.5244
    -5.1980  -4.8484  -4.5269  -3.2659  -2.0881   0.5904   1.2483   1.4979

          k = 0.2667 0.4573 0.0000 ( 10639 PWs)   bands (ev):

   -62.4248 -36.7113 -36.5755 -36.5366 -13.7242 -13.5785  -6.7036  -6.6676
    -5.2180  -4.7711  -4.7561  -3.4129  -1.9613   0.5122   1.4459   1.5052

          k = 0.2833 0.4858 0.0000 ( 10622 PWs)   bands (ev):

   -62.4233 -36.7086 -36.5957 -36.5337 -13.6362 -13.5365  -6.8449  -6.5735
    -5.2881  -4.9486  -4.6814  -3.5531  -1.8290   0.3913   1.4893   1.6474

          k = 0.3000 0.5144 0.0000 ( 10616 PWs)   bands (ev):

   -62.4223 -36.7014 -36.6152 -36.5317 -13.5747 -13.5058  -6.9461  -6.4402
    -5.4296  -5.0669  -4.5925  -3.6749  -1.7103   0.2662   1.4616   1.8160

          k = 0.3167 0.5430 0.0000 ( 10621 PWs)   bands (ev):

   -62.4217 -36.6916 -36.6323 -36.5305 -13.5389 -13.4868  -7.0068  -6.2914
    -5.5987  -5.1247  -4.5245  -3.7603  -1.6281   0.1739   1.4354   1.9261

          k =-0.1667-0.0000 0.0000 ( 10709 PWs)   bands (ev):

   -62.4586 -36.6033 -36.4626 -36.4190 -15.4073 -14.2948  -6.9005  -4.7447
    -4.3016  -3.8962  -3.6264  -2.5722  -1.8348   0.8125   0.9087   1.0825

          k =-0.2000-0.0000 0.0000 ( 10677 PWs)   bands (ev):

   -62.4554 -36.5972 -36.4924 -36.4270 -15.2792 -14.2401  -6.7794  -4.9488
    -4.4958  -3.8620  -3.7758  -2.5368  -1.9401   0.6609   0.8741   0.9901

          k =-0.2333 0.0000 0.0000 ( 10667 PWs)   bands (ev):

   -62.4519 -36.5904 -36.5244 -36.4364 -15.1338 -14.1780  -6.6622  -5.1393
    -4.6791  -4.1236  -3.6555  -2.5275  -2.0705   0.5321   0.8743   0.9193

          k =-0.2667-0.0000 0.0000 ( 10691 PWs)   bands (ev):

   -62.4483 -36.5833 -36.5572 -36.4473 -14.9742 -14.1099  -6.5678  -5.2936
    -4.8571  -4.3911  -3.5540  -2.5436  -2.2106   0.4257   0.8848   0.9081

          k =-0.3000-0.0000 0.0000 ( 10703 PWs)   bands (ev):

   -62.4446 -36.5896 -36.5760 -36.4597 -14.8038 -14.0373  -6.5195  -5.3872
    -5.0497  -4.6305  -3.4990  -2.5841  -2.3333   0.3476   0.8897   0.9708

          k =-0.3333 0.0000 0.0000 ( 10681 PWs)   bands (ev):

   -62.4409 -36.6202 -36.5686 -36.4735 -14.6268 -13.9618  -6.5306  -5.4078
    -5.2831  -4.8028  -3.5207  -2.6483  -2.4081   0.3107   0.9257   1.0557

          k =-0.3667-0.0000 0.0000 ( 10687 PWs)   bands (ev):

   -62.4373 -36.6479 -36.5616 -36.4886 -14.4477 -13.8852  -6.5870  -5.5516
    -5.3713  -4.9033  -3.6284  -2.7348  -2.4238   0.3269   0.9791   1.1543

          k =-0.4000-0.0000 0.0000 ( 10697 PWs)   bands (ev):

   -62.4339 -36.6717 -36.5549 -36.5050 -14.2716 -13.8096  -6.6591  -5.8281
    -5.3102  -4.9501  -3.8019  -2.8414  -2.3936   0.3966   1.0384   1.2567

          k =-0.4333 0.0000 0.0000 ( 10701 PWs)   bands (ev):

   -62.4309 -36.6906 -36.5489 -36.5225 -14.1040 -13.7372  -6.7206  -6.0933
    -5.2521  -4.9563  -4.0145  -2.9651  -2.3319   0.5000   1.1014   1.3516

          k =-0.4667-0.0000 0.0000 ( 10681 PWs)   bands (ev):

   -62.4281 -36.7042 -36.5435 -36.5409 -13.9504 -13.6701  -6.7541  -6.3358
    -5.2135  -4.9287  -4.2476  -3.1020  -2.2435   0.5894   1.1872   1.4273

          k =-0.5000-0.0000 0.0000 ( 10655 PWs)   bands (ev):

   -62.4258 -36.7121 -36.5601 -36.5390 -13.8161 -13.6105  -6.7486  -6.5481
    -5.2020  -4.8730  -4.4887  -3.2471  -2.1297   0.6070   1.3259   1.4746

          k =-0.5333 0.0000 0.0000 ( 10651 PWs)   bands (ev):

   -62.4240 -36.7141 -36.5798 -36.5355 -13.7052 -13.5605  -6.7249  -6.6978
    -5.2219  -4.7953  -4.7243  -3.3943  -1.9963   0.5408   1.4908   1.5092

          k =-0.5667-0.0000 0.0000 ( 10643 PWs)   bands (ev):

   -62.4227 -36.7105 -36.5995 -36.5328 -13.6208 -13.5216  -6.8625  -6.6003
    -5.2866  -4.9286  -4.7038  -3.5359  -1.8558   0.4219   1.4813   1.6963

          k =-0.6000-0.0000 0.0000 ( 10623 PWs)   bands (ev):

   -62.4218 -36.7022 -36.6184 -36.5310 -13.5637 -13.4950  -6.9588  -6.4614
    -5.4196  -5.0615  -4.6108  -3.6606  -1.7276   0.2904   1.4575   1.8493

          k =-0.6333 0.0000 0.0000 ( 10603 PWs)   bands (ev):

   -62.4214 -36.6913 -36.6347 -36.5302 -13.5332 -13.4811  -7.0134  -6.3041
    -5.5890  -5.1256  -4.5355  -3.7517  -1.6357   0.1865   1.4337   1.9426

          k = 0.0833-0.1429 0.0000 ( 10701 PWs)   bands (ev):

   -62.4589 -36.6037 -36.4713 -36.4072 -15.4126 -14.3001  -6.9051  -4.7893
    -4.3128  -3.8339  -3.5959  -2.5819  -1.8456   0.7778   0.9280   1.1232

          k = 0.1000-0.1715 0.0000 ( 10690 PWs)   bands (ev):

   -62.4559 -36.5978 -36.4993 -36.4159 -15.2867 -14.2475  -6.7851  -4.9809
    -4.5029  -3.8355  -3.7241  -2.5439  -1.9519   0.6393   0.9081   1.0168

          k = 0.1167-0.2001 0.0000 ( 10691 PWs)   bands (ev):

   -62.4526 -36.5913 -36.5294 -36.4261 -15.1437 -14.1878  -6.6684  -5.1598
    -4.6812  -4.0998  -3.6169  -2.5337  -2.0798   0.5233   0.9200   0.9301

          k = 0.1333-0.2286 0.0000 ( 10697 PWs)   bands (ev):

   -62.4491 -36.5843 -36.5604 -36.4377 -14.9866 -14.1221  -6.5730  -5.3045
    -4.8535  -4.3692  -3.5321  -2.5502  -2.2121   0.4272   0.8791   0.9621

          k = 0.1500-0.2572 0.0000 ( 10697 PWs)   bands (ev):

   -62.4455 -36.5911 -36.5772 -36.4508 -14.8188 -14.0518  -6.5210  -5.3918
    -5.0393  -4.6105  -3.4977  -2.5924  -2.3211   0.3551   0.8687   1.0296

          k = 0.1667-0.2858 0.0000 ( 10695 PWs)   bands (ev):

   -62.4418 -36.6201 -36.5700 -36.4653 -14.6442 -13.9785  -6.5252  -5.4099
    -5.2662  -4.7842  -3.5400  -2.6588  -2.3799   0.3202   0.8898   1.1158

          k = 0.1833-0.3144 0.0000 ( 10679 PWs)   bands (ev):

   -62.4383 -36.6465 -36.5630 -36.4812 -14.4673 -13.9039  -6.5734  -5.5304
    -5.3728  -4.8840  -3.6623  -2.7477  -2.3834   0.3359   0.9282   1.2122

          k = 0.2000-0.3429 0.0000 ( 10675 PWs)   bands (ev):

   -62.4349 -36.6693 -36.5564 -36.4983 -14.2929 -13.8298  -6.6380  -5.8044
    -5.3112  -4.9291  -3.8428  -2.8565  -2.3472   0.4044   0.9717   1.3092

          k = 0.2167-0.3715 0.0000 ( 10680 PWs)   bands (ev):

   -62.4319 -36.6876 -36.5504 -36.5164 -14.1263 -13.7582  -6.6939  -6.0685
    -5.2519  -4.9334  -4.0573  -2.9821  -2.2840   0.5061   1.0200   1.3957

          k = 0.2333-0.4001 0.0000 ( 10660 PWs)   bands (ev):

   -62.4291 -36.7009 -36.5450 -36.5355 -13.9727 -13.6911  -6.7239  -6.3109
    -5.2113  -4.9046  -4.2893  -3.1202  -2.1974   0.5884   1.1002   1.4611

          k = 0.2500-0.4287 0.0000 ( 10653 PWs)   bands (ev):

   -62.4268 -36.7088 -36.5553 -36.5404 -13.8373 -13.6305  -6.7172  -6.5244
    -5.1980  -4.8484  -4.5269  -3.2659  -2.0881   0.5904   1.2483   1.4979

          k = 0.2667-0.4573 0.0000 ( 10639 PWs)   bands (ev):

   -62.4248 -36.7113 -36.5755 -36.5366 -13.7242 -13.5785  -6.7036  -6.6676
    -5.2180  -4.7711  -4.7561  -3.4129  -1.9613   0.5122   1.4459   1.5052

          k = 0.2833-0.4858 0.0000 ( 10622 PWs)   bands (ev):

   -62.4233 -36.7086 -36.5957 -36.5337 -13.6362 -13.5365  -6.8449  -6.5735
    -5.2881  -4.9486  -4.6814  -3.5531  -1.8290   0.3913   1.4893   1.6474

          k = 0.3000-0.5144 0.0000 ( 10616 PWs)   bands (ev):

   -62.4223 -36.7014 -36.6152 -36.5317 -13.5747 -13.5058  -6.9461  -6.4402
    -5.4296  -5.0669  -4.5925  -3.6749  -1.7103   0.2662   1.4616   1.8160

          k = 0.3167-0.5430 0.0000 ( 10621 PWs)   bands (ev):

   -62.4217 -36.6916 -36.6323 -36.5305 -13.5389 -13.4868  -7.0068  -6.2914
    -5.5987  -5.1247  -4.5245  -3.7603  -1.6281   0.1739   1.4354   1.9261

     Writing all to output data dir ./tmp/mos2.save/ :
     XML data file, pseudopotentials, collected wavefunctions
 
     init_run     :      0.68s CPU      1.01s WALL (       1 calls)
     electrons    :    130.50s CPU    132.80s WALL (       1 calls)

     Called by init_run:
     wfcinit      :      0.00s CPU      0.00s WALL (       1 calls)
     wfcinit:atom :      0.05s CPU      0.06s WALL (      97 calls)
     wfcinit:wfcr :      2.29s CPU      2.33s WALL (      97 calls)
     potinit      :      0.12s CPU      0.14s WALL (       1 calls)
     hinit0       :      0.11s CPU      0.12s WALL (       1 calls)

     Called by electrons:
     c_bands      :    130.50s CPU    132.79s WALL (       1 calls)
     v_of_rho     :      0.10s CPU      0.11s WALL (       1 calls)
     v_h          :      0.01s CPU      0.01s WALL (       1 calls)
     v_xc         :      0.09s CPU      0.10s WALL (       1 calls)
     newd         :      0.39s CPU      0.66s WALL (       1 calls)

     Called by c_bands:
     init_us_2    :      0.09s CPU      0.11s WALL (      97 calls)
     ccgdiagg     :    127.91s CPU    129.97s WALL (     100 calls)
     wfcrot       :      2.35s CPU      2.39s WALL (     100 calls)

     Called by sum_band:

     Called by *cgdiagg:
     h_psi        :     85.85s CPU     87.22s WALL (   53371 calls)
     s_psi        :     15.06s CPU     15.37s WALL (  106642 calls)

     Called by h_psi:
     h_psi:calbec :     18.81s CPU     19.05s WALL (   53371 calls)
     vloc_psi     :     55.21s CPU     56.20s WALL (   53371 calls)
                                        0.00s GPU  (   53371 calls)
     add_vuspsi   :     10.72s CPU     10.89s WALL (   53371 calls)
     hs_1psi      :     92.85s CPU     94.32s WALL (   53271 calls)
     s_1psi       :     16.36s CPU     16.65s WALL (   53271 calls)

     General routines
     calbec       :     27.33s CPU     27.72s WALL (  106642 calls)
     fft          :      0.06s CPU      0.07s WALL (      13 calls)
     ffts         :      0.00s CPU      0.00s WALL (       1 calls)
     fftw         :     39.95s CPU     40.65s WALL (  110130 calls)
     interpolate  :      0.01s CPU      0.01s WALL (       1 calls)
     davcio       :      0.04s CPU      0.13s WALL (     194 calls)
 
     Parallel routines
 
     PWSCF        :   2m11.43s CPU   2m14.28s WALL

 
   This run was terminated on:   0: 8:50  23Sep2026            

=------------------------------------------------------------------------------=
   JOB DONE.
=------------------------------------------------------------------------------=
