
     Program PWSCF v.7.5 starts on 23Sep2026 at  0: 6:14 

     This program is part of the open-source Quantum ESPRESSO suite
     for quantum simulation of materials; please cite
         "P. Giannozzi et al., J. Phys.:Condens. Matter 21 395502 (2009);
         "P. Giannozzi et al., J. Phys.:Condens. Matter 29 465901 (2017);
         "P. Giannozzi et al., J. Chem. Phys. 152 154105 (2020);
          URL http://www.quantum-espresso.org", 
     in publications or presentations arising from this work. More details at
     http://www.quantum-espresso.org/quote

     Parallel version (MPI), running on     8 processors

     MPI processes distributed on     1 nodes
     2243 MiB available memory on the printing compute node when the environment starts
 
     Reading input from mos2.scf.in

     Current dimensions of program PWSCF are:
     Max number of different atomic species (ntypx) = 10
     Max number of k-points (npk) =  40000
     Max angular momentum in pseudopotentials (lmaxx) =  4
     file Mo.pbe-spn-rrkjus_psl.1.0.0.UPF: wavefunction(s)  4S renormalized
     Message from routine setup:
     using ibrav=0 with symmetry is DISCOURAGED, use correct ibrav instead
 
     R & G space division:  proc/nbgrp/npool/nimage =       8
     Subspace diagonalization in iterative solution of the eigenvalue problem:
     a serial algorithm will be used

 
     Parallelization info
     --------------------
     sticks:   dense  smooth     PW     G-vecs:    dense   smooth      PW
     Min         147      73     21                30135    10661    1703
     Max         148      74     23                30152    10682    1727
     Sum        1177     591    171               241125    85351   13699
 
     Using Slab Decomposition
 


     bravais-lattice index     =            0
     lattice parameter (alat)  =       5.9543  a.u.
     unit-cell volume          =    1359.1338 (a.u.)^3
     number of atoms/cell      =            3
     number of atomic types    =            2
     number of electrons       =        26.00
     number of Kohn-Sham states=           16
     kinetic-energy cutoff     =      60.0000  Ry
     charge density cutoff     =     480.0000  Ry
     scf convergence threshold =      1.0E-12
     mixing beta               =       0.3000
     number of iterations used =            8  plain     mixing
     Exchange-correlation= PBE
                           (   1   4   3   4   0   0   0)

     celldm(1)=   5.954339  celldm(2)=   0.000000  celldm(3)=   0.000000
     celldm(4)=   0.000000  celldm(5)=   0.000000  celldm(6)=   0.000000

     crystal axes: (cart. coord. in units of alat)
               a(1) = (   1.000000   0.000000   0.000000 )  
               a(2) = (  -0.500000   0.874773   0.000000 )  
               a(3) = (   0.000000   0.000000   7.359800 )  

     reciprocal axes: (cart. coord. in units 2 pi/alat)
               b(1) = (  1.000000  0.571577  0.000000 )  
               b(2) = (  0.000000  1.143154  0.000000 )  
               b(3) = (  0.000000  0.000000  0.135873 )  


     PseudoPot. # 1 for Mo read from file:
     ../pseudo/Mo.pbe-spn-rrkjus_psl.1.0.0.UPF
     MD5 check sum: 03f09b12e49601d1a456a78ce8b2d514
     Pseudo is Ultrasoft + core correction, Zval = 14.0
     Generated using &quot;atomic&quot; code by A. Dal Corso  v.6.3
     Using radial grid of 1229 points,  6 beta functions with: 
                l(1) =   0
                l(2) =   0
                l(3) =   1
                l(4) =   1
                l(5) =   2
                l(6) =   2
     Q(r) pseudized with 0 coefficients 


     PseudoPot. # 2 for S  read from file:
     ../pseudo/S.pbe-n-rrkjus_psl.1.0.0.UPF
     MD5 check sum: 9d0fe39aa2a799ea84730884c9b010f4
     Pseudo is Ultrasoft + core correction, Zval =  6.0
     Generated using &quot;atomic&quot; code by A. Dal Corso  v.6.3
     Using radial grid of 1151 points,  6 beta functions with: 
                l(1) =   0
                l(2) =   0
                l(3) =   1
                l(4) =   1
                l(5) =   2
                l(6) =   2
     Q(r) pseudized with 0 coefficients 


     atomic species   valence    mass     pseudopotential
     Mo               14.00    95.95000     Mo( 1.00)
     S                 6.00    32.06000     S ( 1.00)

      4 Sym. Ops. (no inversion) found


                                    s                        frac. trans.

      isym =  1     identity                                     

 cryst.   s( 1) = (     1          0          0      )
                  (     0          1          0      )
                  (     0          0          1      )

 cart.    s( 1) = (  1.0000000  0.0000000  0.0000000 )
                  (  0.0000000  1.0000000  0.0000000 )
                  (  0.0000000  0.0000000  1.0000000 )


      isym =  2     180 deg rotation - cart. axis [0,1,0]        

 cryst.   s( 2) = (    -1          0          0      )
                  (     1          1          0      )
                  (     0          0         -1      )

 cart.    s( 2) = ( -1.0000000 -0.0000000  0.0000000 )
                  (  0.0000000  1.0000000  0.0000000 )
                  (  0.0000000  0.0000000 -1.0000000 )


      isym =  3     inv. 180 deg rotation - cart. axis [0,0,1]   

 cryst.   s( 3) = (     1          0          0      )
                  (     0          1          0      )
                  (     0          0         -1      )

 cart.    s( 3) = (  1.0000000  0.0000000  0.0000000 )
                  (  0.0000000  1.0000000  0.0000000 )
                  (  0.0000000  0.0000000 -1.0000000 )


      isym =  4     inv. 180 deg rotation - cart. axis [1,0,0]   

 cryst.   s( 4) = (    -1          0          0      )
                  (     1          1          0      )
                  (     0          0          1      )

 cart.    s( 4) = ( -1.0000000 -0.0000000  0.0000000 )
                  (  0.0000000  1.0000000  0.0000000 )
                  (  0.0000000  0.0000000  1.0000000 )


   Cartesian axes

     site n.     atom                  positions (alat units)
         1        Mo     tau(   1) = (  -0.0000000  -0.0006530   3.6799002  )
         2        S      tau(   2) = (   0.5000000   0.2919175   4.1782439  )
         3        S      tau(   3) = (   0.5000000   0.2919175   3.1815565  )

   Crystallographic axes

     site n.     atom                  positions (cryst. coord.)
         1        Mo     tau(   1) = ( -0.0003732 -0.0007465  0.5000000  )
         2        S      tau(   2) = (  0.6668533  0.3337066  0.5677116  )
         3        S      tau(   3) = (  0.6668533  0.3337066  0.4322884  )

     number of k points=    43
                       cart. coord. in units 2pi/alat
        k(    1) = (   0.0000000   0.0000000   0.0000000), wk =   0.0138889
        k(    2) = (   0.0000000   0.0952628   0.0000000), wk =   0.0277778
        k(    3) = (   0.0000000   0.1905256   0.0000000), wk =   0.0277778
        k(    4) = (   0.0000000   0.2857884   0.0000000), wk =   0.0277778
        k(    5) = (   0.0000000   0.3810512   0.0000000), wk =   0.0277778
        k(    6) = (   0.0000000   0.4763140   0.0000000), wk =   0.0277778
        k(    7) = (   0.0000000  -0.5715768   0.0000000), wk =   0.0138889
        k(    8) = (   0.0833333   0.0476314   0.0000000), wk =   0.0555556
        k(    9) = (   0.0833333   0.1428942   0.0000000), wk =   0.0555556
        k(   10) = (   0.0833333   0.2381570   0.0000000), wk =   0.0555556
        k(   11) = (   0.0833333   0.3334198   0.0000000), wk =   0.0555556
        k(   12) = (   0.0833333   0.4286826   0.0000000), wk =   0.0555556
        k(   13) = (   0.0833333   0.5239454   0.0000000), wk =   0.0555556
        k(   14) = (   0.1666667   0.0952628   0.0000000), wk =   0.0555556
        k(   15) = (   0.1666667   0.1905256   0.0000000), wk =   0.0555556
        k(   16) = (   0.1666667   0.2857884   0.0000000), wk =   0.0555556
        k(   17) = (   0.1666667   0.3810512   0.0000000), wk =   0.0555556
        k(   18) = (   0.1666667   0.4763140   0.0000000), wk =   0.0555556
        k(   19) = (   0.1666667   0.5715768   0.0000000), wk =   0.0277778
        k(   20) = (   0.1666667   0.0000000   0.0000000), wk =   0.0277778
        k(   21) = (   0.2500000   0.1428942   0.0000000), wk =   0.0555556
        k(   22) = (   0.2500000   0.2381570   0.0000000), wk =   0.0555556
        k(   23) = (   0.2500000   0.3334198   0.0000000), wk =   0.0555556
        k(   24) = (   0.2500000   0.4286826   0.0000000), wk =   0.0555556
        k(   25) = (   0.2500000   0.5239454   0.0000000), wk =   0.0555556
        k(   26) = (   0.2500000  -0.0476314   0.0000000), wk =   0.0555556
        k(   27) = (   0.3333333   0.1905256   0.0000000), wk =   0.0555556
        k(   28) = (   0.3333333   0.2857884   0.0000000), wk =   0.0555556
        k(   29) = (   0.3333333   0.3810512   0.0000000), wk =   0.0555556
        k(   30) = (   0.3333333   0.4763140   0.0000000), wk =   0.0555556
        k(   31) = (   0.3333333   0.5715768   0.0000000), wk =   0.0277778
        k(   32) = (   0.3333333  -0.0952628   0.0000000), wk =   0.0555556
        k(   33) = (   0.3333333   0.0000000   0.0000000), wk =   0.0277778
        k(   34) = (   0.4166667   0.2381570   0.0000000), wk =   0.0555556
        k(   35) = (   0.4166667   0.3334198   0.0000000), wk =   0.0555556
        k(   36) = (   0.4166667   0.4286826   0.0000000), wk =   0.0555556
        k(   37) = (   0.4166667   0.5239454   0.0000000), wk =   0.0555556
        k(   38) = (   0.4166667  -0.1428942   0.0000000), wk =   0.0555556
        k(   39) = (   0.4166667  -0.0476314   0.0000000), wk =   0.0555556
        k(   40) = (  -0.5000000  -0.2857884   0.0000000), wk =   0.0277778
        k(   41) = (  -0.5000000  -0.1905256   0.0000000), wk =   0.0555556
        k(   42) = (  -0.5000000  -0.0952628   0.0000000), wk =   0.0555556
        k(   43) = (  -0.5000000  -0.0000000   0.0000000), wk =   0.0277778

                       cryst. coord.
        k(    1) = (   0.0000000   0.0000000   0.0000000), wk =   0.0138889
        k(    2) = (   0.0000000   0.0833333   0.0000000), wk =   0.0277778
        k(    3) = (   0.0000000   0.1666667   0.0000000), wk =   0.0277778
        k(    4) = (   0.0000000   0.2500000   0.0000000), wk =   0.0277778
        k(    5) = (   0.0000000   0.3333333   0.0000000), wk =   0.0277778
        k(    6) = (   0.0000000   0.4166667   0.0000000), wk =   0.0277778
        k(    7) = (   0.0000000  -0.5000000   0.0000000), wk =   0.0138889
        k(    8) = (   0.0833333   0.0000000   0.0000000), wk =   0.0555556
        k(    9) = (   0.0833333   0.0833333   0.0000000), wk =   0.0555556
        k(   10) = (   0.0833333   0.1666667   0.0000000), wk =   0.0555556
        k(   11) = (   0.0833333   0.2500000   0.0000000), wk =   0.0555556
        k(   12) = (   0.0833333   0.3333333   0.0000000), wk =   0.0555556
        k(   13) = (   0.0833333   0.4166667   0.0000000), wk =   0.0555556
        k(   14) = (   0.1666667   0.0000000   0.0000000), wk =   0.0555556
        k(   15) = (   0.1666667   0.0833333   0.0000000), wk =   0.0555556
        k(   16) = (   0.1666667   0.1666667   0.0000000), wk =   0.0555556
        k(   17) = (   0.1666667   0.2500000   0.0000000), wk =   0.0555556
        k(   18) = (   0.1666667   0.3333333   0.0000000), wk =   0.0555556
        k(   19) = (   0.1666667   0.4166667   0.0000000), wk =   0.0277778
        k(   20) = (   0.1666667  -0.0833333   0.0000000), wk =   0.0277778
        k(   21) = (   0.2500000   0.0000000   0.0000000), wk =   0.0555556
        k(   22) = (   0.2500000   0.0833333   0.0000000), wk =   0.0555556
        k(   23) = (   0.2500000   0.1666667   0.0000000), wk =   0.0555556
        k(   24) = (   0.2500000   0.2500000   0.0000000), wk =   0.0555556
        k(   25) = (   0.2500000   0.3333333   0.0000000), wk =   0.0555556
        k(   26) = (   0.2500000  -0.1666667   0.0000000), wk =   0.0555556
        k(   27) = (   0.3333333   0.0000000   0.0000000), wk =   0.0555556
        k(   28) = (   0.3333333   0.0833333   0.0000000), wk =   0.0555556
        k(   29) = (   0.3333333   0.1666667   0.0000000), wk =   0.0555556
        k(   30) = (   0.3333333   0.2500000   0.0000000), wk =   0.0555556
        k(   31) = (   0.3333333   0.3333333   0.0000000), wk =   0.0277778
        k(   32) = (   0.3333333  -0.2500000   0.0000000), wk =   0.0555556
        k(   33) = (   0.3333333  -0.1666667   0.0000000), wk =   0.0277778
        k(   34) = (   0.4166667   0.0000000   0.0000000), wk =   0.0555556
        k(   35) = (   0.4166667   0.0833333   0.0000000), wk =   0.0555556
        k(   36) = (   0.4166667   0.1666667   0.0000000), wk =   0.0555556
        k(   37) = (   0.4166667   0.2500000   0.0000000), wk =   0.0555556
        k(   38) = (   0.4166667  -0.3333333   0.0000000), wk =   0.0555556
        k(   39) = (   0.4166667  -0.2500000   0.0000000), wk =   0.0555556
        k(   40) = (  -0.5000000  -0.0000000   0.0000000), wk =   0.0277778
        k(   41) = (  -0.5000000   0.0833333   0.0000000), wk =   0.0555556
        k(   42) = (  -0.5000000   0.1666667   0.0000000), wk =   0.0555556
        k(   43) = (  -0.5000000   0.2500000   0.0000000), wk =   0.0277778

     Dense  grid:   241125 G-vectors     FFT dimensions: (  45,  45, 320)

     Smooth grid:    85351 G-vectors     FFT dimensions: (  30,  30, 225)

     Dynamical RAM for                 wfc:       0.33 MB

     Dynamical RAM for     wfc (w. buffer):      14.32 MB

     Dynamical RAM for           str. fact:       0.92 MB

     Dynamical RAM for           local pot:       0.00 MB

     Dynamical RAM for          nlocal pot:       1.10 MB

     Dynamical RAM for                qrad:       3.52 MB

     Dynamical RAM for          rho,v,vnew:       3.23 MB

     Dynamical RAM for               rhoin:       1.08 MB

     Dynamical RAM for            rho*nmix:       7.36 MB

     Dynamical RAM for           G-vectors:       1.81 MB

     Dynamical RAM for          h,s,v(r/c):       0.01 MB

     Dynamical RAM for          <psi|beta>:       0.01 MB

     Dynamical RAM for      wfcinit/wfcrot:       0.66 MB

     Dynamical RAM for           addusdens:      86.45 MB

     Dynamical RAM for          addusforce:      87.61 MB

     Dynamical RAM for         addusstress:      92.43 MB

     Estimated static dynamical RAM per process >      30.44 MB

     Estimated max dynamical RAM per process >     130.23 MB

     Estimated total dynamical RAM >       1.02 GB

     The initial density is read from file :
     ./tmp/mos2.save/charge-density


     negative rho (up, down):  3.845E-04 0.000E+00
     Starting wfcs from file

     total cpu time spent up to now is        1.4 secs

     Self-consistent Calculation

     iteration #  1     ecut=    60.00 Ry     beta= 0.30
     CG style diagonalization

---- Real-time Memory Report at c_bands before calling an iterative solver
           162 MiB given to the printing process from OS
             0 MiB allocation reported by mallinfo(arena+hblkhd)
          1912 MiB available memory on the node where the printing process lives
------------------
     ethr =  1.00E-10,  avg # of iterations =  2.0

     Threshold (ethr) on eigenvalues was too large:
     Diagonalizing with lowered threshold

     CG style diagonalization

---- Real-time Memory Report at c_bands before calling an iterative solver
           181 MiB given to the printing process from OS
             0 MiB allocation reported by mallinfo(arena+hblkhd)
          2268 MiB available memory on the node where the printing process lives
------------------
     ethr =  1.00E-13,  avg # of iterations =  2.0

     negative rho (up, down):  3.845E-04 0.000E+00

     total cpu time spent up to now is       10.4 secs

     End of self-consistent calculation

          k = 0.0000 0.0000 0.0000 ( 10763 PWs)   bands (ev):

   -62.4665 -36.6186 -36.4011 -36.3846 -15.7158 -14.4267  -7.2373  -4.2171
    -4.1075  -3.4301  -3.0831  -3.0178  -1.6642   1.1753   1.2316   1.3852

     occupation numbers 
     1.0000   1.0000   1.0000   1.0000   1.0000   1.0000   1.0000   1.0000
     1.0000   1.0000   1.0000   1.0000   1.0000   0.0000   0.0000   0.0000

          k = 0.0000 0.0953 0.0000 ( 10755 PWs)   bands (ev):

   -62.4639 -36.6135 -36.4274 -36.3904 -15.6128 -14.3841  -7.1189  -4.4435
    -3.9998  -3.8958  -3.1794  -2.7828  -1.7133   1.0482   1.0990   1.3608

     occupation numbers 
     1.0000   1.0000   1.0000   1.0000   1.0000   1.0000   1.0000   1.0000
     1.0000   1.0000   1.0000   1.0000   1.0000   0.0000   0.0000   0.0000

          k = 0.0000 0.1905 0.0000 ( 10727 PWs)   bands (ev):

   -62.4568 -36.5995 -36.4986 -36.4062 -15.3195 -14.2631  -6.8199  -4.9685
    -4.5439  -3.6993  -3.5607  -2.7077  -1.9413   0.6566   1.0050   1.0930

     occupation numbers 
     1.0000   1.0000   1.0000   1.0000   1.0000   1.0000   1.0000   1.0000
     1.0000   1.0000   1.0000   1.0000   1.0000   0.0000   0.0000   0.0000

          k = 0.0000 0.2858 0.0000 ( 10683 PWs)   bands (ev):

   -62.4471 -36.5947 -36.5803 -36.4278 -14.8848 -14.0855  -6.5989  -5.4292
    -5.2039  -3.9889  -3.2772  -2.9637  -2.3665   0.5362   0.8247   1.3337

     occupation numbers 
     1.0000   1.0000   1.0000   1.0000   1.0000   1.0000   1.0000   1.0000
     1.0000   1.0000   1.0000   1.0000   1.0000   0.0000   0.0000   0.0000

          k = 0.0000 0.3811 0.0000 ( 10675 PWs)   bands (ev):

   -62.4374 -36.6893 -36.5610 -36.4492 -14.3959 -13.8906  -6.8480  -5.8108
    -5.5279  -4.3496  -3.2742  -2.8537  -2.6093   0.6773   0.7245   1.8238

     occupation numbers 
     1.0000   1.0000   1.0000   1.0000   1.0000   1.0000   1.0000   1.0000
     1.0000   1.0000   1.0000   1.0000   1.0000   0.0000   0.0000   0.0000

          k = 0.0000 0.4763 0.0000 ( 10621 PWs)   bands (ev):

   -62.4302 -36.7577 -36.5468 -36.4648 -13.9878 -13.7341  -7.2411  -6.2527
    -5.6152  -4.5840  -3.4743  -2.5589  -2.4397   0.6722   1.0232   2.1863

     occupation numbers 
     1.0000   1.0000   1.0000   1.0000   1.0000   1.0000   1.0000   1.0000
     1.0000   1.0000   1.0000   1.0000   1.0000   0.0000   0.0000   0.0000

          k = 0.0000-0.5716 0.0000 ( 10604 PWs)   bands (ev):

   -62.4276 -36.7826 -36.5416 -36.4705 -13.8238 -13.6734  -7.4104  -6.4160
    -5.6844  -4.6648  -3.5394  -2.4583  -2.2763   0.6998   1.1913   2.3037

     occupation numbers 
     1.0000   1.0000   1.0000   1.0000   1.0000   1.0000   1.0000   1.0000
     1.0000   1.0000   1.0000   1.0000   1.0000   0.0000   0.0000   0.0000

          k = 0.0833 0.0476 0.0000 ( 10739 PWs)   bands (ev):

   -62.4638 -36.6133 -36.4186 -36.4004 -15.6109 -14.3822  -7.1171  -4.3776
    -4.0743  -3.8750  -3.2365  -2.7511  -1.7081   1.0743   1.1558   1.2982

     occupation numbers 
     1.0000   1.0000   1.0000   1.0000   1.0000   1.0000   1.0000   1.0000
     1.0000   1.0000   1.0000   1.0000   1.0000   0.0000   0.0000   0.0000

          k = 0.0833 0.1429 0.0000 ( 10701 PWs)   bands (ev):

   -62.4589 -36.6037 -36.4713 -36.4072 -15.4126 -14.3001  -6.9051  -4.7893
    -4.3128  -3.8339  -3.5959  -2.5819  -1.8456   0.7778   0.9280   1.1232

     occupation numbers 
     1.0000   1.0000   1.0000   1.0000   1.0000   1.0000   1.0000   1.0000
     1.0000   1.0000   1.0000   1.0000   1.0000   0.0000   0.0000   0.0000

          k = 0.0833 0.2382 0.0000 ( 10684 PWs)   bands (ev):

   -62.4505 -36.5871 -36.5534 -36.4274 -15.0477 -14.1496  -6.6138  -5.2780
    -4.8669  -4.1312  -3.5129  -2.6207  -2.1816   0.4798   0.9049   1.0076

     occupation numbers 
     1.0000   1.0000   1.0000   1.0000   1.0000   1.0000   1.0000   1.0000
     1.0000   1.0000   1.0000   1.0000   1.0000   0.0000   0.0000   0.0000

          k = 0.0833 0.3334 0.0000 ( 10683 PWs)   bands (ev):

   -62.4409 -36.6454 -36.5679 -36.4522 -14.5823 -13.9601  -6.6325  -5.5164
    -5.4753  -4.4917  -3.2816  -2.9236  -2.4549   0.4432   0.8476   1.4047

     occupation numbers 
     1.0000   1.0000   1.0000   1.0000   1.0000   1.0000   1.0000   1.0000
     1.0000   1.0000   1.0000   1.0000   1.0000   0.0000   0.0000   0.0000

          k = 0.0833 0.4287 0.0000 ( 10644 PWs)   bands (ev):

   -62.4324 -36.7238 -36.5511 -36.4738 -14.1254 -13.7788  -6.9895  -6.1017
    -5.5091  -4.6531  -3.2686  -3.1764  -2.3278   0.6032   0.9572   1.8868

     occupation numbers 
     1.0000   1.0000   1.0000   1.0000   1.0000   1.0000   1.0000   1.0000
     1.0000   1.0000   1.0000   1.0000   1.0000   0.0000   0.0000   0.0000

          k = 0.0833 0.5239 0.0000 ( 10630 PWs)   bands (ev):

   -62.4275 -36.7685 -36.5415 -36.4864 -13.8292 -13.6651  -7.2668  -6.4429
    -5.6256  -4.6998  -3.4867  -3.0402  -2.0967   0.7019   1.1883   2.2823

     occupation numbers 
     1.0000   1.0000   1.0000   1.0000   1.0000   1.0000   1.0000   1.0000
     1.0000   1.0000   1.0000   1.0000   1.0000   0.0000   0.0000   0.0000

          k = 0.1667 0.0953 0.0000 ( 10688 PWs)   bands (ev):

   -62.4563 -36.5988 -36.4893 -36.4198 -15.3123 -14.2556  -6.8146  -4.9151
    -4.5158  -3.7749  -3.6326  -2.6838  -1.9211   0.7030   1.0085   1.0206

     occupation numbers 
     1.0000   1.0000   1.0000   1.0000   1.0000   1.0000   1.0000   1.0000
     1.0000   1.0000   1.0000   1.0000   1.0000   0.0000   0.0000   0.0000

          k = 0.1667 0.1905 0.0000 ( 10694 PWs)   bands (ev):

   -62.4502 -36.5866 -36.5487 -36.4352 -15.0424 -14.1438  -6.6118  -5.2492
    -4.8397  -4.1795  -3.5536  -2.6180  -2.1654   0.4897   0.8712   1.0134

     occupation numbers 
     1.0000   1.0000   1.0000   1.0000   1.0000   1.0000   1.0000   1.0000
     1.0000   1.0000   1.0000   1.0000   1.0000   0.0000   0.0000   0.0000

          k = 0.1667 0.2858 0.0000 ( 10695 PWs)   bands (ev):

   -62.4418 -36.6201 -36.5700 -36.4653 -14.6442 -13.9785  -6.5251  -5.4098
    -5.2662  -4.7842  -3.5400  -2.6588  -2.3799   0.3202   0.8898   1.1158

     occupation numbers 
     1.0000   1.0000   1.0000   1.0000   1.0000   1.0000   1.0000   1.0000
     1.0000   1.0000   1.0000   1.0000   1.0000   0.0000   0.0000   0.0000

          k = 0.1667 0.3811 0.0000 ( 10672 PWs)   bands (ev):

   -62.4334 -36.6869 -36.5533 -36.4992 -14.2012 -13.7953  -6.7157  -5.9650
    -5.3329  -4.8833  -3.8194  -2.9676  -2.3186   0.4750   0.9912   1.4308

     occupation numbers 
     1.0000   1.0000   1.0000   1.0000   1.0000   1.0000   1.0000   1.0000
     1.0000   1.0000   1.0000   1.0000   1.0000   0.0000   0.0000   0.0000

          k = 0.1667 0.4763 0.0000 ( 10636 PWs)   bands (ev):

   -62.4272 -36.7340 -36.5410 -36.5254 -13.8382 -13.6465  -6.9278  -6.4947
    -5.4433  -4.7896  -3.9283  -3.3487  -2.0775   0.6376   1.2242   1.7557

     occupation numbers 
     1.0000   1.0000   1.0000   1.0000   1.0000   1.0000   1.0000   1.0000
     1.0000   1.0000   1.0000   1.0000   1.0000   0.0000   0.0000   0.0000

          k = 0.1667 0.5716 0.0000 ( 10618 PWs)   bands (ev):

   -62.4249 -36.7509 -36.5365 -36.5351 -13.6947 -13.5883  -7.0093  -6.6870
    -5.5610  -4.7091  -3.9177  -3.5352  -1.9089   0.5805   1.4642   1.8953

     occupation numbers 
     1.0000   1.0000   1.0000   1.0000   1.0000   1.0000   1.0000   1.0000
     1.0000   1.0000   1.0000   1.0000   1.0000   0.0000   0.0000   0.0000

          k = 0.1667 0.0000 0.0000 ( 10709 PWs)   bands (ev):

   -62.4586 -36.6033 -36.4626 -36.4190 -15.4073 -14.2948  -6.9005  -4.7447
    -4.3016  -3.8962  -3.6264  -2.5722  -1.8348   0.8125   0.9087   1.0825

     occupation numbers 
     1.0000   1.0000   1.0000   1.0000   1.0000   1.0000   1.0000   1.0000
     1.0000   1.0000   1.0000   1.0000   1.0000   0.0000   0.0000   0.0000

          k = 0.2500 0.1429 0.0000 ( 10692 PWs)   bands (ev):

   -62.4462 -36.5877 -36.5789 -36.4432 -14.8698 -14.0691  -6.5952  -5.3802
    -5.1799  -4.0756  -3.3515  -2.9455  -2.3353   0.5608   0.7585   1.3255

     occupation numbers 
     1.0000   1.0000   1.0000   1.0000   1.0000   1.0000   1.0000   1.0000
     1.0000   1.0000   1.0000   1.0000   1.0000   0.0000   0.0000   0.0000

          k = 0.2500 0.2382 0.0000 ( 10693 PWs)   bands (ev):

   -62.4401 -36.6400 -36.5667 -36.4649 -14.5692 -13.9448  -6.6292  -5.4955
    -5.4317  -4.5553  -3.3419  -2.9243  -2.4327   0.4324   0.8229   1.4086

     occupation numbers 
     1.0000   1.0000   1.0000   1.0000   1.0000   1.0000   1.0000   1.0000
     1.0000   1.0000   1.0000   1.0000   1.0000   0.0000   0.0000   0.0000

          k = 0.2500 0.3334 0.0000 ( 10682 PWs)   bands (ev):

   -62.4330 -36.6839 -36.5526 -36.5064 -14.1934 -13.7856  -6.7110  -5.9635
    -5.3082  -4.9064  -3.8538  -2.9704  -2.3111   0.4725   0.9826   1.4282

     occupation numbers 
     1.0000   1.0000   1.0000   1.0000   1.0000   1.0000   1.0000   1.0000
     1.0000   1.0000   1.0000   1.0000   1.0000   0.0000   0.0000   0.0000

          k = 0.2500 0.4287 0.0000 ( 10653 PWs)   bands (ev):

   -62.4268 -36.7088 -36.5553 -36.5404 -13.8373 -13.6305  -6.7172  -6.5244
    -5.1980  -4.8484  -4.5269  -3.2658  -2.0881   0.5904   1.2483   1.4979

     occupation numbers 
     1.0000   1.0000   1.0000   1.0000   1.0000   1.0000   1.0000   1.0000
     1.0000   1.0000   1.0000   1.0000   1.0000   0.0000   0.0000   0.0000

          k = 0.2500 0.5239 0.0000 ( 10614 PWs)   bands (ev):

   -62.4232 -36.7155 -36.5912 -36.5333 -13.6159 -13.5317  -6.8703  -6.6022
    -5.4311  -4.7964  -4.6435  -3.6073  -1.7891   0.3633   1.5291   1.7002

     occupation numbers 
     1.0000   1.0000   1.0000   1.0000   1.0000   1.0000   1.0000   1.0000
     1.0000   1.0000   1.0000   1.0000   1.0000   0.0000   0.0000   0.0000

          k = 0.2500-0.0476 0.0000 ( 10690 PWs)   bands (ev):

   -62.4497 -36.5860 -36.5472 -36.4409 -15.0343 -14.1361  -6.6075  -5.2470
    -4.8517  -4.1821  -3.5642  -2.6126  -2.1665   0.4885   0.8817   0.9648

     occupation numbers 
     1.0000   1.0000   1.0000   1.0000   1.0000   1.0000   1.0000   1.0000
     1.0000   1.0000   1.0000   1.0000   1.0000   0.0000   0.0000   0.0000

          k = 0.3333 0.1905 0.0000 ( 10663 PWs)   bands (ev):

   -62.4360 -36.6848 -36.5590 -36.4661 -14.3720 -13.8632  -6.8431  -5.8025
    -5.4850  -4.4476  -3.2518  -2.9344  -2.5733   0.6314   0.7415   1.8076

     occupation numbers 
     1.0000   1.0000   1.0000   1.0000   1.0000   1.0000   1.0000   1.0000
     1.0000   1.0000   1.0000   1.0000   1.0000   0.0000   0.0000   0.0000

          k = 0.3333 0.2858 0.0000 ( 10651 PWs)   bands (ev):

   -62.4311 -36.7195 -36.5493 -36.4895 -14.1034 -13.7522  -6.9773  -6.1032
    -5.4773  -4.7225  -3.2616  -3.2360  -2.3104   0.5968   0.9430   1.8805

     occupation numbers 
     1.0000   1.0000   1.0000   1.0000   1.0000   1.0000   1.0000   1.0000
     1.0000   1.0000   1.0000   1.0000   1.0000   0.0000   0.0000   0.0000

          k = 0.3333 0.3811 0.0000 ( 10644 PWs)   bands (ev):

   -62.4263 -36.7305 -36.5397 -36.5371 -13.8212 -13.6257  -6.9158  -6.5085
    -5.4233  -4.8249  -3.9792  -3.3436  -2.0585   0.6429   1.2208   1.7452

     occupation numbers 
     1.0000   1.0000   1.0000   1.0000   1.0000   1.0000   1.0000   1.0000
     1.0000   1.0000   1.0000   1.0000   1.0000   0.0000   0.0000   0.0000

          k = 0.3333 0.4763 0.0000 ( 10623 PWs)   bands (ev):

   -62.4227 -36.7132 -36.5976 -36.5326 -13.6065 -13.5208  -6.8812  -6.5982
    -5.4171  -4.8255  -4.6601  -3.5996  -1.7813   0.3691   1.5248   1.7114

     occupation numbers 
     1.0000   1.0000   1.0000   1.0000   1.0000   1.0000   1.0000   1.0000
     1.0000   1.0000   1.0000   1.0000   1.0000   0.0000   0.0000   0.0000

          k = 0.3333 0.5716 0.0000 ( 10624 PWs)   bands (ev):

   -62.4214 -36.6853 -36.6414 -36.5300 -13.5264 -13.4793  -7.0279  -6.2113
    -5.6845  -5.1460  -4.5013  -3.7891  -1.6007   0.1427   1.4237   1.9662

     occupation numbers 
     1.0000   1.0000   1.0000   1.0000   1.0000   1.0000   1.0000   1.0000
     1.0000   1.0000   1.0000   1.0000   1.0000   0.0000   0.0000   0.0000

          k = 0.3333-0.0953 0.0000 ( 10662 PWs)   bands (ev):

   -62.4395 -36.6421 -36.5661 -36.4669 -14.5598 -13.9364  -6.6358  -5.5109
    -5.4403  -4.5596  -3.3057  -2.9121  -2.4660   0.4219   0.8647   1.3551

     occupation numbers 
     1.0000   1.0000   1.0000   1.0000   1.0000   1.0000   1.0000   1.0000
     1.0000   1.0000   1.0000   1.0000   1.0000   0.0000   0.0000   0.0000

          k = 0.3333 0.0000 0.0000 ( 10681 PWs)   bands (ev):

   -62.4409 -36.6202 -36.5686 -36.4734 -14.6268 -13.9618  -6.5305  -5.4078
    -5.2831  -4.8028  -3.5207  -2.6483  -2.4081   0.3107   0.9257   1.0557

     occupation numbers 
     1.0000   1.0000   1.0000   1.0000   1.0000   1.0000   1.0000   1.0000
     1.0000   1.0000   1.0000   1.0000   1.0000   0.0000   0.0000   0.0000

          k = 0.4167 0.2382 0.0000 ( 10647 PWs)   bands (ev):

   -62.4285 -36.7551 -36.5443 -36.4829 -13.9563 -13.6971  -7.2289  -6.2619
    -5.5930  -4.6890  -3.4424  -2.6506  -2.3932   0.6594   1.0398   2.1597

     occupation numbers 
     1.0000   1.0000   1.0000   1.0000   1.0000   1.0000   1.0000   1.0000
     1.0000   1.0000   1.0000   1.0000   1.0000   0.0000   0.0000   0.0000

          k = 0.4167 0.3334 0.0000 ( 10646 PWs)   bands (ev):

   -62.4259 -36.7659 -36.5392 -36.5033 -13.7993 -13.6294  -7.2510  -6.4606
    -5.6124  -4.7815  -3.4630  -3.1011  -2.0742   0.7081   1.1963   2.2655

     occupation numbers 
     1.0000   1.0000   1.0000   1.0000   1.0000   1.0000   1.0000   1.0000
     1.0000   1.0000   1.0000   1.0000   1.0000   0.0000   0.0000   0.0000

          k = 0.4167 0.4287 0.0000 ( 10641 PWs)   bands (ev):

   -62.4237 -36.7490 -36.5482 -36.5347 -13.6693 -13.5593  -7.0030  -6.7119
    -5.5501  -4.7604  -3.9607  -3.5138  -1.8972   0.5956   1.4947   1.8781

     occupation numbers 
     1.0000   1.0000   1.0000   1.0000   1.0000   1.0000   1.0000   1.0000
     1.0000   1.0000   1.0000   1.0000   1.0000   0.0000   0.0000   0.0000

          k = 0.4167 0.5239 0.0000 ( 10637 PWs)   bands (ev):

   -62.4224 -36.7152 -36.5985 -36.5321 -13.5980 -13.5131  -6.8908  -6.6183
    -5.4160  -4.8077  -4.6730  -3.5881  -1.8029   0.3906   1.5206   1.7440

     occupation numbers 
     1.0000   1.0000   1.0000   1.0000   1.0000   1.0000   1.0000   1.0000
     1.0000   1.0000   1.0000   1.0000   1.0000   0.0000   0.0000   0.0000

          k = 0.4167-0.1429 0.0000 ( 10666 PWs)   bands (ev):

   -62.4308 -36.7221 -36.5488 -36.4898 -14.0952 -13.7456  -6.9921  -6.1129
    -5.4787  -4.7340  -3.2453  -3.1962  -2.3530   0.5802   1.0070   1.8344

     occupation numbers 
     1.0000   1.0000   1.0000   1.0000   1.0000   1.0000   1.0000   1.0000
     1.0000   1.0000   1.0000   1.0000   1.0000   0.0000   0.0000   0.0000

          k = 0.4167-0.0476 0.0000 ( 10689 PWs)   bands (ev):

   -62.4322 -36.6878 -36.5515 -36.5095 -14.1758 -13.7699  -6.7355  -5.9860
    -5.3156  -4.9208  -3.8011  -2.9524  -2.3607   0.4645   1.0598   1.3804

     occupation numbers 
     1.0000   1.0000   1.0000   1.0000   1.0000   1.0000   1.0000   1.0000
     1.0000   1.0000   1.0000   1.0000   1.0000   0.0000   0.0000   0.0000

          k =-0.5000-0.2858 0.0000 ( 10656 PWs)   bands (ev):

   -62.4258 -36.7806 -36.5390 -36.4890 -13.7891 -13.6322  -7.3944  -6.4327
    -5.6732  -4.7721  -3.5028  -2.5551  -2.2244   0.7031   1.2120   2.2713

     occupation numbers 
     1.0000   1.0000   1.0000   1.0000   1.0000   1.0000   1.0000   1.0000
     1.0000   1.0000   1.0000   1.0000   1.0000   0.0000   0.0000   0.0000

          k =-0.5000-0.1905 0.0000 ( 10648 PWs)   bands (ev):

   -62.4258 -36.7670 -36.5390 -36.5033 -13.7959 -13.6268  -7.2583  -6.4639
    -5.6113  -4.7880  -3.4549  -3.0854  -2.0954   0.7059   1.2272   2.2308

     occupation numbers 
     1.0000   1.0000   1.0000   1.0000   1.0000   1.0000   1.0000   1.0000
     1.0000   1.0000   1.0000   1.0000   1.0000   0.0000   0.0000   0.0000

          k =-0.5000-0.0953 0.0000 ( 10638 PWs)   bands (ev):

   -62.4258 -36.7340 -36.5390 -36.5376 -13.8094 -13.6160  -6.9403  -6.5215
    -5.4238  -4.8398  -3.9446  -3.3263  -2.0995   0.6491   1.2902   1.7225

     occupation numbers 
     1.0000   1.0000   1.0000   1.0000   1.0000   1.0000   1.0000   1.0000
     1.0000   1.0000   1.0000   1.0000   1.0000   0.0000   0.0000   0.0000

          k =-0.5000-0.0000 0.0000 ( 10655 PWs)   bands (ev):

   -62.4258 -36.7121 -36.5601 -36.5390 -13.8161 -13.6105  -6.7486  -6.5481
    -5.2020  -4.8730  -4.4887  -3.2471  -2.1297   0.6071   1.3259   1.4746

     occupation numbers 
     1.0000   1.0000   1.0000   1.0000   1.0000   1.0000   1.0000   1.0000
     1.0000   1.0000   1.0000   1.0000   1.0000   0.0000   0.0000   0.0000

     highest occupied, lowest unoccupied level (ev):    -1.6007    0.1427

!    total energy              =    -181.57927296 Ry
     estimated scf accuracy    <          2.2E-13 Ry

     The total energy is the sum of the following terms:
     one-electron contribution =   -1391.33881298 Ry
     hartree contribution      =     695.29321078 Ry
     xc contribution           =     -29.70310309 Ry
     ewald contribution        =     544.16943232 Ry

     convergence has been achieved in   1 iterations

     negative rho (up, down):  3.845E-04 0.000E+00

     Forces acting on atoms (cartesian axes, Ry/au):

     atom    1 type  1   force =     0.00000000    0.00000358    0.00000000
     atom    2 type  2   force =     0.00000000   -0.00000179   -0.00000324
     atom    3 type  2   force =     0.00000000   -0.00000179    0.00000324
     The non-local contrib.  to forces
     atom    1 type  1   force =     0.00000000   -0.00030304    0.00000000
     atom    2 type  2   force =     0.00000000   -0.00034677   -0.27202344
     atom    3 type  2   force =     0.00000000   -0.00034677    0.27202344
     The ionic contribution  to forces
     atom    1 type  1   force =     0.00000000   -0.09120100    0.00000000
     atom    2 type  2   force =    -0.00000000    0.04560050   37.64511936
     atom    3 type  2   force =    -0.00000000    0.04560050  -37.64511936
     The local contribution  to forces
     atom    1 type  1   force =     0.00000000    0.09155947    0.00000000
     atom    2 type  2   force =    -0.00000000   -0.04521257  -37.37549355
     atom    3 type  2   force =    -0.00000000   -0.04521257   37.37549355
     The core correction contribution to forces
     atom    1 type  1   force =    -0.00000000   -0.00005189   -0.00000000
     atom    2 type  2   force =     0.00000000   -0.00004299    0.00239539
     atom    3 type  2   force =     0.00000000   -0.00004299   -0.00239539
     The Hubbard contrib.    to forces
     atom    1 type  1   force =     0.00000000    0.00000000    0.00000000
     atom    2 type  2   force =     0.00000000    0.00000000    0.00000000
     atom    3 type  2   force =     0.00000000    0.00000000    0.00000000
     The SCF correction term to forces
     atom    1 type  1   force =     0.00000000   -0.00000003   -0.00000000
     atom    2 type  2   force =    -0.00000000   -0.00000002   -0.00000100
     atom    3 type  2   force =    -0.00000000   -0.00000002    0.00000100

     Total force =     0.000006     Total SCF correction =     0.000001
     SCF correction compared to forces is large: reduce conv_thr to get better values


     Computing stress (Cartesian axis) and pressure


     negative rho (up, down):  3.845E-04 0.000E+00
          total   stress  (Ry/bohr**3)                   (kbar)     P=        2.19
   0.00004048   0.00000000   0.00000000            5.95        0.00        0.00
   0.00000000   0.00000952   0.00000000            0.00        1.40        0.00
   0.00000000   0.00000000  -0.00000537            0.00        0.00       -0.79

     kinetic stress (kbar)   4927.87      0.00      0.00
                                0.00   4919.26      0.00
                                0.00      0.00   4962.54

     local   stress (kbar)-149802.05      0.00     -0.00
                                0.00-149751.42      0.00
                               -0.00      0.00 146772.24

     nonloc. stress (kbar)   2249.55      0.00      0.00
                                0.00   2250.74      0.00
                                0.00      0.00   2241.37

     hartree stress (kbar)  73471.22     -0.00      0.00
                               -0.00  73454.58      0.00
                                0.00      0.00 -71671.13

     exc-cor stress (kbar)   -418.05     -0.00      0.00
                               -0.00   -418.15      0.00
                                0.00      0.00   -419.23

     corecor stress (kbar)   -553.41      0.00      0.00
                                0.00   -553.39      0.00
                                0.00      0.00   -553.84

     ewald   stress (kbar)  70130.83     -0.00     -0.00
                               -0.00  70099.78      0.00
                               -0.00      0.00 -81332.74

     hubbard stress (kbar)      0.00      0.00      0.00
                                0.00      0.00      0.00
                                0.00      0.00      0.00

     DFT-D   stress (kbar)      0.00      0.00      0.00
                                0.00      0.00      0.00
                                0.00      0.00      0.00

     XDM     stress (kbar)      0.00      0.00      0.00
                                0.00      0.00      0.00
                                0.00      0.00      0.00

     dft-nl  stress (kbar)      0.00      0.00      0.00
                                0.00      0.00      0.00
                                0.00      0.00      0.00

     TS-vdW  stress (kbar)      0.00      0.00      0.00
                                0.00      0.00      0.00
                                0.00      0.00      0.00

     MDB     stress (kbar)      0.00      0.00      0.00
                                0.00      0.00      0.00
                                0.00      0.00      0.00

     3D-RISM stress (kbar)      0.00      0.00      0.00
                                0.00      0.00      0.00
                                0.00      0.00      0.00


     Writing all to output data dir ./tmp/mos2.save/ :
     XML data file, charge density, pseudopotentials, collected wavefunctions
 
     init_run     :      0.78s CPU      1.18s WALL (       1 calls)
     electrons    :      8.07s CPU      9.02s WALL (       1 calls)
     forces       :      1.34s CPU      1.66s WALL (       1 calls)
     stress       :      4.32s CPU      5.25s WALL (       1 calls)

     Called by init_run:
     wfcinit      :      0.08s CPU      0.10s WALL (       1 calls)
     potinit      :      0.15s CPU      0.19s WALL (       1 calls)
     hinit0       :      0.10s CPU      0.12s WALL (       1 calls)

     Called by electrons:
     c_bands      :      5.87s CPU      5.97s WALL (       2 calls)
     sum_band     :      1.73s CPU      2.28s WALL (       2 calls)
     v_of_rho     :      0.22s CPU      0.26s WALL (       2 calls)
     v_h          :      0.02s CPU      0.02s WALL (       2 calls)
     v_xc         :      0.44s CPU      0.48s WALL (       4 calls)
     newd         :      0.73s CPU      1.28s WALL (       2 calls)
     mix_rho      :      0.00s CPU      0.00s WALL (       2 calls)

     Called by c_bands:
     init_us_2    :      0.42s CPU      0.42s WALL (     258 calls)
     ccgdiagg     :      5.69s CPU      5.78s WALL (      86 calls)

     Called by sum_band:
     sum_band:wei :      0.00s CPU      0.00s WALL (       2 calls)
     sum_band:loo :      0.86s CPU      0.89s WALL (       2 calls)
     sum_band:buf :      0.03s CPU      0.03s WALL (      86 calls)
     sum_band:ini :      0.14s CPU      0.15s WALL (      86 calls)
     sum_band:cal :      0.14s CPU      0.15s WALL (      86 calls)
     sum_band:bec :      0.00s CPU      0.00s WALL (      86 calls)
     addusdens    :      0.83s CPU      1.36s WALL (       2 calls)
                                        0.00s GPU  (       2 calls)
     addusd:skk   :      0.00s CPU      0.00s WALL (       4 calls)
                                        0.00s GPU  (       4 calls)

     Called by *cgdiagg:
     h_psi        :      3.90s CPU      3.96s WALL (    2752 calls)
     s_psi        :      0.70s CPU      0.71s WALL (    5504 calls)

     Called by h_psi:
     h_psi:calbec :      0.81s CPU      0.82s WALL (    2752 calls)
     vloc_psi     :      2.56s CPU      2.60s WALL (    2752 calls)
                                        0.00s GPU  (    2752 calls)
     add_vuspsi   :      0.47s CPU      0.48s WALL (    2752 calls)
     hs_1psi      :      4.31s CPU      4.38s WALL (    2752 calls)
     s_1psi       :      0.77s CPU      0.78s WALL (    2752 calls)

     General routines
     calbec       :      2.30s CPU      2.33s WALL (    6321 calls)
     fft          :      0.26s CPU      0.28s WALL (      50 calls)
     ffts         :      0.00s CPU      0.00s WALL (       4 calls)
     fftw         :      2.29s CPU      2.34s WALL (    6880 calls)
     interpolate  :      0.01s CPU      0.01s WALL (       2 calls)
 
     Parallel routines
 
     PWSCF        :     14.75s CPU     17.48s WALL

 
   This run was terminated on:   0: 6:31  23Sep2026            

=------------------------------------------------------------------------------=
   JOB DONE.
=------------------------------------------------------------------------------=
