
     Program PWSCF v.7.5 starts on 22Sep2026 at 22:55:33 

     This program is part of the open-source Quantum ESPRESSO suite
     for quantum simulation of materials; please cite
         "P. Giannozzi et al., J. Phys.:Condens. Matter 21 395502 (2009);
         "P. Giannozzi et al., J. Phys.:Condens. Matter 29 465901 (2017);
         "P. Giannozzi et al., J. Chem. Phys. 152 154105 (2020);
          URL http://www.quantum-espresso.org", 
     in publications or presentations arising from this work. More details at
     http://www.quantum-espresso.org/quote

     Parallel version (MPI), running on     4 processors

     MPI processes distributed on     1 nodes
     2200 MiB available memory on the printing compute node when the environment starts

     Reading input from scf.in

     Current dimensions of program PWSCF are:
     Max number of different atomic species (ntypx) = 10
     Max number of k-points (npk) =  40000
     Max angular momentum in pseudopotentials (lmaxx) =  4
     Message from routine setup:
     using ibrav=0 with symmetry is DISCOURAGED, use correct ibrav instead

     R & G space division:  proc/nbgrp/npool/nimage =       4
     Subspace diagonalization in iterative solution of the eigenvalue problem:
     a serial algorithm will be used


     Parallelization info
     --------------------
     sticks:   dense  smooth     PW     G-vecs:    dense   smooth      PW
     Min         722     363    105                29343    10438    1653
     Max         724     365    106                29346    10439    1658
     Sum        2893    1457    421               117377    41755    6619

     Using Slab Decomposition



     bravais-lattice index     =            0
     lattice parameter (alat)  =       7.5420  a.u.
     unit-cell volume          =     429.0071 (a.u.)^3
     number of atoms/cell      =            4
     number of atomic types    =            2
     number of electrons       =        13.00
     number of Kohn-Sham states=           14
     kinetic-energy cutoff     =      80.0000  Ry
     charge density cutoff     =     640.0000  Ry
     scf convergence threshold =      1.0E-10
     mixing beta               =       0.7000
     number of iterations used =            8  plain     mixing
     Exchange-correlation= PBE
                           (   1   4   3   4   0   0   0)

     celldm(1)=   7.542028  celldm(2)=   0.000000  celldm(3)=   0.000000
     celldm(4)=   0.000000  celldm(5)=   0.000000  celldm(6)=   0.000000

     crystal axes: (cart. coord. in units of alat)
               a(1) = (   1.000000   0.000000   0.000000 )  
               a(2) = (   0.000000   1.000000   0.000000 )  
               a(3) = (   0.000000   0.000000   1.000000 )  

     reciprocal axes: (cart. coord. in units 2 pi/alat)
               b(1) = (  1.000000  0.000000  0.000000 )  
               b(2) = (  0.000000  1.000000  0.000000 )  
               b(3) = (  0.000000  0.000000  1.000000 )  


     PseudoPot. # 1 for Si read from file:
     ../../pseudo/Si.pbe-n-rrkjus_psl.1.0.0.UPF
     MD5 check sum: fa25574f73a70a4139f2adfbefec430c
     Pseudo is Ultrasoft + core correction, Zval =  4.0
     Generated using &quot;atomic&quot; code by A. Dal Corso  v.6.3
     Using radial grid of 1141 points,  6 beta functions with: 
                l(1) =   0
                l(2) =   0
                l(3) =   1
                l(4) =   1
                l(5) =   2
                l(6) =   2
     Q(r) pseudized with 0 coefficients 


     PseudoPot. # 2 for Al read from file:
     ../../pseudo/Al.pbe-n-rrkjus_psl.1.0.0.UPF
     MD5 check sum: bbe9f3f15d9b3b5ab9a58e4859ebdbfe
     Pseudo is Ultrasoft + core correction, Zval =  3.0
     Generated using &quot;atomic&quot; code by A. Dal Corso  v.6.3
     Using radial grid of 1135 points,  6 beta functions with: 
                l(1) =   0
                l(2) =   0
                l(3) =   1
                l(4) =   1
                l(5) =   2
                l(6) =   2
     Q(r) pseudized with 0 coefficients 


     atomic species   valence    mass     pseudopotential
     Si                4.00    28.08500     Si( 1.00)
     Al                3.00    26.98154     Al( 1.00)

     48 Sym. Ops., with inversion, found



   Cartesian axes

     site n.     atom                  positions (alat units)
         1        Si     tau(   1) = (   0.0000000   0.0000000   0.0000000  )
         2        Al     tau(   2) = (   0.0000000   0.5000000   0.5000000  )
         3        Al     tau(   3) = (   0.5000000   0.0000000   0.5000000  )
         4        Al     tau(   4) = (   0.5000000   0.5000000   0.0000000  )

     number of k points=   455  Marzari-Vanderbilt smearing, width (Ry)=  0.0050

     Number of k-points >= 100: set verbosity='high' to print them.

     Dense  grid:   117377 G-vectors     FFT dimensions: (  64,  64,  64)

     Smooth grid:    41755 G-vectors     FFT dimensions: (  45,  45,  45)

     Estimated max dynamical RAM per process >     239.19 MB

     Estimated total dynamical RAM >     956.75 MB

     The initial density is read from file :
     ./tmp/al3si-l12.save/charge-density

     Starting wfcs are   16 randomized atomic wfcs

     total cpu time spent up to now is       18.4 secs

     per-process dynamical memory:   165.7 Mb

     Self-consistent Calculation

     iteration #  1     ecut=    80.00 Ry     beta= 0.70
     CG style diagonalization
     ethr =  1.00E-06,  avg # of iterations = 22.6

     Threshold (ethr) on eigenvalues was too large:
     Diagonalizing with lowered threshold

     CG style diagonalization
     ethr =  1.84E-08,  avg # of iterations =  5.7

     total cpu time spent up to now is      665.4 secs

     total energy              =     -26.50736373 Ry
     estimated scf accuracy    <       0.00000285 Ry

     iteration #  2     ecut=    80.00 Ry     beta= 0.70
     CG style diagonalization
     ethr =  2.20E-08,  avg # of iterations =  3.4

     total cpu time spent up to now is      740.4 secs

     total energy              =     -26.50736464 Ry
     estimated scf accuracy    <       0.00000168 Ry

     iteration #  3     ecut=    80.00 Ry     beta= 0.70
     CG style diagonalization
     ethr =  1.29E-08,  avg # of iterations =  3.1

     total cpu time spent up to now is      809.8 secs

     total energy              =     -26.50736498 Ry
     estimated scf accuracy    <       0.00000001 Ry

     iteration #  4     ecut=    80.00 Ry     beta= 0.70
     CG style diagonalization
     ethr =  8.65E-11,  avg # of iterations =  4.0

     total cpu time spent up to now is      899.4 secs

     total energy              =     -26.50736500 Ry
     estimated scf accuracy    <          8.1E-09 Ry

     iteration #  5     ecut=    80.00 Ry     beta= 0.70
     CG style diagonalization
     ethr =  6.25E-11,  avg # of iterations =  3.0

     total cpu time spent up to now is      965.9 secs

     total energy              =     -26.50736500 Ry
     estimated scf accuracy    <          6.4E-10 Ry

     iteration #  6     ecut=    80.00 Ry     beta= 0.70
     CG style diagonalization
     ethr =  4.89E-12,  avg # of iterations =  3.7

     total cpu time spent up to now is     1048.2 secs

     total energy              =     -26.50736500 Ry
     estimated scf accuracy    <          1.0E-10 Ry

     iteration #  7     ecut=    80.00 Ry     beta= 0.70
     CG style diagonalization
     ethr =  7.89E-13,  avg # of iterations =  3.2

     total cpu time spent up to now is     1116.7 secs

     End of self-consistent calculation

     Number of k-points >= 100: set verbosity='high' to print the bands.

     the Fermi energy is     8.6327 ev

!    total energy              =     -26.50736500 Ry
     estimated scf accuracy    <          3.1E-12 Ry
     smearing contrib. (-TS)   =       0.00003440 Ry
     internal energy E=F+TS    =     -26.50739940 Ry

     The total energy is F=E-TS. E is the sum of the following terms:
     one-electron contribution =      13.11723898 Ry
     hartree contribution      =       0.24045995 Ry
     xc contribution           =     -13.95674959 Ry
     ewald contribution        =     -25.90834875 Ry

     convergence has been achieved in   7 iterations

     Forces acting on atoms (cartesian axes, Ry/au):

     atom    1 type  1   force =     0.00000000    0.00000000    0.00000000
     atom    2 type  2   force =     0.00000000    0.00000000    0.00000000
     atom    3 type  2   force =     0.00000000    0.00000000    0.00000000
     atom    4 type  2   force =     0.00000000    0.00000000    0.00000000

     Total force =     0.000000     Total SCF correction =     0.000000


     Computing stress (Cartesian axis) and pressure

          total   stress  (Ry/bohr**3)                   (kbar)     P=        1.28
   0.00000873   0.00000000   0.00000000            1.28        0.00        0.00
   0.00000000   0.00000873   0.00000000            0.00        1.28        0.00
   0.00000000   0.00000000   0.00000873            0.00        0.00        1.28


     Writing all to output data dir ./tmp/al3si-l12.save/ :
     XML data file, charge density, pseudopotentials, collected wavefunctions

     init_run     :     17.23s CPU     17.80s WALL (       1 calls)
     electrons    :   1071.11s CPU   1098.33s WALL (       1 calls)
     forces       :     10.21s CPU     10.37s WALL (       1 calls)
     stress       :     35.51s CPU     35.95s WALL (       1 calls)

     Called by init_run:
     wfcinit      :     16.27s CPU     16.74s WALL (       1 calls)
     potinit      :      0.12s CPU      0.12s WALL (       1 calls)
     hinit0       :      0.45s CPU      0.45s WALL (       1 calls)

     Called by electrons:
     c_bands      :   1020.28s CPU   1044.69s WALL (       8 calls)
     sum_band     :     48.41s CPU     50.56s WALL (       8 calls)
     v_of_rho     :      0.40s CPU      0.42s WALL (       8 calls)
     newd         :      2.26s CPU      2.96s WALL (       8 calls)
     mix_rho      :      0.05s CPU      0.05s WALL (       8 calls)

     Called by c_bands:
     init_us_2    :      9.75s CPU      9.87s WALL (    8645 calls)
     ccgdiagg     :    934.44s CPU    956.63s WALL (    3640 calls)
     wfcrot       :     95.30s CPU     97.89s WALL (    3185 calls)

     Called by *cgdiagg:
     h_psi        :    608.12s CPU    629.02s WALL (  275137 calls)
     s_psi        :    207.68s CPU    209.73s WALL (  547089 calls)

     Called by h_psi:
     h_psi:calbec :    152.79s CPU    157.15s WALL (  275137 calls)
     vloc_psi     :    325.56s CPU    339.23s WALL (  275137 calls)
                                        0.00s GPU  (  275137 calls)
     add_vuspsi   :    125.10s CPU    128.14s WALL (  275137 calls)
     hs_1psi      :    636.83s CPU    656.03s WALL (  271952 calls)
     s_1psi       :    228.80s CPU    230.99s WALL (  271952 calls)

     General routines
     calbec       :    331.28s CPU    337.82s WALL (  558464 calls)
     fft          :      0.38s CPU      0.42s WALL (     128 calls)
     ffts         :      0.07s CPU      0.07s WALL (      16 calls)
     fftw         :    295.25s CPU    308.49s WALL (  685864 calls)
     interpolate  :      0.09s CPU      0.09s WALL (       8 calls)

     Parallel routines

     PWSCF        :  18m54.89s CPU  19m23.89s WALL


   This run was terminated on:  23:14:57  22Sep2026            

=------------------------------------------------------------------------------=
   JOB DONE.
=------------------------------------------------------------------------------=
