
     Program PWSCF v.7.5 starts on 22Sep2026 at 22: 1: 0 

     This program is part of the open-source Quantum ESPRESSO suite
     for quantum simulation of materials; please cite
         "P. Giannozzi et al., J. Phys.:Condens. Matter 21 395502 (2009);
         "P. Giannozzi et al., J. Phys.:Condens. Matter 29 465901 (2017);
         "P. Giannozzi et al., J. Chem. Phys. 152 154105 (2020);
          URL http://www.quantum-espresso.org", 
     in publications or presentations arising from this work. More details at
     http://www.quantum-espresso.org/quote

     Parallel version (MPI), running on     4 processors

     MPI processes distributed on     1 nodes
     6230 MiB available memory on the printing compute node when the environment starts

     Reading input from bands.in

     Current dimensions of program PWSCF are:
     Max number of different atomic species (ntypx) = 10
     Max number of k-points (npk) =  40000
     Max angular momentum in pseudopotentials (lmaxx) =  4

     Atomic positions and unit cell read from directory:
     ./tmp/si.save/


     R & G space division:  proc/nbgrp/npool/nimage =       4
     Subspace diagonalization in iterative solution of the eigenvalue problem:
     a serial algorithm will be used


     Parallelization info
     --------------------
     sticks:   dense  smooth     PW     G-vecs:    dense   smooth      PW
     Min         571     214     63                18093     4156     682
     Max         572     217     64                18095     4157     686
     Sum        2287     859    253                72377    16625    2733

     Using Slab Decomposition



     bravais-lattice index     =            2
     lattice parameter (alat)  =      10.2000  a.u.
     unit-cell volume          =     265.3020 (a.u.)^3
     number of atoms/cell      =            2
     number of atomic types    =            1
     number of electrons       =         8.00
     number of Kohn-Sham states=            8
     kinetic-energy cutoff     =      60.0000  Ry
     charge density cutoff     =     640.0000  Ry
     Exchange-correlation= PBE
                           (   1   4   3   4   0   0   0)

     celldm(1)=  10.200000  celldm(2)=   0.000000  celldm(3)=   0.000000
     celldm(4)=   0.000000  celldm(5)=   0.000000  celldm(6)=   0.000000

     crystal axes: (cart. coord. in units of alat)
               a(1) = (  -0.500000   0.000000   0.500000 )  
               a(2) = (   0.000000   0.500000   0.500000 )  
               a(3) = (  -0.500000   0.500000   0.000000 )  

     reciprocal axes: (cart. coord. in units 2 pi/alat)
               b(1) = ( -1.000000 -1.000000  1.000000 )  
               b(2) = (  1.000000  1.000000  1.000000 )  
               b(3) = ( -1.000000  1.000000 -1.000000 )  


     PseudoPot. # 1 for Si read from file:
     ../pseudo/Si.pbe-n-rrkjus_psl.1.0.0.UPF
     MD5 check sum: fa25574f73a70a4139f2adfbefec430c
     Pseudo is Ultrasoft + core correction, Zval =  4.0
     Generated using &quot;atomic&quot; code by A. Dal Corso  v.6.3
     Using radial grid of 1141 points,  6 beta functions with: 
                l(1) =   0
                l(2) =   0
                l(3) =   1
                l(4) =   1
                l(5) =   2
                l(6) =   2
     Q(r) pseudized with 0 coefficients 


     atomic species   valence    mass     pseudopotential
     Si                4.00    28.08500     Si( 1.00)

     48 Sym. Ops., with inversion, found (24 have fractional translation)


                                    s                        frac. trans.

      isym =  1     identity                                     

 cryst.   s( 1) = (     1          0          0      )
                  (     0          1          0      )
                  (     0          0          1      )

 cart.    s( 1) = (  1.0000000  0.0000000  0.0000000 )
                  (  0.0000000  1.0000000  0.0000000 )
                  (  0.0000000  0.0000000  1.0000000 )


      isym =  2     180 deg rotation - cart. axis [0,0,1]        

 cryst.   s( 2) = (     0          1         -1      )
                  (     1          0         -1      )
                  (     0          0         -1      )

 cart.    s( 2) = ( -1.0000000  0.0000000  0.0000000 )
                  (  0.0000000 -1.0000000  0.0000000 )
                  (  0.0000000  0.0000000  1.0000000 )


      isym =  3     180 deg rotation - cart. axis [0,1,0]        

 cryst.   s( 3) = (    -1          0          0      )
                  (    -1          0          1      )
                  (    -1          1          0      )

 cart.    s( 3) = ( -1.0000000  0.0000000  0.0000000 )
                  (  0.0000000  1.0000000  0.0000000 )
                  (  0.0000000  0.0000000 -1.0000000 )


      isym =  4     180 deg rotation - cart. axis [1,0,0]        

 cryst.   s( 4) = (     0         -1          1      )
                  (     0         -1          0      )
                  (     1         -1          0      )

 cart.    s( 4) = (  1.0000000  0.0000000  0.0000000 )
                  (  0.0000000 -1.0000000  0.0000000 )
                  (  0.0000000  0.0000000 -1.0000000 )


      isym =  5     180 deg rotation - cart. axis [1,1,0]        

 cryst.   s( 5) = (     0         -1          0      )    f =(  0.2500000 )
                  (    -1          0          0      )       (  0.2500000 )
                  (     0          0         -1      )       (  0.2500000 )

 cart.    s( 5) = (  0.0000000  1.0000000  0.0000000 )    f =( -0.2500000 )
                  (  1.0000000  0.0000000  0.0000000 )       (  0.2500000 )
                  (  0.0000000  0.0000000 -1.0000000 )       (  0.2500000 )


      isym =  6     180 deg rotation - cart. axis [1,-1,0]       

 cryst.   s( 6) = (    -1          0          1      )    f =(  0.2500000 )
                  (     0         -1          1      )       (  0.2500000 )
                  (     0          0          1      )       (  0.2500000 )

 cart.    s( 6) = (  0.0000000 -1.0000000  0.0000000 )    f =( -0.2500000 )
                  ( -1.0000000  0.0000000  0.0000000 )       (  0.2500000 )
                  (  0.0000000  0.0000000 -1.0000000 )       (  0.2500000 )


      isym =  7      90 deg rotation - cart. axis [0,0,-1]       

 cryst.   s( 7) = (     0          1          0      )    f =(  0.2500000 )
                  (     0          1         -1      )       (  0.2500000 )
                  (    -1          1          0      )       (  0.2500000 )

 cart.    s( 7) = (  0.0000000  1.0000000  0.0000000 )    f =( -0.2500000 )
                  ( -1.0000000  0.0000000  0.0000000 )       (  0.2500000 )
                  (  0.0000000  0.0000000  1.0000000 )       (  0.2500000 )


      isym =  8      90 deg rotation - cart. axis [0,0,1]        

 cryst.   s( 8) = (     1          0         -1      )    f =(  0.2500000 )
                  (     1          0          0      )       (  0.2500000 )
                  (     1         -1          0      )       (  0.2500000 )

 cart.    s( 8) = (  0.0000000 -1.0000000  0.0000000 )    f =( -0.2500000 )
                  (  1.0000000  0.0000000  0.0000000 )       (  0.2500000 )
                  (  0.0000000  0.0000000  1.0000000 )       (  0.2500000 )


      isym =  9     180 deg rotation - cart. axis [1,0,1]        

 cryst.   s( 9) = (    -1          0          0      )    f =(  0.2500000 )
                  (     0          0         -1      )       (  0.2500000 )
                  (     0         -1          0      )       (  0.2500000 )

 cart.    s( 9) = (  0.0000000  0.0000000  1.0000000 )    f =( -0.2500000 )
                  (  0.0000000 -1.0000000  0.0000000 )       (  0.2500000 )
                  (  1.0000000  0.0000000  0.0000000 )       (  0.2500000 )


      isym = 10     180 deg rotation - cart. axis [-1,0,1]       

 cryst.   s(10) = (     1          0          0      )    f =(  0.2500000 )
                  (     1         -1          0      )       (  0.2500000 )
                  (     1          0         -1      )       (  0.2500000 )

 cart.    s(10) = (  0.0000000  0.0000000 -1.0000000 )    f =( -0.2500000 )
                  (  0.0000000 -1.0000000  0.0000000 )       (  0.2500000 )
                  ( -1.0000000  0.0000000  0.0000000 )       (  0.2500000 )


      isym = 11      90 deg rotation - cart. axis [0,1,0]        

 cryst.   s(11) = (     0          1         -1      )    f =(  0.2500000 )
                  (    -1          1          0      )       (  0.2500000 )
                  (     0          1          0      )       (  0.2500000 )

 cart.    s(11) = (  0.0000000  0.0000000  1.0000000 )    f =( -0.2500000 )
                  (  0.0000000  1.0000000  0.0000000 )       (  0.2500000 )
                  ( -1.0000000  0.0000000  0.0000000 )       (  0.2500000 )


      isym = 12      90 deg rotation - cart. axis [0,-1,0]       

 cryst.   s(12) = (     0         -1          1      )    f =(  0.2500000 )
                  (     0          0          1      )       (  0.2500000 )
                  (    -1          0          1      )       (  0.2500000 )

 cart.    s(12) = (  0.0000000  0.0000000 -1.0000000 )    f =( -0.2500000 )
                  (  0.0000000  1.0000000  0.0000000 )       (  0.2500000 )
                  (  1.0000000  0.0000000  0.0000000 )       (  0.2500000 )


      isym = 13     180 deg rotation - cart. axis [0,1,1]        

 cryst.   s(13) = (    -1          1          0      )    f =(  0.2500000 )
                  (     0          1          0      )       (  0.2500000 )
                  (     0          1         -1      )       (  0.2500000 )

 cart.    s(13) = ( -1.0000000  0.0000000  0.0000000 )    f =( -0.2500000 )
                  (  0.0000000  0.0000000  1.0000000 )       (  0.2500000 )
                  (  0.0000000  1.0000000  0.0000000 )       (  0.2500000 )


      isym = 14     180 deg rotation - cart. axis [0,1,-1]       

 cryst.   s(14) = (     0          0         -1      )    f =(  0.2500000 )
                  (     0         -1          0      )       (  0.2500000 )
                  (    -1          0          0      )       (  0.2500000 )

 cart.    s(14) = ( -1.0000000  0.0000000  0.0000000 )    f =( -0.2500000 )
                  (  0.0000000  0.0000000 -1.0000000 )       (  0.2500000 )
                  (  0.0000000 -1.0000000  0.0000000 )       (  0.2500000 )


      isym = 15      90 deg rotation - cart. axis [-1,0,0]       

 cryst.   s(15) = (     0          0          1      )    f =(  0.2500000 )
                  (    -1          0          1      )       (  0.2500000 )
                  (     0         -1          1      )       (  0.2500000 )

 cart.    s(15) = (  1.0000000  0.0000000  0.0000000 )    f =( -0.2500000 )
                  (  0.0000000  0.0000000  1.0000000 )       (  0.2500000 )
                  (  0.0000000 -1.0000000  0.0000000 )       (  0.2500000 )


      isym = 16      90 deg rotation - cart. axis [1,0,0]        

 cryst.   s(16) = (     1         -1          0      )    f =(  0.2500000 )
                  (     1          0         -1      )       (  0.2500000 )
                  (     1          0          0      )       (  0.2500000 )

 cart.    s(16) = (  1.0000000  0.0000000  0.0000000 )    f =( -0.2500000 )
                  (  0.0000000  0.0000000 -1.0000000 )       (  0.2500000 )
                  (  0.0000000  1.0000000  0.0000000 )       (  0.2500000 )


      isym = 17     120 deg rotation - cart. axis [-1,-1,-1]     

 cryst.   s(17) = (    -1          0          1      )
                  (    -1          1          0      )
                  (    -1          0          0      )

 cart.    s(17) = (  0.0000000  1.0000000  0.0000000 )
                  (  0.0000000  0.0000000  1.0000000 )
                  (  1.0000000  0.0000000  0.0000000 )


      isym = 18     120 deg rotation - cart. axis [-1,1,1]       

 cryst.   s(18) = (     0          1          0      )
                  (     0          0          1      )
                  (     1          0          0      )

 cart.    s(18) = (  0.0000000 -1.0000000  0.0000000 )
                  (  0.0000000  0.0000000  1.0000000 )
                  ( -1.0000000  0.0000000  0.0000000 )


      isym = 19     120 deg rotation - cart. axis [1,1,-1]       

 cryst.   s(19) = (     1          0         -1      )
                  (     0          0         -1      )
                  (     0          1         -1      )

 cart.    s(19) = (  0.0000000  1.0000000  0.0000000 )
                  (  0.0000000  0.0000000 -1.0000000 )
                  ( -1.0000000  0.0000000  0.0000000 )


      isym = 20     120 deg rotation - cart. axis [1,-1,1]       

 cryst.   s(20) = (     0         -1          0      )
                  (     1         -1          0      )
                  (     0         -1          1      )

 cart.    s(20) = (  0.0000000 -1.0000000  0.0000000 )
                  (  0.0000000  0.0000000 -1.0000000 )
                  (  1.0000000  0.0000000  0.0000000 )


      isym = 21     120 deg rotation - cart. axis [1,1,1]        

 cryst.   s(21) = (     0          0         -1      )
                  (     0          1         -1      )
                  (     1          0         -1      )

 cart.    s(21) = (  0.0000000  0.0000000  1.0000000 )
                  (  1.0000000  0.0000000  0.0000000 )
                  (  0.0000000  1.0000000  0.0000000 )


      isym = 22     120 deg rotation - cart. axis [-1,1,-1]      

 cryst.   s(22) = (    -1          1          0      )
                  (    -1          0          0      )
                  (    -1          0          1      )

 cart.    s(22) = (  0.0000000  0.0000000  1.0000000 )
                  ( -1.0000000  0.0000000  0.0000000 )
                  (  0.0000000 -1.0000000  0.0000000 )


      isym = 23     120 deg rotation - cart. axis [1,-1,-1]      

 cryst.   s(23) = (     0          0          1      )
                  (     1          0          0      )
                  (     0          1          0      )

 cart.    s(23) = (  0.0000000  0.0000000 -1.0000000 )
                  ( -1.0000000  0.0000000  0.0000000 )
                  (  0.0000000  1.0000000  0.0000000 )


      isym = 24     120 deg rotation - cart. axis [-1,-1,1]      

 cryst.   s(24) = (     1         -1          0      )
                  (     0         -1          1      )
                  (     0         -1          0      )

 cart.    s(24) = (  0.0000000  0.0000000 -1.0000000 )
                  (  1.0000000  0.0000000  0.0000000 )
                  (  0.0000000 -1.0000000  0.0000000 )


      isym = 25     inversion                                    

 cryst.   s(25) = (    -1          0          0      )    f =(  0.2500000 )
                  (     0         -1          0      )       (  0.2500000 )
                  (     0          0         -1      )       (  0.2500000 )

 cart.    s(25) = ( -1.0000000  0.0000000  0.0000000 )    f =( -0.2500000 )
                  (  0.0000000 -1.0000000  0.0000000 )       (  0.2500000 )
                  (  0.0000000  0.0000000 -1.0000000 )       (  0.2500000 )


      isym = 26     inv. 180 deg rotation - cart. axis [0,0,1]   

 cryst.   s(26) = (     0         -1          1      )    f =(  0.2500000 )
                  (    -1          0          1      )       (  0.2500000 )
                  (     0          0          1      )       (  0.2500000 )

 cart.    s(26) = (  1.0000000  0.0000000  0.0000000 )    f =( -0.2500000 )
                  (  0.0000000  1.0000000  0.0000000 )       (  0.2500000 )
                  (  0.0000000  0.0000000 -1.0000000 )       (  0.2500000 )


      isym = 27     inv. 180 deg rotation - cart. axis [0,1,0]   

 cryst.   s(27) = (     1          0          0      )    f =(  0.2500000 )
                  (     1          0         -1      )       (  0.2500000 )
                  (     1         -1          0      )       (  0.2500000 )

 cart.    s(27) = (  1.0000000  0.0000000  0.0000000 )    f =( -0.2500000 )
                  (  0.0000000 -1.0000000  0.0000000 )       (  0.2500000 )
                  (  0.0000000  0.0000000  1.0000000 )       (  0.2500000 )


      isym = 28     inv. 180 deg rotation - cart. axis [1,0,0]   

 cryst.   s(28) = (     0          1         -1      )    f =(  0.2500000 )
                  (     0          1          0      )       (  0.2500000 )
                  (    -1          1          0      )       (  0.2500000 )

 cart.    s(28) = ( -1.0000000  0.0000000  0.0000000 )    f =( -0.2500000 )
                  (  0.0000000  1.0000000  0.0000000 )       (  0.2500000 )
                  (  0.0000000  0.0000000  1.0000000 )       (  0.2500000 )


      isym = 29     inv. 180 deg rotation - cart. axis [1,1,0]   

 cryst.   s(29) = (     0          1          0      )
                  (     1          0          0      )
                  (     0          0          1      )

 cart.    s(29) = (  0.0000000 -1.0000000  0.0000000 )
                  ( -1.0000000  0.0000000  0.0000000 )
                  (  0.0000000  0.0000000  1.0000000 )


      isym = 30     inv. 180 deg rotation - cart. axis [1,-1,0]  

 cryst.   s(30) = (     1          0         -1      )
                  (     0          1         -1      )
                  (     0          0         -1      )

 cart.    s(30) = (  0.0000000  1.0000000  0.0000000 )
                  (  1.0000000  0.0000000  0.0000000 )
                  (  0.0000000  0.0000000  1.0000000 )


      isym = 31     inv.  90 deg rotation - cart. axis [0,0,-1]  

 cryst.   s(31) = (     0         -1          0      )
                  (     0         -1          1      )
                  (     1         -1          0      )

 cart.    s(31) = (  0.0000000 -1.0000000  0.0000000 )
                  (  1.0000000  0.0000000  0.0000000 )
                  (  0.0000000  0.0000000 -1.0000000 )


      isym = 32     inv.  90 deg rotation - cart. axis [0,0,1]   

 cryst.   s(32) = (    -1          0          1      )
                  (    -1          0          0      )
                  (    -1          1          0      )

 cart.    s(32) = (  0.0000000  1.0000000  0.0000000 )
                  ( -1.0000000  0.0000000  0.0000000 )
                  (  0.0000000  0.0000000 -1.0000000 )


      isym = 33     inv. 180 deg rotation - cart. axis [1,0,1]   

 cryst.   s(33) = (     1          0          0      )
                  (     0          0          1      )
                  (     0          1          0      )

 cart.    s(33) = (  0.0000000  0.0000000 -1.0000000 )
                  (  0.0000000  1.0000000  0.0000000 )
                  ( -1.0000000  0.0000000  0.0000000 )


      isym = 34     inv. 180 deg rotation - cart. axis [-1,0,1]  

 cryst.   s(34) = (    -1          0          0      )
                  (    -1          1          0      )
                  (    -1          0          1      )

 cart.    s(34) = (  0.0000000  0.0000000  1.0000000 )
                  (  0.0000000  1.0000000  0.0000000 )
                  (  1.0000000  0.0000000  0.0000000 )


      isym = 35     inv.  90 deg rotation - cart. axis [0,1,0]   

 cryst.   s(35) = (     0         -1          1      )
                  (     1         -1          0      )
                  (     0         -1          0      )

 cart.    s(35) = (  0.0000000  0.0000000 -1.0000000 )
                  (  0.0000000 -1.0000000  0.0000000 )
                  (  1.0000000  0.0000000  0.0000000 )


      isym = 36     inv.  90 deg rotation - cart. axis [0,-1,0]  

 cryst.   s(36) = (     0          1         -1      )
                  (     0          0         -1      )
                  (     1          0         -1      )

 cart.    s(36) = (  0.0000000  0.0000000  1.0000000 )
                  (  0.0000000 -1.0000000  0.0000000 )
                  ( -1.0000000  0.0000000  0.0000000 )


      isym = 37     inv. 180 deg rotation - cart. axis [0,1,1]   

 cryst.   s(37) = (     1         -1          0      )
                  (     0         -1          0      )
                  (     0         -1          1      )

 cart.    s(37) = (  1.0000000  0.0000000  0.0000000 )
                  (  0.0000000  0.0000000 -1.0000000 )
                  (  0.0000000 -1.0000000  0.0000000 )


      isym = 38     inv. 180 deg rotation - cart. axis [0,1,-1]  

 cryst.   s(38) = (     0          0          1      )
                  (     0          1          0      )
                  (     1          0          0      )

 cart.    s(38) = (  1.0000000  0.0000000  0.0000000 )
                  (  0.0000000  0.0000000  1.0000000 )
                  (  0.0000000  1.0000000  0.0000000 )


      isym = 39     inv.  90 deg rotation - cart. axis [-1,0,0]  

 cryst.   s(39) = (     0          0         -1      )
                  (     1          0         -1      )
                  (     0          1         -1      )

 cart.    s(39) = ( -1.0000000  0.0000000  0.0000000 )
                  (  0.0000000  0.0000000 -1.0000000 )
                  (  0.0000000  1.0000000  0.0000000 )


      isym = 40     inv.  90 deg rotation - cart. axis [1,0,0]   

 cryst.   s(40) = (    -1          1          0      )
                  (    -1          0          1      )
                  (    -1          0          0      )

 cart.    s(40) = ( -1.0000000  0.0000000  0.0000000 )
                  (  0.0000000  0.0000000  1.0000000 )
                  (  0.0000000 -1.0000000  0.0000000 )


      isym = 41     inv. 120 deg rotation - cart. axis [-1,-1,-1]

 cryst.   s(41) = (     1          0         -1      )    f =(  0.2500000 )
                  (     1         -1          0      )       (  0.2500000 )
                  (     1          0          0      )       (  0.2500000 )

 cart.    s(41) = (  0.0000000 -1.0000000  0.0000000 )    f =( -0.2500000 )
                  (  0.0000000  0.0000000 -1.0000000 )       (  0.2500000 )
                  ( -1.0000000  0.0000000  0.0000000 )       (  0.2500000 )


      isym = 42     inv. 120 deg rotation - cart. axis [-1,1,1]  

 cryst.   s(42) = (     0         -1          0      )    f =(  0.2500000 )
                  (     0          0         -1      )       (  0.2500000 )
                  (    -1          0          0      )       (  0.2500000 )

 cart.    s(42) = (  0.0000000  1.0000000  0.0000000 )    f =( -0.2500000 )
                  (  0.0000000  0.0000000 -1.0000000 )       (  0.2500000 )
                  (  1.0000000  0.0000000  0.0000000 )       (  0.2500000 )


      isym = 43     inv. 120 deg rotation - cart. axis [1,1,-1]  

 cryst.   s(43) = (    -1          0          1      )    f =(  0.2500000 )
                  (     0          0          1      )       (  0.2500000 )
                  (     0         -1          1      )       (  0.2500000 )

 cart.    s(43) = (  0.0000000 -1.0000000  0.0000000 )    f =( -0.2500000 )
                  (  0.0000000  0.0000000  1.0000000 )       (  0.2500000 )
                  (  1.0000000  0.0000000  0.0000000 )       (  0.2500000 )


      isym = 44     inv. 120 deg rotation - cart. axis [1,-1,1]  

 cryst.   s(44) = (     0          1          0      )    f =(  0.2500000 )
                  (    -1          1          0      )       (  0.2500000 )
                  (     0          1         -1      )       (  0.2500000 )

 cart.    s(44) = (  0.0000000  1.0000000  0.0000000 )    f =( -0.2500000 )
                  (  0.0000000  0.0000000  1.0000000 )       (  0.2500000 )
                  ( -1.0000000  0.0000000  0.0000000 )       (  0.2500000 )


      isym = 45     inv. 120 deg rotation - cart. axis [1,1,1]   

 cryst.   s(45) = (     0          0          1      )    f =(  0.2500000 )
                  (     0         -1          1      )       (  0.2500000 )
                  (    -1          0          1      )       (  0.2500000 )

 cart.    s(45) = (  0.0000000  0.0000000 -1.0000000 )    f =( -0.2500000 )
                  ( -1.0000000  0.0000000  0.0000000 )       (  0.2500000 )
                  (  0.0000000 -1.0000000  0.0000000 )       (  0.2500000 )


      isym = 46     inv. 120 deg rotation - cart. axis [-1,1,-1] 

 cryst.   s(46) = (     1         -1          0      )    f =(  0.2500000 )
                  (     1          0          0      )       (  0.2500000 )
                  (     1          0         -1      )       (  0.2500000 )

 cart.    s(46) = (  0.0000000  0.0000000 -1.0000000 )    f =( -0.2500000 )
                  (  1.0000000  0.0000000  0.0000000 )       (  0.2500000 )
                  (  0.0000000  1.0000000  0.0000000 )       (  0.2500000 )


      isym = 47     inv. 120 deg rotation - cart. axis [1,-1,-1] 

 cryst.   s(47) = (     0          0         -1      )    f =(  0.2500000 )
                  (    -1          0          0      )       (  0.2500000 )
                  (     0         -1          0      )       (  0.2500000 )

 cart.    s(47) = (  0.0000000  0.0000000  1.0000000 )    f =( -0.2500000 )
                  (  1.0000000  0.0000000  0.0000000 )       (  0.2500000 )
                  (  0.0000000 -1.0000000  0.0000000 )       (  0.2500000 )


      isym = 48     inv. 120 deg rotation - cart. axis [-1,-1,1] 

 cryst.   s(48) = (    -1          1          0      )    f =(  0.2500000 )
                  (     0          1         -1      )       (  0.2500000 )
                  (     0          1          0      )       (  0.2500000 )

 cart.    s(48) = (  0.0000000  0.0000000  1.0000000 )    f =( -0.2500000 )
                  ( -1.0000000  0.0000000  0.0000000 )       (  0.2500000 )
                  (  0.0000000  1.0000000  0.0000000 )       (  0.2500000 )


     point group O_h (m-3m) 
     there are 10 classes
     the character table:

       E     8C3   3C2   6C4   6C2'  i     8S6   3s_h  6S4   6s_d 
A_1g   1.00  1.00  1.00  1.00  1.00  1.00  1.00  1.00  1.00  1.00
A_2g   1.00  1.00  1.00 -1.00 -1.00  1.00  1.00  1.00 -1.00 -1.00
E_g    2.00 -1.00  2.00  0.00  0.00  2.00 -1.00  2.00  0.00  0.00
T_1g   3.00  0.00 -1.00  1.00 -1.00  3.00  0.00 -1.00  1.00 -1.00
T_2g   3.00  0.00 -1.00 -1.00  1.00  3.00  0.00 -1.00 -1.00  1.00
A_1u   1.00  1.00  1.00  1.00  1.00 -1.00 -1.00 -1.00 -1.00 -1.00
A_2u   1.00  1.00  1.00 -1.00 -1.00 -1.00 -1.00 -1.00  1.00  1.00
E_u    2.00 -1.00  2.00  0.00  0.00 -2.00  1.00 -2.00  0.00  0.00
T_1u   3.00  0.00 -1.00  1.00 -1.00 -3.00  0.00  1.00 -1.00  1.00
T_2u   3.00  0.00 -1.00 -1.00  1.00 -3.00  0.00  1.00  1.00 -1.00

     the symmetry operations in each class and the name of the first element:

     E        1
          identity                                               
     8C3     17   19   20   18   24   21   22   23
          120 deg rotation - cart. axis [-1,-1,-1]               
     3C2      2    4    3
          180 deg rotation - cart. axis [0,0,1]                  
     6C4      7    8   15   16   12   11
           90 deg rotation - cart. axis [0,0,-1]                 
     6C2'     5    6   14   13   10    9
          180 deg rotation - cart. axis [1,1,0]                  
     i       25
          inversion                                              
     8S6     41   43   44   42   48   45   46   47
          inv. 120 deg rotation - cart. axis [-1,-1,-1]          
     3s_h    26   28   27
          inv. 180 deg rotation - cart. axis [0,0,1]             
     6S4     31   32   39   40   36   35
          inv.  90 deg rotation - cart. axis [0,0,-1]            
     6s_d    29   30   38   37   34   33
          inv. 180 deg rotation - cart. axis [1,1,0]             

   Cartesian axes

     site n.     atom                  positions (alat units)
         1        Si     tau(   1) = (   0.0000000   0.0000000   0.0000000  )
         2        Si     tau(   2) = (   0.2500000   0.2500000   0.2500000  )

   Crystallographic axes

     site n.     atom                  positions (cryst. coord.)
         1        Si     tau(   1) = (  0.0000000  0.0000000  0.0000000  )
         2        Si     tau(   2) = ( -0.2500000  0.7500000 -0.2500000  )

     number of k points=   121
                       cart. coord. in units 2pi/alat
        k(    1) = (   0.0000000   0.0000000   0.0000000), wk =   0.0165289
        k(    2) = (   0.0416667   0.0000000   0.0000000), wk =   0.0165289
        k(    3) = (   0.0833333   0.0000000   0.0000000), wk =   0.0165289
        k(    4) = (   0.1250000   0.0000000   0.0000000), wk =   0.0165289
        k(    5) = (   0.1666667   0.0000000   0.0000000), wk =   0.0165289
        k(    6) = (   0.2083333   0.0000000   0.0000000), wk =   0.0165289
        k(    7) = (   0.2500000   0.0000000   0.0000000), wk =   0.0165289
        k(    8) = (   0.2916667   0.0000000   0.0000000), wk =   0.0165289
        k(    9) = (   0.3333333   0.0000000   0.0000000), wk =   0.0165289
        k(   10) = (   0.3750000   0.0000000   0.0000000), wk =   0.0165289
        k(   11) = (   0.4166667   0.0000000   0.0000000), wk =   0.0165289
        k(   12) = (   0.4583333   0.0000000   0.0000000), wk =   0.0165289
        k(   13) = (   0.5000000   0.0000000   0.0000000), wk =   0.0165289
        k(   14) = (   0.5416667   0.0000000   0.0000000), wk =   0.0165289
        k(   15) = (   0.5833333   0.0000000   0.0000000), wk =   0.0165289
        k(   16) = (   0.6250000   0.0000000   0.0000000), wk =   0.0165289
        k(   17) = (   0.6666667   0.0000000   0.0000000), wk =   0.0165289
        k(   18) = (   0.7083333   0.0000000   0.0000000), wk =   0.0165289
        k(   19) = (   0.7500000   0.0000000   0.0000000), wk =   0.0165289
        k(   20) = (   0.7916667   0.0000000   0.0000000), wk =   0.0165289
        k(   21) = (   0.8333333   0.0000000   0.0000000), wk =   0.0165289
        k(   22) = (   0.8750000   0.0000000   0.0000000), wk =   0.0165289
        k(   23) = (   0.9166667   0.0000000   0.0000000), wk =   0.0165289
        k(   24) = (   0.9583333   0.0000000   0.0000000), wk =   0.0165289
        k(   25) = (   1.0000000   0.0000000   0.0000000), wk =   0.0165289
        k(   26) = (   1.0000000   0.0416667   0.0000000), wk =   0.0165289
        k(   27) = (   1.0000000   0.0833333   0.0000000), wk =   0.0165289
        k(   28) = (   1.0000000   0.1250000   0.0000000), wk =   0.0165289
        k(   29) = (   1.0000000   0.1666667   0.0000000), wk =   0.0165289
        k(   30) = (   1.0000000   0.2083333   0.0000000), wk =   0.0165289
        k(   31) = (   1.0000000   0.2500000   0.0000000), wk =   0.0165289
        k(   32) = (   1.0000000   0.2916667   0.0000000), wk =   0.0165289
        k(   33) = (   1.0000000   0.3333333   0.0000000), wk =   0.0165289
        k(   34) = (   1.0000000   0.3750000   0.0000000), wk =   0.0165289
        k(   35) = (   1.0000000   0.4166667   0.0000000), wk =   0.0165289
        k(   36) = (   1.0000000   0.4583333   0.0000000), wk =   0.0165289
        k(   37) = (   1.0000000   0.5000000   0.0000000), wk =   0.0165289
        k(   38) = (   0.9791667   0.5208333   0.0000000), wk =   0.0165289
        k(   39) = (   0.9583333   0.5416667   0.0000000), wk =   0.0165289
        k(   40) = (   0.9375000   0.5625000   0.0000000), wk =   0.0165289
        k(   41) = (   0.9166667   0.5833333   0.0000000), wk =   0.0165289
        k(   42) = (   0.8958333   0.6041667   0.0000000), wk =   0.0165289
        k(   43) = (   0.8750000   0.6250000   0.0000000), wk =   0.0165289
        k(   44) = (   0.8541667   0.6458333   0.0000000), wk =   0.0165289
        k(   45) = (   0.8333333   0.6666667   0.0000000), wk =   0.0165289
        k(   46) = (   0.8125000   0.6875000   0.0000000), wk =   0.0165289
        k(   47) = (   0.7916667   0.7083333   0.0000000), wk =   0.0165289
        k(   48) = (   0.7708333   0.7291667   0.0000000), wk =   0.0165289
        k(   49) = (   0.7500000   0.7500000   0.0000000), wk =   0.0165289
        k(   50) = (   0.7187500   0.7187500   0.0000000), wk =   0.0165289
        k(   51) = (   0.6875000   0.6875000   0.0000000), wk =   0.0165289
        k(   52) = (   0.6562500   0.6562500   0.0000000), wk =   0.0165289
        k(   53) = (   0.6250000   0.6250000   0.0000000), wk =   0.0165289
        k(   54) = (   0.5937500   0.5937500   0.0000000), wk =   0.0165289
        k(   55) = (   0.5625000   0.5625000   0.0000000), wk =   0.0165289
        k(   56) = (   0.5312500   0.5312500   0.0000000), wk =   0.0165289
        k(   57) = (   0.5000000   0.5000000   0.0000000), wk =   0.0165289
        k(   58) = (   0.4687500   0.4687500   0.0000000), wk =   0.0165289
        k(   59) = (   0.4375000   0.4375000   0.0000000), wk =   0.0165289
        k(   60) = (   0.4062500   0.4062500   0.0000000), wk =   0.0165289
        k(   61) = (   0.3750000   0.3750000   0.0000000), wk =   0.0165289
        k(   62) = (   0.3437500   0.3437500   0.0000000), wk =   0.0165289
        k(   63) = (   0.3125000   0.3125000   0.0000000), wk =   0.0165289
        k(   64) = (   0.2812500   0.2812500   0.0000000), wk =   0.0165289
        k(   65) = (   0.2500000   0.2500000   0.0000000), wk =   0.0165289
        k(   66) = (   0.2187500   0.2187500   0.0000000), wk =   0.0165289
        k(   67) = (   0.1875000   0.1875000   0.0000000), wk =   0.0165289
        k(   68) = (   0.1562500   0.1562500   0.0000000), wk =   0.0165289
        k(   69) = (   0.1250000   0.1250000   0.0000000), wk =   0.0165289
        k(   70) = (   0.0937500   0.0937500   0.0000000), wk =   0.0165289
        k(   71) = (   0.0625000   0.0625000   0.0000000), wk =   0.0165289
        k(   72) = (   0.0312500   0.0312500   0.0000000), wk =   0.0165289
        k(   73) = (   0.0000000   0.0000000   0.0000000), wk =   0.0165289
        k(   74) = (   0.0208333   0.0208333   0.0208333), wk =   0.0165289
        k(   75) = (   0.0416667   0.0416667   0.0416667), wk =   0.0165289
        k(   76) = (   0.0625000   0.0625000   0.0625000), wk =   0.0165289
        k(   77) = (   0.0833333   0.0833333   0.0833333), wk =   0.0165289
        k(   78) = (   0.1041667   0.1041667   0.1041667), wk =   0.0165289
        k(   79) = (   0.1250000   0.1250000   0.1250000), wk =   0.0165289
        k(   80) = (   0.1458333   0.1458333   0.1458333), wk =   0.0165289
        k(   81) = (   0.1666667   0.1666667   0.1666667), wk =   0.0165289
        k(   82) = (   0.1875000   0.1875000   0.1875000), wk =   0.0165289
        k(   83) = (   0.2083333   0.2083333   0.2083333), wk =   0.0165289
        k(   84) = (   0.2291667   0.2291667   0.2291667), wk =   0.0165289
        k(   85) = (   0.2500000   0.2500000   0.2500000), wk =   0.0165289
        k(   86) = (   0.2708333   0.2708333   0.2708333), wk =   0.0165289
        k(   87) = (   0.2916667   0.2916667   0.2916667), wk =   0.0165289
        k(   88) = (   0.3125000   0.3125000   0.3125000), wk =   0.0165289
        k(   89) = (   0.3333333   0.3333333   0.3333333), wk =   0.0165289
        k(   90) = (   0.3541667   0.3541667   0.3541667), wk =   0.0165289
        k(   91) = (   0.3750000   0.3750000   0.3750000), wk =   0.0165289
        k(   92) = (   0.3958333   0.3958333   0.3958333), wk =   0.0165289
        k(   93) = (   0.4166667   0.4166667   0.4166667), wk =   0.0165289
        k(   94) = (   0.4375000   0.4375000   0.4375000), wk =   0.0165289
        k(   95) = (   0.4583333   0.4583333   0.4583333), wk =   0.0165289
        k(   96) = (   0.4791667   0.4791667   0.4791667), wk =   0.0165289
        k(   97) = (   0.5000000   0.5000000   0.5000000), wk =   0.0165289
        k(   98) = (   0.5208333   0.4791667   0.4791667), wk =   0.0165289
        k(   99) = (   0.5416667   0.4583333   0.4583333), wk =   0.0165289
        k(  100) = (   0.5625000   0.4375000   0.4375000), wk =   0.0165289
        k(  101) = (   0.5833333   0.4166667   0.4166667), wk =   0.0165289
        k(  102) = (   0.6041667   0.3958333   0.3958333), wk =   0.0165289
        k(  103) = (   0.6250000   0.3750000   0.3750000), wk =   0.0165289
        k(  104) = (   0.6458333   0.3541667   0.3541667), wk =   0.0165289
        k(  105) = (   0.6666667   0.3333333   0.3333333), wk =   0.0165289
        k(  106) = (   0.6875000   0.3125000   0.3125000), wk =   0.0165289
        k(  107) = (   0.7083333   0.2916667   0.2916667), wk =   0.0165289
        k(  108) = (   0.7291667   0.2708333   0.2708333), wk =   0.0165289
        k(  109) = (   0.7500000   0.2500000   0.2500000), wk =   0.0165289
        k(  110) = (   0.7708333   0.2291667   0.2291667), wk =   0.0165289
        k(  111) = (   0.7916667   0.2083333   0.2083333), wk =   0.0165289
        k(  112) = (   0.8125000   0.1875000   0.1875000), wk =   0.0165289
        k(  113) = (   0.8333333   0.1666667   0.1666667), wk =   0.0165289
        k(  114) = (   0.8541667   0.1458333   0.1458333), wk =   0.0165289
        k(  115) = (   0.8750000   0.1250000   0.1250000), wk =   0.0165289
        k(  116) = (   0.8958333   0.1041667   0.1041667), wk =   0.0165289
        k(  117) = (   0.9166667   0.0833333   0.0833333), wk =   0.0165289
        k(  118) = (   0.9375000   0.0625000   0.0625000), wk =   0.0165289
        k(  119) = (   0.9583333   0.0416667   0.0416667), wk =   0.0165289
        k(  120) = (   0.9791667   0.0208333   0.0208333), wk =   0.0165289
        k(  121) = (   1.0000000   0.0000000   0.0000000), wk =   0.0165289

                       cryst. coord.
        k(    1) = (   0.0000000   0.0000000   0.0000000), wk =   0.0165289
        k(    2) = (  -0.0208333   0.0000000  -0.0208333), wk =   0.0165289
        k(    3) = (  -0.0416667   0.0000000  -0.0416667), wk =   0.0165289
        k(    4) = (  -0.0625000   0.0000000  -0.0625000), wk =   0.0165289
        k(    5) = (  -0.0833333   0.0000000  -0.0833333), wk =   0.0165289
        k(    6) = (  -0.1041667   0.0000000  -0.1041667), wk =   0.0165289
        k(    7) = (  -0.1250000   0.0000000  -0.1250000), wk =   0.0165289
        k(    8) = (  -0.1458333   0.0000000  -0.1458333), wk =   0.0165289
        k(    9) = (  -0.1666667   0.0000000  -0.1666667), wk =   0.0165289
        k(   10) = (  -0.1875000   0.0000000  -0.1875000), wk =   0.0165289
        k(   11) = (  -0.2083333   0.0000000  -0.2083333), wk =   0.0165289
        k(   12) = (  -0.2291667   0.0000000  -0.2291667), wk =   0.0165289
        k(   13) = (  -0.2500000   0.0000000  -0.2500000), wk =   0.0165289
        k(   14) = (  -0.2708333   0.0000000  -0.2708333), wk =   0.0165289
        k(   15) = (  -0.2916667   0.0000000  -0.2916667), wk =   0.0165289
        k(   16) = (  -0.3125000   0.0000000  -0.3125000), wk =   0.0165289
        k(   17) = (  -0.3333333   0.0000000  -0.3333333), wk =   0.0165289
        k(   18) = (  -0.3541667   0.0000000  -0.3541667), wk =   0.0165289
        k(   19) = (  -0.3750000   0.0000000  -0.3750000), wk =   0.0165289
        k(   20) = (  -0.3958333   0.0000000  -0.3958333), wk =   0.0165289
        k(   21) = (  -0.4166667   0.0000000  -0.4166667), wk =   0.0165289
        k(   22) = (  -0.4375000   0.0000000  -0.4375000), wk =   0.0165289
        k(   23) = (  -0.4583333   0.0000000  -0.4583333), wk =   0.0165289
        k(   24) = (  -0.4791667   0.0000000  -0.4791667), wk =   0.0165289
        k(   25) = (  -0.5000000   0.0000000  -0.5000000), wk =   0.0165289
        k(   26) = (  -0.5000000   0.0208333  -0.4791667), wk =   0.0165289
        k(   27) = (  -0.5000000   0.0416667  -0.4583333), wk =   0.0165289
        k(   28) = (  -0.5000000   0.0625000  -0.4375000), wk =   0.0165289
        k(   29) = (  -0.5000000   0.0833333  -0.4166667), wk =   0.0165289
        k(   30) = (  -0.5000000   0.1041667  -0.3958333), wk =   0.0165289
        k(   31) = (  -0.5000000   0.1250000  -0.3750000), wk =   0.0165289
        k(   32) = (  -0.5000000   0.1458333  -0.3541667), wk =   0.0165289
        k(   33) = (  -0.5000000   0.1666667  -0.3333333), wk =   0.0165289
        k(   34) = (  -0.5000000   0.1875000  -0.3125000), wk =   0.0165289
        k(   35) = (  -0.5000000   0.2083333  -0.2916667), wk =   0.0165289
        k(   36) = (  -0.5000000   0.2291667  -0.2708333), wk =   0.0165289
        k(   37) = (  -0.5000000   0.2500000  -0.2500000), wk =   0.0165289
        k(   38) = (  -0.4895833   0.2604167  -0.2291667), wk =   0.0165289
        k(   39) = (  -0.4791667   0.2708333  -0.2083333), wk =   0.0165289
        k(   40) = (  -0.4687500   0.2812500  -0.1875000), wk =   0.0165289
        k(   41) = (  -0.4583333   0.2916667  -0.1666667), wk =   0.0165289
        k(   42) = (  -0.4479167   0.3020833  -0.1458333), wk =   0.0165289
        k(   43) = (  -0.4375000   0.3125000  -0.1250000), wk =   0.0165289
        k(   44) = (  -0.4270833   0.3229167  -0.1041667), wk =   0.0165289
        k(   45) = (  -0.4166667   0.3333333  -0.0833333), wk =   0.0165289
        k(   46) = (  -0.4062500   0.3437500  -0.0625000), wk =   0.0165289
        k(   47) = (  -0.3958333   0.3541667  -0.0416667), wk =   0.0165289
        k(   48) = (  -0.3854167   0.3645833  -0.0208333), wk =   0.0165289
        k(   49) = (  -0.3750000   0.3750000   0.0000000), wk =   0.0165289
        k(   50) = (  -0.3593750   0.3593750   0.0000000), wk =   0.0165289
        k(   51) = (  -0.3437500   0.3437500   0.0000000), wk =   0.0165289
        k(   52) = (  -0.3281250   0.3281250   0.0000000), wk =   0.0165289
        k(   53) = (  -0.3125000   0.3125000   0.0000000), wk =   0.0165289
        k(   54) = (  -0.2968750   0.2968750   0.0000000), wk =   0.0165289
        k(   55) = (  -0.2812500   0.2812500   0.0000000), wk =   0.0165289
        k(   56) = (  -0.2656250   0.2656250   0.0000000), wk =   0.0165289
        k(   57) = (  -0.2500000   0.2500000   0.0000000), wk =   0.0165289
        k(   58) = (  -0.2343750   0.2343750   0.0000000), wk =   0.0165289
        k(   59) = (  -0.2187500   0.2187500   0.0000000), wk =   0.0165289
        k(   60) = (  -0.2031250   0.2031250   0.0000000), wk =   0.0165289
        k(   61) = (  -0.1875000   0.1875000   0.0000000), wk =   0.0165289
        k(   62) = (  -0.1718750   0.1718750   0.0000000), wk =   0.0165289
        k(   63) = (  -0.1562500   0.1562500   0.0000000), wk =   0.0165289
        k(   64) = (  -0.1406250   0.1406250   0.0000000), wk =   0.0165289
        k(   65) = (  -0.1250000   0.1250000   0.0000000), wk =   0.0165289
        k(   66) = (  -0.1093750   0.1093750   0.0000000), wk =   0.0165289
        k(   67) = (  -0.0937500   0.0937500   0.0000000), wk =   0.0165289
        k(   68) = (  -0.0781250   0.0781250   0.0000000), wk =   0.0165289
        k(   69) = (  -0.0625000   0.0625000   0.0000000), wk =   0.0165289
        k(   70) = (  -0.0468750   0.0468750   0.0000000), wk =   0.0165289
        k(   71) = (  -0.0312500   0.0312500   0.0000000), wk =   0.0165289
        k(   72) = (  -0.0156250   0.0156250   0.0000000), wk =   0.0165289
        k(   73) = (   0.0000000   0.0000000   0.0000000), wk =   0.0165289
        k(   74) = (   0.0000000   0.0208333   0.0000000), wk =   0.0165289
        k(   75) = (   0.0000000   0.0416667   0.0000000), wk =   0.0165289
        k(   76) = (   0.0000000   0.0625000   0.0000000), wk =   0.0165289
        k(   77) = (   0.0000000   0.0833333   0.0000000), wk =   0.0165289
        k(   78) = (   0.0000000   0.1041667   0.0000000), wk =   0.0165289
        k(   79) = (   0.0000000   0.1250000   0.0000000), wk =   0.0165289
        k(   80) = (   0.0000000   0.1458333   0.0000000), wk =   0.0165289
        k(   81) = (   0.0000000   0.1666667   0.0000000), wk =   0.0165289
        k(   82) = (   0.0000000   0.1875000   0.0000000), wk =   0.0165289
        k(   83) = (   0.0000000   0.2083333   0.0000000), wk =   0.0165289
        k(   84) = (   0.0000000   0.2291667   0.0000000), wk =   0.0165289
        k(   85) = (   0.0000000   0.2500000   0.0000000), wk =   0.0165289
        k(   86) = (   0.0000000   0.2708333   0.0000000), wk =   0.0165289
        k(   87) = (   0.0000000   0.2916667   0.0000000), wk =   0.0165289
        k(   88) = (   0.0000000   0.3125000   0.0000000), wk =   0.0165289
        k(   89) = (   0.0000000   0.3333333   0.0000000), wk =   0.0165289
        k(   90) = (   0.0000000   0.3541667   0.0000000), wk =   0.0165289
        k(   91) = (   0.0000000   0.3750000   0.0000000), wk =   0.0165289
        k(   92) = (   0.0000000   0.3958333   0.0000000), wk =   0.0165289
        k(   93) = (   0.0000000   0.4166667   0.0000000), wk =   0.0165289
        k(   94) = (   0.0000000   0.4375000   0.0000000), wk =   0.0165289
        k(   95) = (   0.0000000   0.4583333   0.0000000), wk =   0.0165289
        k(   96) = (   0.0000000   0.4791667   0.0000000), wk =   0.0165289
        k(   97) = (   0.0000000   0.5000000   0.0000000), wk =   0.0165289
        k(   98) = (  -0.0208333   0.4791667  -0.0208333), wk =   0.0165289
        k(   99) = (  -0.0416667   0.4583333  -0.0416667), wk =   0.0165289
        k(  100) = (  -0.0625000   0.4375000  -0.0625000), wk =   0.0165289
        k(  101) = (  -0.0833333   0.4166667  -0.0833333), wk =   0.0165289
        k(  102) = (  -0.1041667   0.3958333  -0.1041667), wk =   0.0165289
        k(  103) = (  -0.1250000   0.3750000  -0.1250000), wk =   0.0165289
        k(  104) = (  -0.1458333   0.3541667  -0.1458333), wk =   0.0165289
        k(  105) = (  -0.1666667   0.3333333  -0.1666667), wk =   0.0165289
        k(  106) = (  -0.1875000   0.3125000  -0.1875000), wk =   0.0165289
        k(  107) = (  -0.2083333   0.2916667  -0.2083333), wk =   0.0165289
        k(  108) = (  -0.2291667   0.2708333  -0.2291667), wk =   0.0165289
        k(  109) = (  -0.2500000   0.2500000  -0.2500000), wk =   0.0165289
        k(  110) = (  -0.2708333   0.2291667  -0.2708333), wk =   0.0165289
        k(  111) = (  -0.2916667   0.2083333  -0.2916667), wk =   0.0165289
        k(  112) = (  -0.3125000   0.1875000  -0.3125000), wk =   0.0165289
        k(  113) = (  -0.3333333   0.1666667  -0.3333333), wk =   0.0165289
        k(  114) = (  -0.3541667   0.1458333  -0.3541667), wk =   0.0165289
        k(  115) = (  -0.3750000   0.1250000  -0.3750000), wk =   0.0165289
        k(  116) = (  -0.3958333   0.1041667  -0.3958333), wk =   0.0165289
        k(  117) = (  -0.4166667   0.0833333  -0.4166667), wk =   0.0165289
        k(  118) = (  -0.4375000   0.0625000  -0.4375000), wk =   0.0165289
        k(  119) = (  -0.4583333   0.0416667  -0.4583333), wk =   0.0165289
        k(  120) = (  -0.4791667   0.0208333  -0.4791667), wk =   0.0165289
        k(  121) = (  -0.5000000   0.0000000  -0.5000000), wk =   0.0165289

     Dense  grid:    72377 G-vectors     FFT dimensions: (  60,  60,  60)

     Smooth grid:    16625 G-vectors     FFT dimensions: (  36,  36,  36)

     Dynamical RAM for                 wfc:       0.06 MB

     Dynamical RAM for     wfc (w. buffer):       0.06 MB

     Dynamical RAM for           str. fact:       0.28 MB

     Dynamical RAM for           local pot:       0.00 MB

     Dynamical RAM for          nlocal pot:       0.29 MB

     Dynamical RAM for                qrad:       2.03 MB

     Dynamical RAM for          rho,v,vnew:       2.06 MB

     Dynamical RAM for           G-vectors:       1.07 MB

     Dynamical RAM for          h,s,v(r/c):       0.00 MB

     Dynamical RAM for          <psi|beta>:       0.00 MB

     Dynamical RAM for      wfcinit/wfcrot:       0.13 MB

     Dynamical RAM for           addusdens:      51.91 MB

     Estimated static dynamical RAM per process >       8.40 MB

     Estimated max dynamical RAM per process >      60.31 MB

     Estimated total dynamical RAM >     241.22 MB

     The potential is recalculated from file :
     ./tmp/si.save/charge-density

     Starting wfcs are    8 randomized atomic wfcs

     Band Structure Calculation
     CG style diagonalization

     Computing kpt #:     1  of   121
     total cpu time spent up to now is        1.1 secs

     Computing kpt #:     2  of   121
     total cpu time spent up to now is        1.5 secs

     Computing kpt #:     3  of   121
     total cpu time spent up to now is        1.7 secs

     Computing kpt #:     4  of   121
     total cpu time spent up to now is        2.0 secs

     Computing kpt #:     5  of   121
     total cpu time spent up to now is        2.2 secs

     Computing kpt #:     6  of   121
     total cpu time spent up to now is        2.4 secs

     Computing kpt #:     7  of   121
     total cpu time spent up to now is        2.6 secs

     Computing kpt #:     8  of   121
     total cpu time spent up to now is        2.9 secs

     Computing kpt #:     9  of   121
     total cpu time spent up to now is        3.1 secs

     Computing kpt #:    10  of   121
     total cpu time spent up to now is        3.3 secs

     Computing kpt #:    11  of   121
     total cpu time spent up to now is        3.5 secs

     Computing kpt #:    12  of   121
     total cpu time spent up to now is        3.6 secs

     Computing kpt #:    13  of   121
     total cpu time spent up to now is        3.8 secs

     Computing kpt #:    14  of   121
     total cpu time spent up to now is        3.9 secs

     Computing kpt #:    15  of   121
     total cpu time spent up to now is        4.1 secs

     Computing kpt #:    16  of   121
     total cpu time spent up to now is        4.3 secs

     Computing kpt #:    17  of   121
     total cpu time spent up to now is        4.4 secs

     Computing kpt #:    18  of   121
     total cpu time spent up to now is        4.6 secs

     Computing kpt #:    19  of   121
     total cpu time spent up to now is        4.7 secs

     Computing kpt #:    20  of   121
     total cpu time spent up to now is        4.9 secs

     Computing kpt #:    21  of   121
     total cpu time spent up to now is        5.1 secs

     Computing kpt #:    22  of   121
     total cpu time spent up to now is        5.2 secs

     Computing kpt #:    23  of   121
     total cpu time spent up to now is        5.4 secs

     Computing kpt #:    24  of   121
     total cpu time spent up to now is        5.7 secs

     Computing kpt #:    25  of   121
     total cpu time spent up to now is        5.8 secs

     Computing kpt #:    26  of   121
     total cpu time spent up to now is        6.0 secs

     Computing kpt #:    27  of   121
     total cpu time spent up to now is        6.2 secs

     Computing kpt #:    28  of   121
     total cpu time spent up to now is        6.4 secs

     Computing kpt #:    29  of   121
     total cpu time spent up to now is        6.6 secs

     Computing kpt #:    30  of   121
     total cpu time spent up to now is        6.8 secs

     Computing kpt #:    31  of   121
     total cpu time spent up to now is        6.9 secs

     Computing kpt #:    32  of   121
     total cpu time spent up to now is        7.1 secs

     Computing kpt #:    33  of   121
     total cpu time spent up to now is        7.2 secs

     Computing kpt #:    34  of   121
     total cpu time spent up to now is        7.4 secs

     Computing kpt #:    35  of   121
     total cpu time spent up to now is        7.5 secs

     Computing kpt #:    36  of   121
     total cpu time spent up to now is        7.7 secs

     Computing kpt #:    37  of   121
     total cpu time spent up to now is        7.9 secs

     Computing kpt #:    38  of   121
     total cpu time spent up to now is        8.3 secs

     Computing kpt #:    39  of   121
     total cpu time spent up to now is        8.6 secs

     Computing kpt #:    40  of   121
     total cpu time spent up to now is        8.9 secs

     Computing kpt #:    41  of   121
     total cpu time spent up to now is        9.2 secs

     Computing kpt #:    42  of   121
     total cpu time spent up to now is        9.4 secs

     Computing kpt #:    43  of   121
     total cpu time spent up to now is        9.6 secs

     Computing kpt #:    44  of   121
     total cpu time spent up to now is        9.9 secs

     Computing kpt #:    45  of   121
     total cpu time spent up to now is       10.1 secs

     Computing kpt #:    46  of   121
     total cpu time spent up to now is       10.3 secs

     Computing kpt #:    47  of   121
     total cpu time spent up to now is       10.5 secs

     Computing kpt #:    48  of   121
     total cpu time spent up to now is       10.8 secs

     Computing kpt #:    49  of   121
     total cpu time spent up to now is       11.0 secs

     Computing kpt #:    50  of   121
     total cpu time spent up to now is       11.3 secs

     Computing kpt #:    51  of   121
     total cpu time spent up to now is       11.5 secs

     Computing kpt #:    52  of   121
     total cpu time spent up to now is       11.8 secs

     Computing kpt #:    53  of   121
     total cpu time spent up to now is       12.1 secs

     Computing kpt #:    54  of   121
     total cpu time spent up to now is       12.3 secs

     Computing kpt #:    55  of   121
     total cpu time spent up to now is       12.6 secs

     Computing kpt #:    56  of   121
     total cpu time spent up to now is       12.8 secs

     Computing kpt #:    57  of   121
     total cpu time spent up to now is       13.0 secs

     Computing kpt #:    58  of   121
     total cpu time spent up to now is       13.3 secs

     Computing kpt #:    59  of   121
     total cpu time spent up to now is       13.5 secs

     Computing kpt #:    60  of   121
     total cpu time spent up to now is       13.7 secs

     Computing kpt #:    61  of   121
     total cpu time spent up to now is       13.9 secs

     Computing kpt #:    62  of   121
     total cpu time spent up to now is       14.2 secs

     Computing kpt #:    63  of   121
     total cpu time spent up to now is       14.4 secs

     Computing kpt #:    64  of   121
     total cpu time spent up to now is       14.7 secs

     Computing kpt #:    65  of   121
     total cpu time spent up to now is       15.0 secs

     Computing kpt #:    66  of   121
     total cpu time spent up to now is       15.3 secs

     Computing kpt #:    67  of   121
     total cpu time spent up to now is       15.6 secs

     Computing kpt #:    68  of   121
     total cpu time spent up to now is       16.0 secs

     Computing kpt #:    69  of   121
     total cpu time spent up to now is       16.3 secs

     Computing kpt #:    70  of   121
     total cpu time spent up to now is       16.8 secs

     Computing kpt #:    71  of   121
     total cpu time spent up to now is       17.2 secs

     Computing kpt #:    72  of   121
     total cpu time spent up to now is       17.8 secs

     Computing kpt #:    73  of   121
     total cpu time spent up to now is       18.0 secs

     Computing kpt #:    74  of   121
     total cpu time spent up to now is       18.5 secs

     Computing kpt #:    75  of   121
     total cpu time spent up to now is       18.7 secs

     Computing kpt #:    76  of   121
     total cpu time spent up to now is       19.0 secs

     Computing kpt #:    77  of   121
     total cpu time spent up to now is       19.3 secs

     Computing kpt #:    78  of   121
     total cpu time spent up to now is       19.5 secs

     Computing kpt #:    79  of   121
     total cpu time spent up to now is       19.7 secs

     Computing kpt #:    80  of   121
     total cpu time spent up to now is       19.9 secs

     Computing kpt #:    81  of   121
     total cpu time spent up to now is       20.1 secs

     Computing kpt #:    82  of   121
     total cpu time spent up to now is       20.2 secs

     Computing kpt #:    83  of   121
     total cpu time spent up to now is       20.4 secs

     Computing kpt #:    84  of   121
     total cpu time spent up to now is       20.6 secs

     Computing kpt #:    85  of   121
     total cpu time spent up to now is       20.8 secs

     Computing kpt #:    86  of   121
     total cpu time spent up to now is       21.1 secs

     Computing kpt #:    87  of   121
     total cpu time spent up to now is       21.3 secs

     Computing kpt #:    88  of   121
     total cpu time spent up to now is       21.6 secs

     Computing kpt #:    89  of   121
     total cpu time spent up to now is       21.8 secs

     Computing kpt #:    90  of   121
     total cpu time spent up to now is       22.0 secs

     Computing kpt #:    91  of   121
     total cpu time spent up to now is       22.1 secs

     Computing kpt #:    92  of   121
     total cpu time spent up to now is       22.3 secs

     Computing kpt #:    93  of   121
     total cpu time spent up to now is       22.5 secs

     Computing kpt #:    94  of   121
     total cpu time spent up to now is       22.6 secs

     Computing kpt #:    95  of   121
     total cpu time spent up to now is       22.8 secs

     Computing kpt #:    96  of   121
     total cpu time spent up to now is       22.9 secs

     Computing kpt #:    97  of   121
     total cpu time spent up to now is       23.1 secs

     Computing kpt #:    98  of   121
     total cpu time spent up to now is       23.3 secs

     Computing kpt #:    99  of   121
     total cpu time spent up to now is       23.6 secs

     Computing kpt #:   100  of   121
     total cpu time spent up to now is       23.8 secs

     Computing kpt #:   101  of   121
     total cpu time spent up to now is       24.1 secs

     Computing kpt #:   102  of   121
     total cpu time spent up to now is       24.3 secs

     Computing kpt #:   103  of   121
     total cpu time spent up to now is       24.5 secs

     Computing kpt #:   104  of   121
     total cpu time spent up to now is       24.7 secs

     Computing kpt #:   105  of   121
     total cpu time spent up to now is       24.9 secs

     Computing kpt #:   106  of   121
     total cpu time spent up to now is       25.2 secs

     Computing kpt #:   107  of   121
     total cpu time spent up to now is       25.4 secs

     Computing kpt #:   108  of   121
     total cpu time spent up to now is       25.7 secs

     Computing kpt #:   109  of   121
     total cpu time spent up to now is       25.9 secs

     Computing kpt #:   110  of   121
     total cpu time spent up to now is       26.2 secs

     Computing kpt #:   111  of   121
     total cpu time spent up to now is       26.5 secs

     Computing kpt #:   112  of   121
     total cpu time spent up to now is       26.7 secs

     Computing kpt #:   113  of   121
     total cpu time spent up to now is       27.0 secs

     Computing kpt #:   114  of   121
     total cpu time spent up to now is       27.2 secs

     Computing kpt #:   115  of   121
     total cpu time spent up to now is       27.5 secs

     Computing kpt #:   116  of   121
     total cpu time spent up to now is       27.7 secs

     Computing kpt #:   117  of   121
     total cpu time spent up to now is       28.0 secs

     Computing kpt #:   118  of   121
     total cpu time spent up to now is       28.3 secs

     Computing kpt #:   119  of   121
     total cpu time spent up to now is       28.7 secs

     Computing kpt #:   120  of   121
     total cpu time spent up to now is       29.1 secs

     Computing kpt #:   121  of   121
     total cpu time spent up to now is       29.3 secs

     ethr =  1.00E-10,  avg # of iterations = 33.2

     total cpu time spent up to now is       29.3 secs

     End of band structure calculation

          k = 0.0000 0.0000 0.0000 (  2085 PWs)   bands (ev):

    -5.6925   6.3970   6.3970   6.3970   8.9666   8.9666   8.9666   9.9691

          k = 0.0417 0.0000 0.0000 (  2085 PWs)   bands (ev):

    -5.6848   6.3465   6.3633   6.3633   8.9474   9.0098   9.0098  10.0185

          k = 0.0833 0.0000 0.0000 (  2089 PWs)   bands (ev):

    -5.6616   6.2032   6.2685   6.2685   8.8914   9.1331   9.1331  10.1569

          k = 0.1250 0.0000 0.0000 (  2089 PWs)   bands (ev):

    -5.6231   5.9862   6.1276   6.1276   8.8030   9.3213   9.3213  10.3592

          k = 0.1667 0.0000 0.0000 (  2081 PWs)   bands (ev):

    -5.5691   5.7162   5.9567   5.9567   8.6883   9.5583   9.5583  10.5916

          k = 0.2083 0.0000 0.0000 (  2073 PWs)   bands (ev):

    -5.4998   5.4098   5.7686   5.7686   8.5541   9.8310   9.8310  10.8095

          k = 0.2500 0.0000 0.0000 (  2077 PWs)   bands (ev):

    -5.4153   5.0789   5.5725   5.5725   8.4067  10.1298  10.1298  10.9485

          k = 0.2917 0.0000 0.0000 (  2081 PWs)   bands (ev):

    -5.3156   4.7314   5.3747   5.3747   8.2521  10.4484  10.4484  10.9386

          k = 0.3333 0.0000 0.0000 (  2061 PWs)   bands (ev):

    -5.2009   4.3727   5.1794   5.1794   8.0949  10.7706  10.7820  10.7820

          k = 0.3750 0.0000 0.0000 (  2061 PWs)   bands (ev):

    -5.0711   4.0061   4.9896   4.9896   7.9392  10.5015  11.1275  11.1275

          k = 0.4167 0.0000 0.0000 (  2069 PWs)   bands (ev):

    -4.9266   3.6343   4.8073   4.8073   7.7883  10.1863  11.4826  11.4826

          k = 0.4583 0.0000 0.0000 (  2069 PWs)   bands (ev):

    -4.7673   3.2589   4.6342   4.6342   7.6446   9.8565  11.8455  11.8455

          k = 0.5000 0.0000 0.0000 (  2045 PWs)   bands (ev):

    -4.5936   2.8812   4.4712   4.4712   7.5104   9.5284  12.2149  12.2149

          k = 0.5417 0.0000 0.0000 (  2061 PWs)   bands (ev):

    -4.4056   2.5023   4.3192   4.3192   7.3874   9.2110  12.5898  12.5898

          k = 0.5833 0.0000 0.0000 (  2060 PWs)   bands (ev):

    -4.2035   2.1232   4.1790   4.1790   7.2770   8.9094  12.9697  12.9697

          k = 0.6250 0.0000 0.0000 (  2072 PWs)   bands (ev):

    -3.9877   1.7448   4.0509   4.0509   7.1804   8.6267  13.3540  13.3540

          k = 0.6667 0.0000 0.0000 (  2080 PWs)   bands (ev):

    -3.7582   1.3680   3.9355   3.9355   7.0987   8.3648  13.7422  13.7422

          k = 0.7083 0.0000 0.0000 (  2072 PWs)   bands (ev):

    -3.5156   0.9937   3.8330   3.8330   7.0327   8.1248  14.1342  14.1342

          k = 0.7500 0.0000 0.0000 (  2084 PWs)   bands (ev):

    -3.2601   0.6228   3.7437   3.7437   6.9834   7.9072  14.5296  14.5296

          k = 0.7917 0.0000 0.0000 (  2084 PWs)   bands (ev):

    -2.9922   0.2562   3.6679   3.6679   6.9513   7.7123  14.9278  14.9278

          k = 0.8333 0.0000 0.0000 (  2100 PWs)   bands (ev):

    -2.7122  -0.1052   3.6056   3.6056   6.9372   7.5401  15.3277  15.3277

          k = 0.8750 0.0000 0.0000 (  2080 PWs)   bands (ev):

    -2.4206  -0.4605   3.5571   3.5571   6.9416   7.3903  15.7266  15.7266

          k = 0.9167 0.0000 0.0000 (  2080 PWs)   bands (ev):

    -2.1180  -0.8090   3.5223   3.5223   6.9653   7.2627  16.1171  16.1171

          k = 0.9583 0.0000 0.0000 (  2084 PWs)   bands (ev):

    -1.8048  -1.1496   3.5014   3.5014   7.0087   7.1569  16.4717  16.4717

          k = 1.0000 0.0000 0.0000 (  2100 PWs)   bands (ev):

    -1.4819  -1.4819   3.4945   3.4945   7.0724   7.0724  16.6574  16.6574

          k = 1.0000 0.0417 0.0000 (  2088 PWs)   bands (ev):

    -1.4792  -1.4792   3.4706   3.4706   7.1155   7.1155  16.5832  16.5832

          k = 1.0000 0.0833 0.0000 (  2080 PWs)   bands (ev):

    -1.4713  -1.4713   3.4031   3.4031   7.2410   7.2410  16.3308  16.3308

          k = 1.0000 0.1250 0.0000 (  2082 PWs)   bands (ev):

    -1.4587  -1.4587   3.3016   3.3016   7.4393   7.4393  15.9150  15.9150

          k = 1.0000 0.1667 0.0000 (  2086 PWs)   bands (ev):

    -1.4419  -1.4419   3.1786   3.1786   7.6985   7.6985  15.4140  15.4140

          k = 1.0000 0.2083 0.0000 (  2094 PWs)   bands (ev):

    -1.4220  -1.4220   3.0458   3.0458   8.0073   8.0073  14.8775  14.8775

          k = 1.0000 0.2500 0.0000 (  2098 PWs)   bands (ev):

    -1.4000  -1.4000   2.9132   2.9132   8.3563   8.3563  14.3280  14.3280

          k = 1.0000 0.2917 0.0000 (  2094 PWs)   bands (ev):

    -1.3775  -1.3775   2.7887   2.7887   8.7380   8.7380  13.7768  13.7768

          k = 1.0000 0.3333 0.0000 (  2090 PWs)   bands (ev):

    -1.3560  -1.3560   2.6786   2.6786   9.1460   9.1460  13.2307  13.2307

          k = 1.0000 0.3750 0.0000 (  2094 PWs)   bands (ev):

    -1.3371  -1.3371   2.5879   2.5879   9.5739   9.5739  12.6960  12.6960

          k = 1.0000 0.4167 0.0000 (  2102 PWs)   bands (ev):

    -1.3223  -1.3223   2.5204   2.5204  10.0120  10.0120  12.1821  12.1821

          k = 1.0000 0.4583 0.0000 (  2112 PWs)   bands (ev):

    -1.3128  -1.3128   2.4788   2.4788  10.4311  10.4311  11.7176  11.7176

          k = 1.0000 0.5000 0.0000 (  2120 PWs)   bands (ev):

    -1.3095  -1.3095   2.4648   2.4648  10.6693  10.6693  11.4642  11.4642

          k = 0.9792 0.5208 0.0000 (  2120 PWs)   bands (ev):

    -1.4025  -1.2194   2.3939   2.5496  10.4662  10.7179  11.5226  11.5760

          k = 0.9583 0.5417 0.0000 (  2102 PWs)   bands (ev):

    -1.4876  -1.1427   2.3284   2.6563  10.1286  10.7271  11.7352  11.7390

          k = 0.9375 0.5625 0.0000 (  2106 PWs)   bands (ev):

    -1.5647  -1.0790   2.2685   2.7828   9.7625  10.7133  11.9363  11.9977

          k = 0.9167 0.5833 0.0000 (  2100 PWs)   bands (ev):

    -1.6337  -1.0272   2.2144   2.9262   9.3978  10.6887  12.1552  12.2819

          k = 0.8958 0.6042 0.0000 (  2102 PWs)   bands (ev):

    -1.6947  -0.9862   2.1663   3.0825   9.0458  10.6605  12.3879  12.5791

          k = 0.8750 0.6250 0.0000 (  2096 PWs)   bands (ev):

    -1.7476  -0.9543   2.1244   3.2466   8.7133  10.6324  12.6298  12.8860

          k = 0.8542 0.6458 0.0000 (  2097 PWs)   bands (ev):

    -1.7924  -0.9301   2.0888   3.4121   8.4069  10.6065  12.8776  13.2004

          k = 0.8333 0.6667 0.0000 (  2099 PWs)   bands (ev):

    -1.8291  -0.9123   2.0594   3.5709   8.1341  10.5843  13.1285  13.5212

          k = 0.8125 0.6875 0.0000 (  2093 PWs)   bands (ev):

    -1.8577  -0.8997   2.0366   3.7132   7.9040  10.5663  13.3790  13.8472

          k = 0.7917 0.7083 0.0000 (  2089 PWs)   bands (ev):

    -1.8781  -0.8914   2.0202   3.8278   7.7272  10.5533  13.6222  14.1768

          k = 0.7708 0.7292 0.0000 (  2091 PWs)   bands (ev):

    -1.8903  -0.8867   2.0103   3.9028   7.6150  10.5453  13.8377  14.5064

          k = 0.7500 0.7500 0.0000 (  2085 PWs)   bands (ev):

    -1.8944  -0.8852   2.0071   3.9291   7.5765  10.5426  13.9449  14.4997

          k = 0.7188 0.7188 0.0000 (  2093 PWs)   bands (ev):

    -2.0505  -0.7273   1.9219   4.0400   7.7056  11.1835  13.5566  14.1133

          k = 0.6875 0.6875 0.0000 (  2091 PWs)   bands (ev):

    -2.2339  -0.5512   1.8893   4.1616   7.8472  11.8227  13.1802  13.7624

          k = 0.6562 0.6562 0.0000 (  2087 PWs)   bands (ev):

    -2.4400  -0.3570   1.9065   4.2928   8.0000  12.3956  12.8169  13.5086

          k = 0.6250 0.6250 0.0000 (  2085 PWs)   bands (ev):

    -2.6630  -0.1447   1.9689   4.4326   8.1625  12.4677  12.6211  13.5773

          k = 0.5938 0.5938 0.0000 (  2091 PWs)   bands (ev):

    -2.8970   0.0853   2.0715   4.5796   8.3326  12.1332  12.4356  13.3120

          k = 0.5625 0.5625 0.0000 (  2079 PWs)   bands (ev):

    -3.1365   0.3331   2.2091   4.7323   8.5076  11.8141  12.1543  13.0653

          k = 0.5312 0.5312 0.0000 (  2085 PWs)   bands (ev):

    -3.3768   0.5982   2.3772   4.8888   8.6843  11.5108  11.8622  12.8404

          k = 0.5000 0.5000 0.0000 (  2085 PWs)   bands (ev):

    -3.6141   0.8806   2.5721   5.0471   8.8583  11.2237  11.5766  12.6408

          k = 0.4688 0.4688 0.0000 (  2087 PWs)   bands (ev):

    -3.8453   1.1799   2.7903   5.2051   9.0241  10.9531  11.3026  12.4704

          k = 0.4375 0.4375 0.0000 (  2087 PWs)   bands (ev):

    -4.0681   1.4957   3.0288   5.3602   9.1752  10.6991  11.0421  12.3335

          k = 0.4062 0.4062 0.0000 (  2085 PWs)   bands (ev):

    -4.2805   1.8276   3.2850   5.5100   9.3048  10.4620  10.7961  12.2336

          k = 0.3750 0.3750 0.0000 (  2079 PWs)   bands (ev):

    -4.4810   2.1751   3.5562   5.6519   9.4064  10.2420  10.5647  12.1716

          k = 0.3438 0.3438 0.0000 (  2079 PWs)   bands (ev):

    -4.6684   2.5376   3.8398   5.7837   9.4757  10.0391  10.3481  12.1431

          k = 0.3125 0.3125 0.0000 (  2079 PWs)   bands (ev):

    -4.8418   2.9141   4.1329   5.9035   9.5122   9.8536  10.1461  12.1343

          k = 0.2812 0.2812 0.0000 (  2079 PWs)   bands (ev):

    -5.0004   3.3035   4.4323   6.0097   9.5194   9.6856   9.9582  12.1185

          k = 0.2500 0.2500 0.0000 (  2067 PWs)   bands (ev):

    -5.1436   3.7042   4.7342   6.1017   9.5030   9.5350   9.7841  12.0534

          k = 0.2188 0.2188 0.0000 (  2071 PWs)   bands (ev):

    -5.2709   4.1139   5.0342   6.1794   9.4020   9.4692   9.6234  11.8911

          k = 0.1875 0.1875 0.0000 (  2083 PWs)   bands (ev):

    -5.3820   4.5291   5.3264   6.2432   9.2866   9.4228   9.4757  11.6121

          k = 0.1562 0.1562 0.0000 (  2075 PWs)   bands (ev):

    -5.4764   4.9446   5.6039   6.2942   9.1889   9.3414   9.3665  11.2482

          k = 0.1250 0.1250 0.0000 (  2077 PWs)   bands (ev):

    -5.5539   5.3515   5.8577   6.3334   9.1089   9.2215   9.2991  10.8560

          k = 0.0938 0.0938 0.0000 (  2091 PWs)   bands (ev):

    -5.6145   5.7349   6.0769   6.3623   9.0466   9.1187   9.2157  10.4906

          k = 0.0625 0.0625 0.0000 (  2087 PWs)   bands (ev):

    -5.6578   6.0682   6.2484   6.3819   9.0021   9.0377   9.1134  10.2023

          k = 0.0312 0.0312 0.0000 (  2085 PWs)   bands (ev):

    -5.6838   6.3075   6.3588   6.3933   8.9755   8.9850   9.0121  10.0263

          k = 0.0000 0.0000 0.0000 (  2085 PWs)   bands (ev):

    -5.6925   6.3970   6.3970   6.3970   8.9666   8.9666   8.9666   9.9691

          k = 0.0208 0.0208 0.0208 (  2085 PWs)   bands (ev):

    -5.6867   6.3291   6.3869   6.3869   8.9814   8.9814   8.9859  10.0074

          k = 0.0417 0.0417 0.0417 (  2085 PWs)   bands (ev):

    -5.6693   6.1411   6.3573   6.3573   9.0242   9.0247   9.0247  10.1269

          k = 0.0625 0.0625 0.0625 (  2091 PWs)   bands (ev):

    -5.6404   5.8665   6.3106   6.3106   9.0471   9.0932   9.0932  10.3298

          k = 0.0833 0.0833 0.0833 (  2079 PWs)   bands (ev):

    -5.6001   5.5366   6.2502   6.2502   9.0393   9.1823   9.1823  10.6027

          k = 0.1042 0.1042 0.1042 (  2079 PWs)   bands (ev):

    -5.5483   5.1732   6.1797   6.1797   9.0038   9.2863   9.2863  10.9234

          k = 0.1250 0.1250 0.1250 (  2079 PWs)   bands (ev):

    -5.4852   4.7905   6.1023   6.1023   8.9486   9.3990   9.3990  11.2728

          k = 0.1458 0.1458 0.1458 (  2082 PWs)   bands (ev):

    -5.4109   4.3973   6.0210   6.0210   8.8805   9.5140   9.5140  11.6378

          k = 0.1667 0.1667 0.1667 (  2088 PWs)   bands (ev):

    -5.3256   3.9998   5.9382   5.9382   8.8049   9.6248   9.6248  12.0100

          k = 0.1875 0.1875 0.1875 (  2082 PWs)   bands (ev):

    -5.2296   3.6019   5.8558   5.8558   8.7253   9.7253   9.7253  12.3836

          k = 0.2083 0.2083 0.2083 (  2079 PWs)   bands (ev):

    -5.1230   3.2068   5.7754   5.7754   8.6447   9.8099   9.8099  12.7542

          k = 0.2292 0.2292 0.2292 (  2079 PWs)   bands (ev):

    -5.0063   2.8167   5.6980   5.6980   8.5650   9.8746   9.8746  13.1173

          k = 0.2500 0.2500 0.2500 (  2067 PWs)   bands (ev):

    -4.8799   2.4336   5.6245   5.6245   8.4878   9.9176   9.9176  13.4662

          k = 0.2708 0.2708 0.2708 (  2072 PWs)   bands (ev):

    -4.7444   2.0592   5.5557   5.5557   8.4142   9.9394   9.9394  13.7508

          k = 0.2917 0.2917 0.2917 (  2072 PWs)   bands (ev):

    -4.6005   1.6952   5.4919   5.4919   8.3452   9.9425   9.9425  13.9351

          k = 0.3125 0.3125 0.3125 (  2081 PWs)   bands (ev):

    -4.4494   1.3433   5.4336   5.4336   8.2815   9.9306   9.9306  14.1592

          k = 0.3333 0.3333 0.3333 (  2090 PWs)   bands (ev):

    -4.2924   1.0054   5.3810   5.3810   8.2235   9.9081   9.9081  14.3384

          k = 0.3542 0.3542 0.3542 (  2087 PWs)   bands (ev):

    -4.1315   0.6841   5.3344   5.3344   8.1716   9.8792   9.8792  14.3505

          k = 0.3750 0.3750 0.3750 (  2072 PWs)   bands (ev):

    -3.9693   0.3822   5.2938   5.2938   8.1263   9.8474   9.8474  14.3242

          k = 0.3958 0.3958 0.3958 (  2078 PWs)   bands (ev):

    -3.8098   0.1041   5.2594   5.2594   8.0876   9.8160   9.8160  14.2841

          k = 0.4167 0.4167 0.4167 (  2078 PWs)   bands (ev):

    -3.6585  -0.1446   5.2312   5.2312   8.0557   9.7872   9.7872  14.2426

          k = 0.4375 0.4375 0.4375 (  2066 PWs)   bands (ev):

    -3.5229  -0.3561   5.2092   5.2092   8.0308   9.7631   9.7631  14.2063

          k = 0.4583 0.4583 0.4583 (  2072 PWs)   bands (ev):

    -3.4130  -0.5202   5.1935   5.1935   8.0130   9.7449   9.7449  14.1786

          k = 0.4792 0.4792 0.4792 (  2072 PWs)   bands (ev):

    -3.3404  -0.6255   5.1841   5.1841   8.0023   9.7337   9.7337  14.1614

          k = 0.5000 0.5000 0.5000 (  2060 PWs)   bands (ev):

    -3.3149  -0.6619   5.1809   5.1809   7.9987   9.7299   9.7299  14.1555

          k = 0.5208 0.4792 0.4792 (  2064 PWs)   bands (ev):

    -3.3126  -0.6550   5.1354   5.1686   8.0440   9.7184   9.7534  14.1803

          k = 0.5417 0.4583 0.4583 (  2079 PWs)   bands (ev):

    -3.3057  -0.6344   5.0082   5.1325   8.1672   9.6892   9.8232  14.2483

          k = 0.5625 0.4375 0.4375 (  2080 PWs)   bands (ev):

    -3.2942  -0.6006   4.8203   5.0749   8.3360   9.6589   9.9369  14.3350

          k = 0.5833 0.4167 0.4167 (  2079 PWs)   bands (ev):

    -3.2777  -0.5545   4.5937   4.9991   8.5021   9.6611  10.0911  14.3695

          k = 0.6042 0.3958 0.3958 (  2076 PWs)   bands (ev):

    -3.2559  -0.4974   4.3454   4.9091   8.6071   9.7449  10.2819  14.2063

          k = 0.6250 0.3750 0.3750 (  2080 PWs)   bands (ev):

    -3.2286  -0.4310   4.0881   4.8085   8.6171   9.9396  10.5054  13.8288

          k = 0.6458 0.3542 0.3542 (  2078 PWs)   bands (ev):

    -3.1953  -0.3578   3.8310   4.7011   8.5505  10.2243  10.7579  13.3629

          k = 0.6667 0.3333 0.3333 (  2078 PWs)   bands (ev):

    -3.1558  -0.2809   3.5815   4.5898   8.4412  10.5638  11.0361  12.8726

          k = 0.6875 0.3125 0.3125 (  2078 PWs)   bands (ev):

    -3.1095  -0.2045   3.3465   4.4774   8.3115  10.9319  11.3372  12.3829

          k = 0.7083 0.2917 0.2917 (  2082 PWs)   bands (ev):

    -3.0562  -0.1339   3.1329   4.3659   8.1738  11.2917  11.6588  11.9271

          k = 0.7292 0.2708 0.2708 (  2082 PWs)   bands (ev):

    -2.9955  -0.0758   2.9485   4.2573   8.0351  11.2899  11.8558  11.9988

          k = 0.7500 0.2500 0.2500 (  2081 PWs)   bands (ev):

    -2.9272  -0.0381   2.8012   4.1528   7.8996  10.8617  12.2328  12.3553

          k = 0.7708 0.2292 0.2292 (  2087 PWs)   bands (ev):

    -2.8511  -0.0288   2.6988   4.0538   7.7700  10.4067  12.6573  12.7267

          k = 0.7917 0.2083 0.2083 (  2092 PWs)   bands (ev):

    -2.7668  -0.0538   2.6469   3.9611   7.6483   9.9596  13.0943  13.1113

          k = 0.8125 0.1875 0.1875 (  2092 PWs)   bands (ev):

    -2.6743  -0.1152   2.6465   3.8754   7.5357   9.5269  13.5075  13.5369

          k = 0.8333 0.1667 0.1667 (  2092 PWs)   bands (ev):

    -2.5736  -0.2106   2.6934   3.7975   7.4333   9.1121  13.9134  13.9815

          k = 0.8542 0.1458 0.1458 (  2082 PWs)   bands (ev):

    -2.4645  -0.3341   2.7794   3.7278   7.3418   8.7188  14.3267  14.4246

          k = 0.8750 0.1250 0.1250 (  2089 PWs)   bands (ev):

    -2.3471  -0.4784   2.8940   3.6668   7.2617   8.3511  14.7442  14.8616

          k = 0.8958 0.1042 0.1042 (  2089 PWs)   bands (ev):

    -2.2215  -0.6368   3.0257   3.6146   7.1936   8.0144  15.1613  15.2864

          k = 0.9167 0.0833 0.0833 (  2082 PWs)   bands (ev):

    -2.0880  -0.8037   3.1624   3.5716   7.1379   7.7154  15.5706  15.6898

          k = 0.9375 0.0625 0.0625 (  2078 PWs)   bands (ev):

    -1.9468  -0.9745   3.2911   3.5380   7.0952   7.4631  15.9589  16.0572

          k = 0.9583 0.0417 0.0417 (  2082 PWs)   bands (ev):

    -1.7983  -1.1460   3.3979   3.5138   7.0666   7.2675  16.3027  16.3652

          k = 0.9792 0.0208 0.0208 (  2086 PWs)   bands (ev):

    -1.6430  -1.3157   3.4693   3.4993   7.0556   7.1374  16.5581  16.5790

          k = 1.0000 0.0000 0.0000 (  2100 PWs)   bands (ev):

    -1.4819  -1.4819   3.4945   3.4945   7.0724   7.0724  16.6574  16.6574

     Writing all to output data dir ./tmp/si.save/ :
     XML data file, pseudopotentials, collected wavefunctions

     init_run     :      0.78s CPU      0.81s WALL (       1 calls)
     electrons    :     26.89s CPU     28.31s WALL (       1 calls)

     Called by init_run:
     wfcinit      :      0.00s CPU      0.00s WALL (       1 calls)
     wfcinit:atom :      0.01s CPU      0.01s WALL (     121 calls)
     wfcinit:wfcr :      0.55s CPU      0.59s WALL (     121 calls)
     potinit      :      0.16s CPU      0.16s WALL (       1 calls)
     hinit0       :      0.31s CPU      0.32s WALL (       1 calls)

     Called by electrons:
     c_bands      :     26.89s CPU     28.31s WALL (       1 calls)
     v_of_rho     :      0.03s CPU      0.03s WALL (       1 calls)
     v_h          :      0.00s CPU      0.00s WALL (       1 calls)
     v_xc         :      0.03s CPU      0.03s WALL (       1 calls)
     newd         :      0.07s CPU      0.09s WALL (       1 calls)

     Called by c_bands:
     init_us_2    :      0.02s CPU      0.03s WALL (     121 calls)
     ccgdiagg     :     26.26s CPU     27.63s WALL (     122 calls)
     wfcrot       :      0.56s CPU      0.60s WALL (     122 calls)

     Called by sum_band:

     Called by *cgdiagg:
     h_psi        :     16.84s CPU     17.76s WALL (   32278 calls)
     s_psi        :      4.41s CPU      4.63s WALL (   64434 calls)

     Called by h_psi:
     h_psi:calbec :      3.12s CPU      3.31s WALL (   32278 calls)
     vloc_psi     :     11.27s CPU     11.90s WALL (   32278 calls)
                                        0.00s GPU  (   32278 calls)
     add_vuspsi   :      2.25s CPU      2.36s WALL (   32278 calls)
     hs_1psi      :     18.76s CPU     19.76s WALL (   32156 calls)
     s_1psi       :      5.24s CPU      5.49s WALL (   32156 calls)

     General routines
     calbec       :      5.98s CPU      6.31s WALL (   64434 calls)
     fft          :      0.21s CPU      0.21s WALL (      13 calls)
     ffts         :      0.12s CPU      0.12s WALL (       1 calls)
     fftw         :      9.97s CPU     10.52s WALL (   66264 calls)
     interpolate  :      0.12s CPU      0.12s WALL (       1 calls)
     davcio       :      0.01s CPU      0.01s WALL (     242 calls)

     Parallel routines

     PWSCF        :     27.85s CPU     29.35s WALL


   This run was terminated on:  22: 1:29  22Sep2026            

=------------------------------------------------------------------------------=
   JOB DONE.
=------------------------------------------------------------------------------=
