
     Program PWSCF v.7.5 starts on 22Sep2026 at 21:27:59 

     This program is part of the open-source Quantum ESPRESSO suite
     for quantum simulation of materials; please cite
         "P. Giannozzi et al., J. Phys.:Condens. Matter 21 395502 (2009);
         "P. Giannozzi et al., J. Phys.:Condens. Matter 29 465901 (2017);
         "P. Giannozzi et al., J. Chem. Phys. 152 154105 (2020);
          URL http://www.quantum-espresso.org", 
     in publications or presentations arising from this work. More details at
     http://www.quantum-espresso.org/quote

     Parallel version (MPI), running on     8 processors

     MPI processes distributed on     1 nodes
     12317 MiB available memory on the printing compute node when the environment starts
 
     Reading input from al.relax.in

     Current dimensions of program PWSCF are:
     Max number of different atomic species (ntypx) = 10
     Max number of k-points (npk) =  40000
     Max angular momentum in pseudopotentials (lmaxx) =  4
 
     R & G space division:  proc/nbgrp/npool/nimage =       8
     Subspace diagonalization in iterative solution of the eigenvalue problem:
     a serial algorithm will be used

 
     Parallelization info
     --------------------
     sticks:   dense  smooth     PW     G-vecs:    dense   smooth      PW
     Min          39      39     13                  455      455      90
     Max          40      40     14                  457      457      91
     Sum         313     313    109                 3647     3647     725
 
     Using Slab Decomposition
 


     bravais-lattice index     =            2
     lattice parameter (alat)  =       7.5000  a.u.
     unit-cell volume          =     105.4688 (a.u.)^3
     number of atoms/cell      =            1
     number of atomic types    =            1
     number of electrons       =         3.00
     number of Kohn-Sham states=            6
     kinetic-energy cutoff     =      40.0000  Ry
     charge density cutoff     =     160.0000  Ry
     scf convergence threshold =      1.0E-12
     mixing beta               =       0.7000
     number of iterations used =            8  plain     mixing
     energy convergence thresh.=      1.0E-08
     force convergence thresh. =      1.0E-05
     press convergence thresh. =      5.0E-02
     Exchange-correlation= SLA  PZ   NOGX NOGC
                           (   1   1   0   0   0   0   0)
     nstep                     =           50


     celldm(1)=   7.500000  celldm(2)=   0.000000  celldm(3)=   0.000000
     celldm(4)=   0.000000  celldm(5)=   0.000000  celldm(6)=   0.000000

     crystal axes: (cart. coord. in units of alat)
               a(1) = (  -0.500000   0.000000   0.500000 )  
               a(2) = (   0.000000   0.500000   0.500000 )  
               a(3) = (  -0.500000   0.500000   0.000000 )  

     reciprocal axes: (cart. coord. in units 2 pi/alat)
               b(1) = ( -1.000000 -1.000000  1.000000 )  
               b(2) = (  1.000000  1.000000  1.000000 )  
               b(3) = ( -1.000000  1.000000 -1.000000 )  


     PseudoPot. # 1 for Al read from file:
     ../pseudo/Al.pz-vbc.UPF
     MD5 check sum: f06ceae8da0fe5c02c98e3688433298c
     Pseudo is Norm-conserving, Zval =  3.0
     Generated by new atomic code, or converted to UPF format
     Using radial grid of  171 points,  2 beta functions with: 
                l(1) =   0
                l(2) =   1

     atomic species   valence    mass     pseudopotential
     Al                3.00    26.98154     Al( 1.00)

     48 Sym. Ops., with inversion, found



   Cartesian axes

     site n.     atom                  positions (alat units)
         1        Al     tau(   1) = (   0.0000000   0.0000000   0.0000000  )

     number of k points=   145  Marzari-Vanderbilt smearing, width (Ry)=  0.0200

     Number of k-points >= 100: set verbosity='high' to print them.

     Dense  grid:     3647 G-vectors     FFT dimensions: (  24,  24,  24)

     Estimated max dynamical RAM per process >       1.26 MB

     Estimated total dynamical RAM >      10.10 MB

     Initial potential from superposition of free atoms

     starting charge       2.9979, renormalised to       3.0000

     negative rho (up, down):  2.434E-05 0.000E+00
     Starting wfcs are    4 randomized atomic wfcs +    2 random wfcs

     total cpu time spent up to now is        0.1 secs

     Self-consistent Calculation

     iteration #  1     ecut=    40.00 Ry     beta= 0.70
     Davidson diagonalization with overlap
     ethr =  1.00E-02,  avg # of iterations =  5.7

     Threshold (ethr) on eigenvalues was too large:
     Diagonalizing with lowered threshold

     Davidson diagonalization with overlap
     ethr =  1.91E-04,  avg # of iterations =  2.1

     negative rho (up, down):  5.207E-06 0.000E+00

     total cpu time spent up to now is        0.6 secs

     total energy              =      -4.19082582 Ry
     estimated scf accuracy    <       0.00571428 Ry

     iteration #  2     ecut=    40.00 Ry     beta= 0.70
     Davidson diagonalization with overlap
     ethr =  1.90E-04,  avg # of iterations =  1.0

     total cpu time spent up to now is        0.7 secs

     total energy              =      -4.19086281 Ry
     estimated scf accuracy    <       0.00043909 Ry

     iteration #  3     ecut=    40.00 Ry     beta= 0.70
     Davidson diagonalization with overlap
     ethr =  1.46E-05,  avg # of iterations =  2.0

     total cpu time spent up to now is        0.9 secs

     total energy              =      -4.19086612 Ry
     estimated scf accuracy    <       0.00000031 Ry

     iteration #  4     ecut=    40.00 Ry     beta= 0.70
     Davidson diagonalization with overlap
     ethr =  1.04E-08,  avg # of iterations =  2.4

     total cpu time spent up to now is        1.1 secs

     total energy              =      -4.19086615 Ry
     estimated scf accuracy    <          5.6E-09 Ry

     iteration #  5     ecut=    40.00 Ry     beta= 0.70
     Davidson diagonalization with overlap
     ethr =  1.87E-10,  avg # of iterations =  1.4

     total cpu time spent up to now is        1.2 secs

     total energy              =      -4.19086615 Ry
     estimated scf accuracy    <          8.0E-12 Ry

     iteration #  6     ecut=    40.00 Ry     beta= 0.70
     Davidson diagonalization with overlap
     ethr =  2.66E-13,  avg # of iterations =  2.3

     total cpu time spent up to now is        1.4 secs

     total energy              =      -4.19086615 Ry
     estimated scf accuracy    <          1.6E-12 Ry

     iteration #  7     ecut=    40.00 Ry     beta= 0.70
     Davidson diagonalization with overlap
     ethr =  1.00E-13,  avg # of iterations =  1.0

     total cpu time spent up to now is        1.5 secs

     End of self-consistent calculation

     Number of k-points >= 100: set verbosity='high' to print the bands.

     the Fermi energy is     8.3108 ev

!    total energy              =      -4.19086615 Ry
     estimated scf accuracy    <          1.3E-15 Ry
     smearing contrib. (-TS)   =       0.00000064 Ry
     internal energy E=F+TS    =      -4.19086679 Ry

     The total energy is F=E-TS. E is the sum of the following terms:
     one-electron contribution =       2.93599856 Ry
     hartree contribution      =       0.00976642 Ry
     xc contribution           =      -1.63479724 Ry
     ewald contribution        =      -5.50183454 Ry

     convergence has been achieved in   7 iterations

     Forces acting on atoms (cartesian axes, Ry/au):

     atom    1 type  1   force =     0.00000000    0.00000000    0.00000000

     Total force =     0.000000     Total SCF correction =     0.000000


     Computing stress (Cartesian axis) and pressure

          total   stress  (Ry/bohr**3)                   (kbar)     P=       -7.91
  -0.00005375  -0.00000000   0.00000000           -7.91       -0.00        0.00
   0.00000000  -0.00005375   0.00000000            0.00       -7.91        0.00
   0.00000000  -0.00000000  -0.00005375            0.00       -0.00       -7.91


     BFGS Geometry Optimization
     Energy error            =      2.3E-05 Ry
     Gradient error          =      0.0E+00 Ry/Bohr
     Cell gradient error     =      7.9E+00 kbar

     number of scf cycles    =   1
     number of bfgs steps    =   0

     enthalpy           new  =      -4.1908661517 Ry

     new trust radius        =       0.0027602388 bohr
ibrav =      2
 celldm(1) =      7.48992103
Input lattice vectors:
    -0.49932807     0.00000000     0.49932807
    -0.00000000     0.49932807     0.49932807
    -0.49932807     0.49932807     0.00000000
New lattice vectors in INITIAL alat:
    -0.49932807     0.00000000     0.49932807
     0.00000000     0.49932807     0.49932807
    -0.49932807     0.49932807     0.00000000
New lattice vectors in NEW alat (for information only):
    -0.50000000     0.00000000     0.50000000
     0.00000000     0.50000000     0.50000000
    -0.50000000     0.50000000     0.00000000
Discrepancy in bohr =     0.000000    0.000000    0.000000
     new conv_thr            =            1.0E-12 Ry

     new unit-cell volume =    105.04411 a.u.^3 (    15.56593 Ang^3 )
     density =      2.87833 g/cm^3

CELL_PARAMETERS (alat=  7.50000000)
  -0.499328069   0.000000000   0.499328069
   0.000000000   0.499328069   0.499328069
  -0.499328069   0.499328069   0.000000000

ATOMIC_POSITIONS (crystal)
Al               0.0000000000        0.0000000000        0.0000000000



     Writing config-only to output data dir ./tmp/al.save/ :
     XML data file
     NEW-OLD atomic charge density approx. for the potential
     New effective cutoffs (rho, wfc):  159.75   40.10

     total cpu time spent up to now is        1.6 secs

     Self-consistent Calculation

     iteration #  1     ecut=    40.00 Ry     beta= 0.70
     Davidson diagonalization with overlap
     ethr =  1.00E-06,  avg # of iterations =  2.0

     Threshold (ethr) on eigenvalues was too large:
     Diagonalizing with lowered threshold

     Davidson diagonalization with overlap
     ethr =  1.85E-09,  avg # of iterations =  1.9

     total cpu time spent up to now is        1.9 secs

     total energy              =      -4.19088405 Ry
     estimated scf accuracy    <       0.00000005 Ry

     iteration #  2     ecut=    40.00 Ry     beta= 0.70
     Davidson diagonalization with overlap
     ethr =  1.83E-09,  avg # of iterations =  1.0

     total cpu time spent up to now is        2.0 secs

     total energy              =      -4.19088426 Ry
     estimated scf accuracy    <          4.9E-09 Ry

     iteration #  3     ecut=    40.00 Ry     beta= 0.70
     Davidson diagonalization with overlap
     ethr =  1.64E-10,  avg # of iterations =  1.0

     total cpu time spent up to now is        2.1 secs

     End of self-consistent calculation

     Number of k-points >= 100: set verbosity='high' to print the bands.

     the Fermi energy is     8.3531 ev

!    total energy              =      -4.19088426 Ry
     estimated scf accuracy    <          6.1E-13 Ry
     smearing contrib. (-TS)   =      -0.00000029 Ry
     internal energy E=F+TS    =      -4.19088397 Ry

     The total energy is F=E-TS. E is the sum of the following terms:
     one-electron contribution =       2.94533951 Ry
     hartree contribution      =       0.00984201 Ry
     xc contribution           =      -1.63682730 Ry
     ewald contribution        =      -5.50923819 Ry

     convergence has been achieved in   3 iterations

     Forces acting on atoms (cartesian axes, Ry/au):

     atom    1 type  1   force =     0.00000000    0.00000000    0.00000000

     Total force =     0.000000     Total SCF correction =     0.000000


     Computing stress (Cartesian axis) and pressure

          total   stress  (Ry/bohr**3)                   (kbar)     P=       -4.63
  -0.00003147  -0.00000000   0.00000000           -4.63       -0.00        0.00
  -0.00000000  -0.00003147  -0.00000000           -0.00       -4.63       -0.00
   0.00000000   0.00000000  -0.00003147            0.00        0.00       -4.63

     Energy error            =      1.8E-05 Ry
     Gradient error          =      0.0E+00 Ry/Bohr
     Cell gradient error     =      4.6E+00 kbar

     number of scf cycles    =   2
     number of bfgs steps    =   1

     enthalpy           old  =      -4.1908661517 Ry
     enthalpy           new  =      -4.1908842621 Ry

     CASE: enthalpy          _new < enthalpy          _old

     new trust radius        =       0.0038690754 bohr
ibrav =      2
 celldm(1) =      7.47578366
Input lattice vectors:
    -0.49838558    -0.00000000     0.49838558
    -0.00000000     0.49838558     0.49838558
    -0.49838558     0.49838558    -0.00000000
New lattice vectors in INITIAL alat:
    -0.49838558     0.00000000     0.49838558
     0.00000000     0.49838558     0.49838558
    -0.49838558     0.49838558     0.00000000
New lattice vectors in NEW alat (for information only):
    -0.50000000     0.00000000     0.50000000
     0.00000000     0.50000000     0.50000000
    -0.50000000     0.50000000     0.00000000
Discrepancy in bohr =     0.000000    0.000000    0.000000
     new conv_thr            =            1.0E-14 Ry

     new unit-cell volume =    104.45042 a.u.^3 (    15.47796 Ang^3 )
     density =      2.89469 g/cm^3

CELL_PARAMETERS (alat=  7.50000000)
  -0.498385578   0.000000000   0.498385578
   0.000000000   0.498385578   0.498385578
  -0.498385578   0.498385578   0.000000000

ATOMIC_POSITIONS (crystal)
Al               0.0000000000        0.0000000000        0.0000000000



     Writing config-only to output data dir ./tmp/al.save/ :
     XML data file
     NEW-OLD atomic charge density approx. for the potential
     New effective cutoffs (rho, wfc):  160.35   40.25

     total cpu time spent up to now is        2.2 secs

     Self-consistent Calculation

     iteration #  1     ecut=    40.00 Ry     beta= 0.70
     Davidson diagonalization with overlap
     ethr =  1.00E-06,  avg # of iterations =  2.0

     Threshold (ethr) on eigenvalues was too large:
     Diagonalizing with lowered threshold

     Davidson diagonalization with overlap
     ethr =  3.69E-09,  avg # of iterations =  1.9

     total cpu time spent up to now is        2.5 secs

     total energy              =      -4.19089306 Ry
     estimated scf accuracy    <       0.00000011 Ry

     iteration #  2     ecut=    40.00 Ry     beta= 0.70
     Davidson diagonalization with overlap
     ethr =  3.64E-09,  avg # of iterations =  1.0

     total cpu time spent up to now is        2.7 secs

     total energy              =      -4.19089349 Ry
     estimated scf accuracy    <          9.8E-09 Ry

     iteration #  3     ecut=    40.00 Ry     beta= 0.70
     Davidson diagonalization with overlap
     ethr =  3.26E-10,  avg # of iterations =  1.0

     total cpu time spent up to now is        2.8 secs

     total energy              =      -4.19089349 Ry
     estimated scf accuracy    <          1.2E-12 Ry

     iteration #  4     ecut=    40.00 Ry     beta= 0.70
     Davidson diagonalization with overlap
     ethr =  1.00E-13,  avg # of iterations =  2.0

     total cpu time spent up to now is        3.0 secs

     total energy              =      -4.19089349 Ry
     estimated scf accuracy    <          2.9E-14 Ry

     iteration #  5     ecut=    40.00 Ry     beta= 0.70
     Davidson diagonalization with overlap
     ethr =  1.00E-13,  avg # of iterations =  1.0

     total cpu time spent up to now is        3.1 secs

     End of self-consistent calculation

     Number of k-points >= 100: set verbosity='high' to print the bands.

     the Fermi energy is     8.4126 ev

!    total energy              =      -4.19089349 Ry
     estimated scf accuracy    <          2.7E-16 Ry
     smearing contrib. (-TS)   =      -0.00000169 Ry
     internal energy E=F+TS    =      -4.19089180 Ry

     The total energy is F=E-TS. E is the sum of the following terms:
     one-electron contribution =       2.95849951 Ry
     hartree contribution      =       0.00995137 Ry
     xc contribution           =      -1.63968603 Ry
     ewald contribution        =      -5.51965665 Ry

     convergence has been achieved in   5 iterations

     Forces acting on atoms (cartesian axes, Ry/au):

     atom    1 type  1   force =     0.00000000    0.00000000    0.00000000

     Total force =     0.000000     Total SCF correction =     0.000000


     Computing stress (Cartesian axis) and pressure

          total   stress  (Ry/bohr**3)                   (kbar)     P=        0.08
   0.00000054   0.00000000   0.00000000            0.08        0.00        0.00
   0.00000000   0.00000054   0.00000000            0.00        0.08        0.00
   0.00000000   0.00000000   0.00000054            0.00        0.00        0.08

     Energy error            =      9.2E-06 Ry
     Gradient error          =      0.0E+00 Ry/Bohr
     Cell gradient error     =      8.0E-02 kbar

     number of scf cycles    =   3
     number of bfgs steps    =   2

     enthalpy           old  =      -4.1908842621 Ry
     enthalpy           new  =      -4.1908934897 Ry

     CASE: enthalpy          _new < enthalpy          _old

     small trust_radius: resetting bfgs history

     new trust radius        =       0.0000276290 bohr
ibrav =      2
 celldm(1) =      7.47588471
Input lattice vectors:
    -0.49839231     0.00000000     0.49839231
     0.00000000     0.49839231     0.49839231
    -0.49839231     0.49839231     0.00000000
New lattice vectors in INITIAL alat:
    -0.49839231     0.00000000     0.49839231
     0.00000000     0.49839231     0.49839231
    -0.49839231     0.49839231     0.00000000
New lattice vectors in NEW alat (for information only):
    -0.50000000     0.00000000     0.50000000
     0.00000000     0.50000000     0.50000000
    -0.50000000     0.50000000     0.00000000
Discrepancy in bohr =     0.000000    0.000000    0.000000
     new conv_thr            =            1.0E-14 Ry

     new unit-cell volume =    104.45465 a.u.^3 (    15.47858 Ang^3 )
     density =      2.89457 g/cm^3

CELL_PARAMETERS (alat=  7.50000000)
  -0.498392314   0.000000000   0.498392314
   0.000000000   0.498392314   0.498392314
  -0.498392314   0.498392314   0.000000000

ATOMIC_POSITIONS (crystal)
Al               0.0000000000        0.0000000000        0.0000000000



     Writing config-only to output data dir ./tmp/al.save/ :
     XML data file
     NEW-OLD atomic charge density approx. for the potential
     New effective cutoffs (rho, wfc):  160.35   40.25

     total cpu time spent up to now is        3.1 secs

     Self-consistent Calculation

     iteration #  1     ecut=    40.00 Ry     beta= 0.70
     Davidson diagonalization with overlap
     ethr =  1.00E-06,  avg # of iterations =  1.0

     Threshold (ethr) on eigenvalues was too large:
     Diagonalizing with lowered threshold

     Davidson diagonalization with overlap
     ethr =  1.96E-13,  avg # of iterations =  2.8

     total cpu time spent up to now is        3.5 secs

     total energy              =      -4.19089349 Ry
     estimated scf accuracy    <          5.6E-12 Ry

     iteration #  2     ecut=    40.00 Ry     beta= 0.70
     Davidson diagonalization with overlap
     ethr =  1.87E-13,  avg # of iterations =  1.0

     total cpu time spent up to now is        3.6 secs

     total energy              =      -4.19089349 Ry
     estimated scf accuracy    <          5.0E-13 Ry

     iteration #  3     ecut=    40.00 Ry     beta= 0.70
     Davidson diagonalization with overlap
     ethr =  1.00E-13,  avg # of iterations =  1.0

     total cpu time spent up to now is        3.7 secs

     End of self-consistent calculation

     Number of k-points >= 100: set verbosity='high' to print the bands.

     the Fermi energy is     8.4122 ev

!    total energy              =      -4.19089349 Ry
     estimated scf accuracy    <          5.8E-17 Ry
     smearing contrib. (-TS)   =      -0.00000168 Ry
     internal energy E=F+TS    =      -4.19089181 Ry

     The total energy is F=E-TS. E is the sum of the following terms:
     one-electron contribution =       2.95840520 Ry
     hartree contribution      =       0.00995057 Ry
     xc contribution           =      -1.63966555 Ry
     ewald contribution        =      -5.51958204 Ry

     convergence has been achieved in   3 iterations

     Forces acting on atoms (cartesian axes, Ry/au):

     atom    1 type  1   force =     0.00000000    0.00000000    0.00000000

     Total force =     0.000000     Total SCF correction =     0.000000


     Computing stress (Cartesian axis) and pressure

          total   stress  (Ry/bohr**3)                   (kbar)     P=        0.05
   0.00000031  -0.00000000   0.00000000            0.05       -0.00        0.00
  -0.00000000   0.00000031   0.00000000           -0.00        0.05        0.00
   0.00000000   0.00000000   0.00000031            0.00        0.00        0.05

     Energy error            =      1.8E-09 Ry
     Gradient error          =      0.0E+00 Ry/Bohr
     Cell gradient error     =      4.5E-02 kbar
ibrav =      2
 celldm(1) =      7.47588471
Input lattice vectors:
    -0.49839231     0.00000000     0.49839231
     0.00000000     0.49839231     0.49839231
    -0.49839231     0.49839231     0.00000000
New lattice vectors in INITIAL alat:
    -0.49839231     0.00000000     0.49839231
     0.00000000     0.49839231     0.49839231
    -0.49839231     0.49839231     0.00000000
New lattice vectors in NEW alat (for information only):
    -0.50000000     0.00000000     0.50000000
     0.00000000     0.50000000     0.50000000
    -0.50000000     0.50000000     0.00000000
Discrepancy in bohr =     0.000000    0.000000    0.000000

     bfgs converged in   4 scf cycles and   3 bfgs steps
     (criteria: energy <  1.0E-08 Ry, force <  1.0E-05 Ry/Bohr, cell <  5.0E-02 kbar)

     End of BFGS Geometry Optimization

     Final enthalpy           =      -4.1908934915 Ry

     File ./tmp/al.bfgs deleted, as requested
Begin final coordinates
     new unit-cell volume =    104.45465 a.u.^3 (    15.47858 Ang^3 )
     density =      2.89457 g/cm^3

CELL_PARAMETERS (alat=  7.50000000)
  -0.498392314   0.000000000   0.498392314
   0.000000000   0.498392314   0.498392314
  -0.498392314   0.498392314   0.000000000

ATOMIC_POSITIONS (crystal)
Al               0.0000000000        0.0000000000        0.0000000000
End final coordinates



     Writing config-only to output data dir ./tmp/al.save/ :
     XML data file

     Final scf calculation at the relaxed structure.
     The G-vectors are recalculated for the final unit cell
     Results may differ from those at the preceding step.
 
     Parallelization info
     --------------------
     sticks:   dense  smooth     PW     G-vecs:    dense   smooth      PW
     Min          38      38     13                  440      440      90
     Max          40      40     14                  441      441      91
     Sum         313     313    109                 3527     3527     725
 
     Using Slab Decomposition
 


     bravais-lattice index     =            2
     lattice parameter (alat)  =       7.5000  a.u.
     unit-cell volume          =     104.4547 (a.u.)^3
     number of atoms/cell      =            1
     number of atomic types    =            1
     number of electrons       =         3.00
     number of Kohn-Sham states=            6
     kinetic-energy cutoff     =      40.0000  Ry
     charge density cutoff     =     160.0000  Ry
     scf convergence threshold =      1.0E-14
     mixing beta               =       0.7000
     number of iterations used =            8  plain     mixing
     press convergence thresh. =      5.0E-02
     Exchange-correlation= SLA  PZ   NOGX NOGC
                           (   1   1   0   0   0   0   0)

     celldm(1)=   7.500000  celldm(2)=   0.000000  celldm(3)=   0.000000
     celldm(4)=   0.000000  celldm(5)=   0.000000  celldm(6)=   0.000000

     crystal axes: (cart. coord. in units of alat)
               a(1) = (  -0.498392   0.000000   0.498392 )  
               a(2) = (   0.000000   0.498392   0.498392 )  
               a(3) = (  -0.498392   0.498392   0.000000 )  

     reciprocal axes: (cart. coord. in units 2 pi/alat)
               b(1) = ( -1.003226 -1.003226  1.003226 )  
               b(2) = (  1.003226  1.003226  1.003226 )  
               b(3) = ( -1.003226  1.003226 -1.003226 )  


     PseudoPot. # 1 for Al read from file:
     ../pseudo/Al.pz-vbc.UPF
     MD5 check sum: f06ceae8da0fe5c02c98e3688433298c
     Pseudo is Norm-conserving, Zval =  3.0
     Generated by new atomic code, or converted to UPF format
     Using radial grid of  171 points,  2 beta functions with: 
                l(1) =   0
                l(2) =   1

     atomic species   valence    mass     pseudopotential
     Al                3.00    26.98154     Al( 1.00)

     48 Sym. Ops., with inversion, found



   Cartesian axes

     site n.     atom                  positions (alat units)
         1        Al     tau(   1) = (   0.0000000   0.0000000   0.0000000  )

     number of k points=   145  Marzari-Vanderbilt smearing, width (Ry)=  0.0200

     Number of k-points >= 100: set verbosity='high' to print them.

     Dense  grid:     3527 G-vectors     FFT dimensions: (  24,  24,  24)

     Estimated max dynamical RAM per process >       1.25 MB

     Estimated total dynamical RAM >       9.96 MB

     Initial potential from superposition of free atoms

     starting charge       2.9979, renormalised to       3.0000

     negative rho (up, down):  2.984E-05 0.000E+00
     Starting wfcs are    4 randomized atomic wfcs +    2 random wfcs

     total cpu time spent up to now is        3.8 secs

     Self-consistent Calculation

     iteration #  1     ecut=    40.00 Ry     beta= 0.70
     Davidson diagonalization with overlap
     c_bands:  2 eigenvalues not converged
     c_bands:  1 eigenvalues not converged
     c_bands:  1 eigenvalues not converged
     c_bands:  1 eigenvalues not converged
     c_bands:  1 eigenvalues not converged
     c_bands:  1 eigenvalues not converged
     c_bands:  1 eigenvalues not converged
     c_bands:  1 eigenvalues not converged
     c_bands:  1 eigenvalues not converged
     c_bands:  1 eigenvalues not converged
     c_bands:  1 eigenvalues not converged
     c_bands:  1 eigenvalues not converged
     c_bands:  1 eigenvalues not converged
     ethr =  1.00E-06,  avg # of iterations = 13.6

     negative rho (up, down):  6.893E-06 0.000E+00

     total cpu time spent up to now is        4.5 secs

     total energy              =      -4.19085312 Ry
     estimated scf accuracy    <       0.00571547 Ry

     iteration #  2     ecut=    40.00 Ry     beta= 0.70
     Davidson diagonalization with overlap
     ethr =  1.91E-04,  avg # of iterations =  1.0

     total cpu time spent up to now is        4.6 secs

     total energy              =      -4.19088636 Ry
     estimated scf accuracy    <       0.00044412 Ry

     iteration #  3     ecut=    40.00 Ry     beta= 0.70
     Davidson diagonalization with overlap
     ethr =  1.48E-05,  avg # of iterations =  1.0

     total cpu time spent up to now is        4.7 secs

     total energy              =      -4.19088958 Ry
     estimated scf accuracy    <       0.00000030 Ry

     iteration #  4     ecut=    40.00 Ry     beta= 0.70
     Davidson diagonalization with overlap
     ethr =  1.00E-08,  avg # of iterations =  1.5

     total cpu time spent up to now is        4.9 secs

     total energy              =      -4.19088961 Ry
     estimated scf accuracy    <          4.8E-09 Ry

     iteration #  5     ecut=    40.00 Ry     beta= 0.70
     Davidson diagonalization with overlap
     ethr =  1.59E-10,  avg # of iterations =  1.4

     total cpu time spent up to now is        5.0 secs

     total energy              =      -4.19088961 Ry
     estimated scf accuracy    <          1.4E-11 Ry

     iteration #  6     ecut=    40.00 Ry     beta= 0.70
     Davidson diagonalization with overlap
     ethr =  4.52E-13,  avg # of iterations =  2.1

     total cpu time spent up to now is        5.2 secs

     total energy              =      -4.19088961 Ry
     estimated scf accuracy    <          1.9E-12 Ry

     iteration #  7     ecut=    40.00 Ry     beta= 0.70
     Davidson diagonalization with overlap
     ethr =  1.00E-13,  avg # of iterations =  1.0

     total cpu time spent up to now is        5.3 secs

     End of self-consistent calculation

     Number of k-points >= 100: set verbosity='high' to print the bands.

     the Fermi energy is     8.4122 ev

!    total energy              =      -4.19088961 Ry
     estimated scf accuracy    <          4.2E-15 Ry
     smearing contrib. (-TS)   =      -0.00000169 Ry
     internal energy E=F+TS    =      -4.19088792 Ry

     The total energy is F=E-TS. E is the sum of the following terms:
     one-electron contribution =       2.95840892 Ry
     hartree contribution      =       0.00995072 Ry
     xc contribution           =      -1.63966550 Ry
     ewald contribution        =      -5.51958206 Ry

     convergence has been achieved in   7 iterations

     Forces acting on atoms (cartesian axes, Ry/au):

     atom    1 type  1   force =     0.00000000    0.00000000    0.00000000

     Total force =     0.000000     Total SCF correction =     0.000000


     Computing stress (Cartesian axis) and pressure

          total   stress  (Ry/bohr**3)                   (kbar)     P=        0.02
   0.00000014   0.00000000  -0.00000000            0.02        0.00       -0.00
   0.00000000   0.00000014  -0.00000000            0.00        0.02       -0.00
  -0.00000000  -0.00000000   0.00000014           -0.00       -0.00        0.02


     Writing all to output data dir ./tmp/al.save/ :
     XML data file, charge density, pseudopotentials, collected wavefunctions
 
     init_run     :      0.10s CPU      0.14s WALL (       2 calls)
     electrons    :      4.34s CPU      5.00s WALL (       5 calls)
     update_pot   :      0.00s CPU      0.00s WALL (       3 calls)
     forces       :      0.02s CPU      0.03s WALL (       5 calls)
     stress       :      0.10s CPU      0.11s WALL (       5 calls)

     Called by init_run:
     wfcinit      :      0.09s CPU      0.13s WALL (       2 calls)
     potinit      :      0.00s CPU      0.00s WALL (       2 calls)
     hinit0       :      0.00s CPU      0.00s WALL (       2 calls)

     Called by electrons:
     c_bands      :      3.69s CPU      4.24s WALL (      29 calls)
     sum_band     :      0.63s CPU      0.74s WALL (      29 calls)
     v_of_rho     :      0.00s CPU      0.00s WALL (      30 calls)
     mix_rho      :      0.00s CPU      0.00s WALL (      29 calls)

     Called by c_bands:
     init_us_2    :      0.06s CPU      0.07s WALL (   10150 calls)
     cegterg      :      3.59s CPU      4.12s WALL (    4205 calls)

     Called by *egterg:
     cdiaghg      :      0.35s CPU      0.42s WALL (   11895 calls)
     h_psi        :      2.88s CPU      3.30s WALL (   13200 calls)
     g_psi        :      0.02s CPU      0.02s WALL (    8705 calls)

     Called by h_psi:
     h_psi:calbec :      0.11s CPU      0.12s WALL (   13200 calls)
     vloc_psi     :      2.64s CPU      3.03s WALL (   13200 calls)
                                        0.00s GPU  (   13200 calls)
     add_vuspsi   :      0.04s CPU      0.05s WALL (   13200 calls)

     General routines
     calbec       :      0.13s CPU      0.15s WALL (   25525 calls)
     fft          :      0.00s CPU      0.01s WALL (     117 calls)
     ffts         :      0.00s CPU      0.00s WALL (      29 calls)
     fftw         :      2.79s CPU      3.20s WALL (  153122 calls)
 
     Parallel routines
 
     PWSCF        :      4.61s CPU      5.41s WALL

 
   This run was terminated on:  21:28: 5  22Sep2026            

=------------------------------------------------------------------------------=
   JOB DONE.
=------------------------------------------------------------------------------=
