8
Lattice="5.6 0.0 0.0 0.0 5.6 0.0 0.0 0.0 5.6" Properties=species:S:1:pos:R:3 pbc="T T T"
Si       0.05000000      -0.03000000       0.02000000
Si       1.40000000       1.40000000       1.40000000
Si       0.00000000       2.80000000       2.80000000
Si       1.40000000       4.20000000       4.20000000
Si       2.80000000       0.00000000       2.80000000
Si       4.20000000       1.40000000       4.20000000
Si       2.80000000       2.80000000       0.00000000
Si       4.20000000       4.20000000       1.40000000
