8
Lattice="5.464480698189558 0.0001490407677037561 -0.00017822644805621642 0.0001491420490939198 5.4647188909830335 0.00026132924316981044 -0.00017844338210029016 0.00026141884912971134 5.464793384467386" Properties=species:S:1:pos:R:3:forces:R:3:energies:R:1 energy=-42.967165172147226 stress="-7.795706733771092e-06 1.1799012875139589e-05 -1.2207863628214975e-05 1.1799012875139589e-05 2.4939587082779995e-06 1.5484093725681533e-05 -1.2207863628214975e-05 1.5484093725681533e-05 5.71265227698127e-06" free_energy=-42.967165172147226 pbc="T T T"
Si       0.00610645      -0.00366203       0.00243984       0.00004144      -0.00006954       0.00009201      -5.37090779
Si       1.37215843       1.36261438       1.36863199       0.00018294       0.00017531      -0.00004880      -5.37089295
Si       0.00616523       2.72880073       2.73499011      -0.00019667       0.00002345       0.00002645      -5.37089109
Si       1.37214463       4.09514864       4.10120386       0.00012594       0.00000371      -0.00022415      -5.37089618
Si       2.73829783      -0.00349572       2.73477035      -0.00011198      -0.00003776       0.00002688      -5.37089175
Si       4.10429670       1.36287648       4.10092787       0.00015396      -0.00001480      -0.00008951      -5.37090319
Si       2.73846163       2.72874452       0.00250078      -0.00011152       0.00002241       0.00021625      -5.37089195
Si       4.10451187       4.09508804       1.36867879      -0.00008410      -0.00010277       0.00000086      -5.37089027
