
     Program PWSCF v.7.5 starts on 23Sep2026 at  0:29:36 

     This program is part of the open-source Quantum ESPRESSO suite
     for quantum simulation of materials; please cite
         "P. Giannozzi et al., J. Phys.:Condens. Matter 21 395502 (2009);
         "P. Giannozzi et al., J. Phys.:Condens. Matter 29 465901 (2017);
         "P. Giannozzi et al., J. Chem. Phys. 152 154105 (2020);
          URL http://www.quantum-espresso.org", 
     in publications or presentations arising from this work. More details at
     http://www.quantum-espresso.org/quote

     Parallel version (MPI), running on     8 processors

     MPI processes distributed on     1 nodes
     2703 MiB available memory on the printing compute node when the environment starts
 
     Reading input from mos2.bands.in

     Current dimensions of program PWSCF are:
     Max number of different atomic species (ntypx) = 10
     Max number of k-points (npk) =  40000
     Max angular momentum in pseudopotentials (lmaxx) =  4
     file Mo.pbe-spn-rrkjus_psl.1.0.0.UPF: wavefunction(s)  4S renormalized

     Atomic positions and unit cell read from directory:
     ./tmp/mos2.save/
 
 
     R & G space division:  proc/nbgrp/npool/nimage =       8
     Subspace diagonalization in iterative solution of the eigenvalue problem:
     a serial algorithm will be used

 
     Parallelization info
     --------------------
     sticks:   dense  smooth     PW     G-vecs:    dense   smooth      PW
     Min         148      74     21                30300    10722    1727
     Max         149      76     24                30307    10730    1737
     Sum        1189     595    179               242429    85799   13841
 
     Using Slab Decomposition
 


     bravais-lattice index     =            0
     lattice parameter (alat)  =       5.9844  a.u.
     unit-cell volume          =    1365.9981 (a.u.)^3
     number of atoms/cell      =            3
     number of atomic types    =            2
     number of electrons       =        26.00
     number of Kohn-Sham states=           16
     kinetic-energy cutoff     =      60.0000  Ry
     charge density cutoff     =     480.0000  Ry
     Exchange-correlation= PBE
                           (   1   4   3   4   0   0   0)

     celldm(1)=   5.984412  celldm(2)=   0.000000  celldm(3)=   0.000000
     celldm(4)=   0.000000  celldm(5)=   0.000000  celldm(6)=   0.000000

     crystal axes: (cart. coord. in units of alat)
               a(1) = (   1.000000   0.000000   0.000000 )  
               a(2) = (  -0.500000   0.870377   0.000000 )  
               a(3) = (   0.000000   0.000000   7.322816 )  

     reciprocal axes: (cart. coord. in units 2 pi/alat)
               b(1) = (  1.000000  0.574464  0.000000 )  
               b(2) = (  0.000000  1.148927  0.000000 )  
               b(3) = (  0.000000  0.000000  0.136559 )  


     PseudoPot. # 1 for Mo read from file:
     ../../pseudo/Mo.pbe-spn-rrkjus_psl.1.0.0.UPF
     MD5 check sum: 03f09b12e49601d1a456a78ce8b2d514
     Pseudo is Ultrasoft + core correction, Zval = 14.0
     Generated using &quot;atomic&quot; code by A. Dal Corso  v.6.3
     Using radial grid of 1229 points,  6 beta functions with: 
                l(1) =   0
                l(2) =   0
                l(3) =   1
                l(4) =   1
                l(5) =   2
                l(6) =   2
     Q(r) pseudized with 0 coefficients 


     PseudoPot. # 2 for S  read from file:
     ../../pseudo/S.pbe-n-rrkjus_psl.1.0.0.UPF
     MD5 check sum: 9d0fe39aa2a799ea84730884c9b010f4
     Pseudo is Ultrasoft + core correction, Zval =  6.0
     Generated using &quot;atomic&quot; code by A. Dal Corso  v.6.3
     Using radial grid of 1151 points,  6 beta functions with: 
                l(1) =   0
                l(2) =   0
                l(3) =   1
                l(4) =   1
                l(5) =   2
                l(6) =   2
     Q(r) pseudized with 0 coefficients 


     atomic species   valence    mass     pseudopotential
     Mo               14.00    95.95000     Mo( 1.00)
     S                 6.00    32.06000     S ( 1.00)

     No symmetry found


                                    s                        frac. trans.

      isym =  1     identity                                     

 cryst.   s( 1) = (     1          0          0      )
                  (     0          1          0      )
                  (     0          0          1      )

 cart.    s( 1) = (  1.0000000  0.0000000  0.0000000 )
                  (  0.0000000  1.0000000  0.0000000 )
                  (  0.0000000  0.0000000  1.0000000 )


   Cartesian axes

     site n.     atom                  positions (alat units)
         1        Mo     tau(   1) = (  -0.0000000  -0.0003263   3.6614082  )
         2        S      tau(   2) = (   0.5000000   0.2902889   4.1564040  )
         3        S      tau(   3) = (   0.5000000   0.2902889   3.1664124  )

   Crystallographic axes

     site n.     atom                  positions (cryst. coord.)
         1        Mo     tau(   1) = ( -0.0001874 -0.0003749  0.5000000  )
         2        S      tau(   2) = (  0.6667604  0.3335208  0.5675964  )
         3        S      tau(   3) = (  0.6667604  0.3335208  0.4324036  )

     number of k points=    97
                       cart. coord. in units 2pi/alat
        k(    1) = (   0.3182129   0.5593431   0.0000000), wk =   0.0206186
        k(    2) = (   0.3182129   0.5643832   0.0000000), wk =   0.0206186
        k(    3) = (   0.3182129   0.5694234   0.0000000), wk =   0.0206186
        k(    4) = (   0.3182129   0.5744635   0.0000000), wk =   0.0206186
        k(    5) = (   0.3182129   0.5795037   0.0000000), wk =   0.0206186
        k(    6) = (   0.3182129   0.5845438   0.0000000), wk =   0.0206186
        k(    7) = (   0.3182129   0.5895839   0.0000000), wk =   0.0206186
        k(    8) = (   0.3232531   0.5593431   0.0000000), wk =   0.0206186
        k(    9) = (   0.3232531   0.5643832   0.0000000), wk =   0.0206186
        k(   10) = (   0.3232531   0.5694234   0.0000000), wk =   0.0206186
        k(   11) = (   0.3232531   0.5744635   0.0000000), wk =   0.0206186
        k(   12) = (   0.3232531   0.5795037   0.0000000), wk =   0.0206186
        k(   13) = (   0.3232531   0.5845438   0.0000000), wk =   0.0206186
        k(   14) = (   0.3232531   0.5895839   0.0000000), wk =   0.0206186
        k(   15) = (   0.3282932   0.5593431   0.0000000), wk =   0.0206186
        k(   16) = (   0.3282932   0.5643832   0.0000000), wk =   0.0206186
        k(   17) = (   0.3282932   0.5694234   0.0000000), wk =   0.0206186
        k(   18) = (   0.3282932   0.5744635   0.0000000), wk =   0.0206186
        k(   19) = (   0.3282932   0.5795037   0.0000000), wk =   0.0206186
        k(   20) = (   0.3282932   0.5845438   0.0000000), wk =   0.0206186
        k(   21) = (   0.3282932   0.5895839   0.0000000), wk =   0.0206186
        k(   22) = (   0.3333333   0.5593431   0.0000000), wk =   0.0206186
        k(   23) = (   0.3333333   0.5643832   0.0000000), wk =   0.0206186
        k(   24) = (   0.3333333   0.5694234   0.0000000), wk =   0.0206186
        k(   25) = (   0.3333333   0.5744635   0.0000000), wk =   0.0206186
        k(   26) = (   0.3333333   0.5795037   0.0000000), wk =   0.0206186
        k(   27) = (   0.3333333   0.5845438   0.0000000), wk =   0.0206186
        k(   28) = (   0.3333333   0.5895839   0.0000000), wk =   0.0206186
        k(   29) = (   0.3383735   0.5593431   0.0000000), wk =   0.0206186
        k(   30) = (   0.3383735   0.5643832   0.0000000), wk =   0.0206186
        k(   31) = (   0.3383735   0.5694234   0.0000000), wk =   0.0206186
        k(   32) = (   0.3383735   0.5744635   0.0000000), wk =   0.0206186
        k(   33) = (   0.3383735   0.5795037   0.0000000), wk =   0.0206186
        k(   34) = (   0.3383735   0.5845438   0.0000000), wk =   0.0206186
        k(   35) = (   0.3383735   0.5895839   0.0000000), wk =   0.0206186
        k(   36) = (   0.3434136   0.5593431   0.0000000), wk =   0.0206186
        k(   37) = (   0.3434136   0.5643832   0.0000000), wk =   0.0206186
        k(   38) = (   0.3434136   0.5694234   0.0000000), wk =   0.0206186
        k(   39) = (   0.3434136   0.5744635   0.0000000), wk =   0.0206186
        k(   40) = (   0.3434136   0.5795037   0.0000000), wk =   0.0206186
        k(   41) = (   0.3434136   0.5845438   0.0000000), wk =   0.0206186
        k(   42) = (   0.3434136   0.5895839   0.0000000), wk =   0.0206186
        k(   43) = (   0.3484538   0.5593431   0.0000000), wk =   0.0206186
        k(   44) = (   0.3484538   0.5643832   0.0000000), wk =   0.0206186
        k(   45) = (   0.3484538   0.5694234   0.0000000), wk =   0.0206186
        k(   46) = (   0.3484538   0.5744635   0.0000000), wk =   0.0206186
        k(   47) = (   0.3484538   0.5795037   0.0000000), wk =   0.0206186
        k(   48) = (   0.3484538   0.5845438   0.0000000), wk =   0.0206186
        k(   49) = (   0.3484538   0.5895839   0.0000000), wk =   0.0206186
        k(   50) = (   0.0000000   0.0000000   0.0000000), wk =   0.0206186
        k(   51) = (   0.5000000   0.2872318   0.0000000), wk =   0.0206186
        k(   52) = (  -0.3333333  -0.5744635   0.0000000), wk =   0.0206186
        k(   53) = (   0.0833333   0.1436159   0.0000000), wk =   0.0206186
        k(   54) = (   0.1000000   0.1723391   0.0000000), wk =   0.0206186
        k(   55) = (   0.1166667   0.2010622   0.0000000), wk =   0.0206186
        k(   56) = (   0.1333333   0.2297854   0.0000000), wk =   0.0206186
        k(   57) = (   0.1500000   0.2585086   0.0000000), wk =   0.0206186
        k(   58) = (   0.1666667   0.2872318   0.0000000), wk =   0.0206186
        k(   59) = (   0.1833333   0.3159549   0.0000000), wk =   0.0206186
        k(   60) = (   0.2000000   0.3446781   0.0000000), wk =   0.0206186
        k(   61) = (   0.2166667   0.3734013   0.0000000), wk =   0.0206186
        k(   62) = (   0.2333333   0.4021245   0.0000000), wk =   0.0206186
        k(   63) = (   0.2500000   0.4308476   0.0000000), wk =   0.0206186
        k(   64) = (   0.2666667   0.4595708   0.0000000), wk =   0.0206186
        k(   65) = (   0.2833333   0.4882940   0.0000000), wk =   0.0206186
        k(   66) = (   0.3000000   0.5170172   0.0000000), wk =   0.0206186
        k(   67) = (   0.3166667   0.5457403   0.0000000), wk =   0.0206186
        k(   68) = (  -0.1666667  -0.0000000   0.0000000), wk =   0.0206186
        k(   69) = (  -0.2000000  -0.0000000   0.0000000), wk =   0.0206186
        k(   70) = (  -0.2333333   0.0000000   0.0000000), wk =   0.0206186
        k(   71) = (  -0.2666667  -0.0000000   0.0000000), wk =   0.0206186
        k(   72) = (  -0.3000000  -0.0000000   0.0000000), wk =   0.0206186
        k(   73) = (  -0.3333333   0.0000000   0.0000000), wk =   0.0206186
        k(   74) = (  -0.3666667  -0.0000000   0.0000000), wk =   0.0206186
        k(   75) = (  -0.4000000  -0.0000000   0.0000000), wk =   0.0206186
        k(   76) = (  -0.4333333   0.0000000   0.0000000), wk =   0.0206186
        k(   77) = (  -0.4666667  -0.0000000   0.0000000), wk =   0.0206186
        k(   78) = (  -0.5000000  -0.0000000   0.0000000), wk =   0.0206186
        k(   79) = (  -0.5333333   0.0000000   0.0000000), wk =   0.0206186
        k(   80) = (  -0.5666667  -0.0000000   0.0000000), wk =   0.0206186
        k(   81) = (  -0.6000000  -0.0000000   0.0000000), wk =   0.0206186
        k(   82) = (  -0.6333333   0.0000000   0.0000000), wk =   0.0206186
        k(   83) = (   0.0833333  -0.1436159   0.0000000), wk =   0.0206186
        k(   84) = (   0.1000000  -0.1723391   0.0000000), wk =   0.0206186
        k(   85) = (   0.1166667  -0.2010622   0.0000000), wk =   0.0206186
        k(   86) = (   0.1333333  -0.2297854   0.0000000), wk =   0.0206186
        k(   87) = (   0.1500000  -0.2585086   0.0000000), wk =   0.0206186
        k(   88) = (   0.1666667  -0.2872318   0.0000000), wk =   0.0206186
        k(   89) = (   0.1833333  -0.3159549   0.0000000), wk =   0.0206186
        k(   90) = (   0.2000000  -0.3446781   0.0000000), wk =   0.0206186
        k(   91) = (   0.2166667  -0.3734013   0.0000000), wk =   0.0206186
        k(   92) = (   0.2333333  -0.4021245   0.0000000), wk =   0.0206186
        k(   93) = (   0.2500000  -0.4308476   0.0000000), wk =   0.0206186
        k(   94) = (   0.2666667  -0.4595708   0.0000000), wk =   0.0206186
        k(   95) = (   0.2833333  -0.4882940   0.0000000), wk =   0.0206186
        k(   96) = (   0.3000000  -0.5170172   0.0000000), wk =   0.0206186
        k(   97) = (   0.3166667  -0.5457403   0.0000000), wk =   0.0206186

                       cryst. coord.
        k(    1) = (   0.3182129   0.3277331   0.0000000), wk =   0.0206186
        k(    2) = (   0.3182129   0.3321199   0.0000000), wk =   0.0206186
        k(    3) = (   0.3182129   0.3365067   0.0000000), wk =   0.0206186
        k(    4) = (   0.3182129   0.3408935   0.0000000), wk =   0.0206186
        k(    5) = (   0.3182129   0.3452804   0.0000000), wk =   0.0206186
        k(    6) = (   0.3182129   0.3496672   0.0000000), wk =   0.0206186
        k(    7) = (   0.3182129   0.3540540   0.0000000), wk =   0.0206186
        k(    8) = (   0.3232531   0.3252130   0.0000000), wk =   0.0206186
        k(    9) = (   0.3232531   0.3295998   0.0000000), wk =   0.0206186
        k(   10) = (   0.3232531   0.3339867   0.0000000), wk =   0.0206186
        k(   11) = (   0.3232531   0.3383735   0.0000000), wk =   0.0206186
        k(   12) = (   0.3232531   0.3427603   0.0000000), wk =   0.0206186
        k(   13) = (   0.3232531   0.3471471   0.0000000), wk =   0.0206186
        k(   14) = (   0.3232531   0.3515339   0.0000000), wk =   0.0206186
        k(   15) = (   0.3282932   0.3226929   0.0000000), wk =   0.0206186
        k(   16) = (   0.3282932   0.3270798   0.0000000), wk =   0.0206186
        k(   17) = (   0.3282932   0.3314666   0.0000000), wk =   0.0206186
        k(   18) = (   0.3282932   0.3358534   0.0000000), wk =   0.0206186
        k(   19) = (   0.3282932   0.3402402   0.0000000), wk =   0.0206186
        k(   20) = (   0.3282932   0.3446271   0.0000000), wk =   0.0206186
        k(   21) = (   0.3282932   0.3490139   0.0000000), wk =   0.0206186
        k(   22) = (   0.3333333   0.3201729   0.0000000), wk =   0.0206186
        k(   23) = (   0.3333333   0.3245597   0.0000000), wk =   0.0206186
        k(   24) = (   0.3333333   0.3289465   0.0000000), wk =   0.0206186
        k(   25) = (   0.3333333   0.3333333   0.0000000), wk =   0.0206186
        k(   26) = (   0.3333333   0.3377202   0.0000000), wk =   0.0206186
        k(   27) = (   0.3333333   0.3421070   0.0000000), wk =   0.0206186
        k(   28) = (   0.3333333   0.3464938   0.0000000), wk =   0.0206186
        k(   29) = (   0.3383735   0.3176528   0.0000000), wk =   0.0206186
        k(   30) = (   0.3383735   0.3220396   0.0000000), wk =   0.0206186
        k(   31) = (   0.3383735   0.3264264   0.0000000), wk =   0.0206186
        k(   32) = (   0.3383735   0.3308133   0.0000000), wk =   0.0206186
        k(   33) = (   0.3383735   0.3352001   0.0000000), wk =   0.0206186
        k(   34) = (   0.3383735   0.3395869   0.0000000), wk =   0.0206186
        k(   35) = (   0.3383735   0.3439737   0.0000000), wk =   0.0206186
        k(   36) = (   0.3434136   0.3151327   0.0000000), wk =   0.0206186
        k(   37) = (   0.3434136   0.3195195   0.0000000), wk =   0.0206186
        k(   38) = (   0.3434136   0.3239064   0.0000000), wk =   0.0206186
        k(   39) = (   0.3434136   0.3282932   0.0000000), wk =   0.0206186
        k(   40) = (   0.3434136   0.3326800   0.0000000), wk =   0.0206186
        k(   41) = (   0.3434136   0.3370668   0.0000000), wk =   0.0206186
        k(   42) = (   0.3434136   0.3414537   0.0000000), wk =   0.0206186
        k(   43) = (   0.3484538   0.3126126   0.0000000), wk =   0.0206186
        k(   44) = (   0.3484538   0.3169995   0.0000000), wk =   0.0206186
        k(   45) = (   0.3484538   0.3213863   0.0000000), wk =   0.0206186
        k(   46) = (   0.3484538   0.3257731   0.0000000), wk =   0.0206186
        k(   47) = (   0.3484538   0.3301599   0.0000000), wk =   0.0206186
        k(   48) = (   0.3484538   0.3345468   0.0000000), wk =   0.0206186
        k(   49) = (   0.3484538   0.3389336   0.0000000), wk =   0.0206186
        k(   50) = (   0.0000000   0.0000000   0.0000000), wk =   0.0206186
        k(   51) = (   0.5000000   0.0000000   0.0000000), wk =   0.0206186
        k(   52) = (  -0.3333333  -0.3333333   0.0000000), wk =   0.0206186
        k(   53) = (   0.0833333   0.0833333   0.0000000), wk =   0.0206186
        k(   54) = (   0.1000000   0.1000000   0.0000000), wk =   0.0206186
        k(   55) = (   0.1166667   0.1166667   0.0000000), wk =   0.0206186
        k(   56) = (   0.1333333   0.1333333   0.0000000), wk =   0.0206186
        k(   57) = (   0.1500000   0.1500000   0.0000000), wk =   0.0206186
        k(   58) = (   0.1666667   0.1666667   0.0000000), wk =   0.0206186
        k(   59) = (   0.1833333   0.1833333   0.0000000), wk =   0.0206186
        k(   60) = (   0.2000000   0.2000000   0.0000000), wk =   0.0206186
        k(   61) = (   0.2166667   0.2166667   0.0000000), wk =   0.0206186
        k(   62) = (   0.2333333   0.2333333   0.0000000), wk =   0.0206186
        k(   63) = (   0.2500000   0.2500000   0.0000000), wk =   0.0206186
        k(   64) = (   0.2666667   0.2666667   0.0000000), wk =   0.0206186
        k(   65) = (   0.2833333   0.2833333   0.0000000), wk =   0.0206186
        k(   66) = (   0.3000000   0.3000000   0.0000000), wk =   0.0206186
        k(   67) = (   0.3166667   0.3166667   0.0000000), wk =   0.0206186
        k(   68) = (  -0.1666667   0.0833333   0.0000000), wk =   0.0206186
        k(   69) = (  -0.2000000   0.1000000   0.0000000), wk =   0.0206186
        k(   70) = (  -0.2333333   0.1166667   0.0000000), wk =   0.0206186
        k(   71) = (  -0.2666667   0.1333333   0.0000000), wk =   0.0206186
        k(   72) = (  -0.3000000   0.1500000   0.0000000), wk =   0.0206186
        k(   73) = (  -0.3333333   0.1666667   0.0000000), wk =   0.0206186
        k(   74) = (  -0.3666667   0.1833333   0.0000000), wk =   0.0206186
        k(   75) = (  -0.4000000   0.2000000   0.0000000), wk =   0.0206186
        k(   76) = (  -0.4333333   0.2166667   0.0000000), wk =   0.0206186
        k(   77) = (  -0.4666667   0.2333333   0.0000000), wk =   0.0206186
        k(   78) = (  -0.5000000   0.2500000   0.0000000), wk =   0.0206186
        k(   79) = (  -0.5333333   0.2666667   0.0000000), wk =   0.0206186
        k(   80) = (  -0.5666667   0.2833333   0.0000000), wk =   0.0206186
        k(   81) = (  -0.6000000   0.3000000   0.0000000), wk =   0.0206186
        k(   82) = (  -0.6333333   0.3166667   0.0000000), wk =   0.0206186
        k(   83) = (   0.0833333  -0.1666667   0.0000000), wk =   0.0206186
        k(   84) = (   0.1000000  -0.2000000   0.0000000), wk =   0.0206186
        k(   85) = (   0.1166667  -0.2333333   0.0000000), wk =   0.0206186
        k(   86) = (   0.1333333  -0.2666667   0.0000000), wk =   0.0206186
        k(   87) = (   0.1500000  -0.3000000   0.0000000), wk =   0.0206186
        k(   88) = (   0.1666667  -0.3333333   0.0000000), wk =   0.0206186
        k(   89) = (   0.1833333  -0.3666667   0.0000000), wk =   0.0206186
        k(   90) = (   0.2000000  -0.4000000   0.0000000), wk =   0.0206186
        k(   91) = (   0.2166667  -0.4333333   0.0000000), wk =   0.0206186
        k(   92) = (   0.2333333  -0.4666667   0.0000000), wk =   0.0206186
        k(   93) = (   0.2500000  -0.5000000   0.0000000), wk =   0.0206186
        k(   94) = (   0.2666667  -0.5333333   0.0000000), wk =   0.0206186
        k(   95) = (   0.2833333  -0.5666667   0.0000000), wk =   0.0206186
        k(   96) = (   0.3000000  -0.6000000   0.0000000), wk =   0.0206186
        k(   97) = (   0.3166667  -0.6333333   0.0000000), wk =   0.0206186

     Dense  grid:   242429 G-vectors     FFT dimensions: (  45,  45, 320)

     Smooth grid:    85799 G-vectors     FFT dimensions: (  30,  30, 225)

     Dynamical RAM for                 wfc:       0.33 MB

     Dynamical RAM for     wfc (w. buffer):       0.33 MB

     Dynamical RAM for           str. fact:       0.92 MB

     Dynamical RAM for           local pot:       0.00 MB

     Dynamical RAM for          nlocal pot:       1.10 MB

     Dynamical RAM for                qrad:       3.52 MB

     Dynamical RAM for          rho,v,vnew:       3.24 MB

     Dynamical RAM for           G-vectors:       1.82 MB

     Dynamical RAM for          h,s,v(r/c):       0.01 MB

     Dynamical RAM for          <psi|beta>:       0.01 MB

     Dynamical RAM for      wfcinit/wfcrot:       0.66 MB

     Dynamical RAM for           addusdens:      86.93 MB

     Estimated static dynamical RAM per process >      15.41 MB

     Estimated max dynamical RAM per process >     102.34 MB

     Estimated total dynamical RAM >     818.70 MB

     The potential is recalculated from file :
     ./tmp/mos2.save/charge-density


     negative rho (up, down):  3.855E-04 0.000E+00
     Starting wfcs are   18 randomized atomic wfcs

     Band Structure Calculation
     CG style diagonalization

     Computing kpt #:     1  of    97
     total cpu time spent up to now is        2.8 secs

     Computing kpt #:     2  of    97
     total cpu time spent up to now is        4.3 secs

     Computing kpt #:     3  of    97
     total cpu time spent up to now is        5.8 secs

     Computing kpt #:     4  of    97
     total cpu time spent up to now is        7.3 secs

     Computing kpt #:     5  of    97
     total cpu time spent up to now is        8.9 secs

     Computing kpt #:     6  of    97
     total cpu time spent up to now is       10.2 secs

     Computing kpt #:     7  of    97
     total cpu time spent up to now is       11.5 secs

     Computing kpt #:     8  of    97
     total cpu time spent up to now is       13.0 secs

     Computing kpt #:     9  of    97
     total cpu time spent up to now is       14.3 secs

     Computing kpt #:    10  of    97
     total cpu time spent up to now is       15.8 secs

     Computing kpt #:    11  of    97
     total cpu time spent up to now is       17.2 secs

     Computing kpt #:    12  of    97
     total cpu time spent up to now is       18.6 secs

     Computing kpt #:    13  of    97
     total cpu time spent up to now is       20.1 secs

     Computing kpt #:    14  of    97
     total cpu time spent up to now is       21.6 secs

     Computing kpt #:    15  of    97
     total cpu time spent up to now is       22.8 secs

     Computing kpt #:    16  of    97
     total cpu time spent up to now is       23.9 secs

     Computing kpt #:    17  of    97
     total cpu time spent up to now is       25.3 secs

     Computing kpt #:    18  of    97
     total cpu time spent up to now is       26.8 secs

     Computing kpt #:    19  of    97
     total cpu time spent up to now is       28.2 secs

     Computing kpt #:    20  of    97
     total cpu time spent up to now is       29.6 secs

     Computing kpt #:    21  of    97
     total cpu time spent up to now is       31.0 secs

     Computing kpt #:    22  of    97
     total cpu time spent up to now is       32.4 secs

     Computing kpt #:    23  of    97
     total cpu time spent up to now is       33.6 secs

     Computing kpt #:    24  of    97
     total cpu time spent up to now is       34.7 secs

     Computing kpt #:    25  of    97
     total cpu time spent up to now is       36.0 secs

     Computing kpt #:    26  of    97
     total cpu time spent up to now is       37.3 secs

     Computing kpt #:    27  of    97
     total cpu time spent up to now is       38.7 secs

     Computing kpt #:    28  of    97
     total cpu time spent up to now is       40.2 secs

     Computing kpt #:    29  of    97
     total cpu time spent up to now is       41.6 secs

     Computing kpt #:    30  of    97
     total cpu time spent up to now is       42.9 secs

     Computing kpt #:    31  of    97
     total cpu time spent up to now is       43.9 secs

     Computing kpt #:    32  of    97
     total cpu time spent up to now is       45.1 secs

     Computing kpt #:    33  of    97
     total cpu time spent up to now is       46.3 secs

     Computing kpt #:    34  of    97
     total cpu time spent up to now is       47.5 secs

     Computing kpt #:    35  of    97
     total cpu time spent up to now is       48.6 secs

     Computing kpt #:    36  of    97
     total cpu time spent up to now is       49.7 secs

     Computing kpt #:    37  of    97
     total cpu time spent up to now is       50.7 secs

     Computing kpt #:    38  of    97
     total cpu time spent up to now is       51.6 secs

     Computing kpt #:    39  of    97
     total cpu time spent up to now is       52.5 secs

     Computing kpt #:    40  of    97
     total cpu time spent up to now is       53.5 secs

     Computing kpt #:    41  of    97
     total cpu time spent up to now is       54.3 secs

     Computing kpt #:    42  of    97
     total cpu time spent up to now is       54.9 secs

     Computing kpt #:    43  of    97
     total cpu time spent up to now is       55.9 secs

     Computing kpt #:    44  of    97
     total cpu time spent up to now is       56.7 secs

     Computing kpt #:    45  of    97
     total cpu time spent up to now is       57.4 secs

     Computing kpt #:    46  of    97
     total cpu time spent up to now is       58.0 secs

     Computing kpt #:    47  of    97
     total cpu time spent up to now is       58.7 secs

     Computing kpt #:    48  of    97
     total cpu time spent up to now is       59.7 secs

     Computing kpt #:    49  of    97
     total cpu time spent up to now is       61.2 secs

     Computing kpt #:    50  of    97
     total cpu time spent up to now is       64.1 secs

     Computing kpt #:    51  of    97
     total cpu time spent up to now is       65.6 secs

     Computing kpt #:    52  of    97
     total cpu time spent up to now is       67.0 secs

     Computing kpt #:    53  of    97
     total cpu time spent up to now is       68.9 secs

     Computing kpt #:    54  of    97
     total cpu time spent up to now is       70.8 secs

     Computing kpt #:    55  of    97
     total cpu time spent up to now is       73.0 secs

     Computing kpt #:    56  of    97
     total cpu time spent up to now is       74.6 secs

     Computing kpt #:    57  of    97
     total cpu time spent up to now is       76.3 secs

     Computing kpt #:    58  of    97
     total cpu time spent up to now is       77.6 secs

     Computing kpt #:    59  of    97
     total cpu time spent up to now is       78.7 secs

     Computing kpt #:    60  of    97
     total cpu time spent up to now is       79.7 secs

     Computing kpt #:    61  of    97
     total cpu time spent up to now is       80.8 secs

     Computing kpt #:    62  of    97
     total cpu time spent up to now is       81.9 secs

     Computing kpt #:    63  of    97
     total cpu time spent up to now is       83.0 secs

     Computing kpt #:    64  of    97
     total cpu time spent up to now is       84.3 secs

     Computing kpt #:    65  of    97
     total cpu time spent up to now is       85.6 secs

     Computing kpt #:    66  of    97
     total cpu time spent up to now is       86.7 secs

     Computing kpt #:    67  of    97
     total cpu time spent up to now is       87.7 secs

     Computing kpt #:    68  of    97
     total cpu time spent up to now is       89.0 secs

     Computing kpt #:    69  of    97
     total cpu time spent up to now is       90.5 secs

     Computing kpt #:    70  of    97
     total cpu time spent up to now is       91.9 secs

     Computing kpt #:    71  of    97
     total cpu time spent up to now is       93.1 secs

     Computing kpt #:    72  of    97
     total cpu time spent up to now is       94.2 secs

     Computing kpt #:    73  of    97
     total cpu time spent up to now is       95.4 secs

     Computing kpt #:    74  of    97
     total cpu time spent up to now is       96.4 secs

     Computing kpt #:    75  of    97
     total cpu time spent up to now is       97.4 secs

     Computing kpt #:    76  of    97
     total cpu time spent up to now is       98.4 secs

     Computing kpt #:    77  of    97
     total cpu time spent up to now is       99.4 secs

     Computing kpt #:    78  of    97
     total cpu time spent up to now is      100.4 secs

     Computing kpt #:    79  of    97
     total cpu time spent up to now is      101.6 secs

     Computing kpt #:    80  of    97
     total cpu time spent up to now is      102.9 secs

     Computing kpt #:    81  of    97
     total cpu time spent up to now is      104.0 secs

     Computing kpt #:    82  of    97
     total cpu time spent up to now is      105.0 secs

     Computing kpt #:    83  of    97
     total cpu time spent up to now is      106.2 secs

     Computing kpt #:    84  of    97
     total cpu time spent up to now is      107.5 secs

     Computing kpt #:    85  of    97
     total cpu time spent up to now is      109.0 secs

     Computing kpt #:    86  of    97
     total cpu time spent up to now is      110.2 secs

     Computing kpt #:    87  of    97
     total cpu time spent up to now is      111.3 secs

     Computing kpt #:    88  of    97
     total cpu time spent up to now is      112.4 secs

     Computing kpt #:    89  of    97
     total cpu time spent up to now is      113.4 secs

     Computing kpt #:    90  of    97
     total cpu time spent up to now is      114.4 secs

     Computing kpt #:    91  of    97
     total cpu time spent up to now is      115.4 secs

     Computing kpt #:    92  of    97
     total cpu time spent up to now is      116.3 secs

     Computing kpt #:    93  of    97
     total cpu time spent up to now is      117.4 secs

     Computing kpt #:    94  of    97
     total cpu time spent up to now is      118.7 secs

     Computing kpt #:    95  of    97
     total cpu time spent up to now is      119.9 secs

     Computing kpt #:    96  of    97
     total cpu time spent up to now is      120.9 secs

     Computing kpt #:    97  of    97
     total cpu time spent up to now is      122.0 secs

     ethr =  1.00E-10,  avg # of iterations = 34.5

     total cpu time spent up to now is      122.0 secs

     End of band structure calculation

          k = 0.3182 0.5593 0.0000 ( 10662 PWs)   bands (ev):

   -62.4579 -36.7206 -36.6702 -36.5622 -13.5672 -13.5040  -7.0246  -6.2561
    -5.6585  -5.1616  -4.5212  -3.7852  -1.6443   0.0953   1.4163   1.9062

          k = 0.3182 0.5644 0.0000 ( 10662 PWs)   bands (ev):

   -62.4579 -36.7199 -36.6711 -36.5622 -13.5660 -13.5034  -7.0268  -6.2461
    -5.6695  -5.1635  -4.5179  -3.7890  -1.6408   0.0911   1.4151   1.9104

          k = 0.3182 0.5694 0.0000 ( 10660 PWs)   bands (ev):

   -62.4579 -36.7195 -36.6717 -36.5621 -13.5652 -13.5030  -7.0281  -6.2399
    -5.6763  -5.1647  -4.5160  -3.7912  -1.6387   0.0886   1.4144   1.9129

          k = 0.3182 0.5745 0.0000 ( 10664 PWs)   bands (ev):

   -62.4579 -36.7194 -36.6718 -36.5621 -13.5650 -13.5029  -7.0285  -6.2378
    -5.6786  -5.1651  -4.5153  -3.7920  -1.6380   0.0878   1.4142   1.9138

          k = 0.3182 0.5795 0.0000 ( 10660 PWs)   bands (ev):

   -62.4579 -36.7195 -36.6717 -36.5621 -13.5652 -13.5030  -7.0281  -6.2399
    -5.6763  -5.1647  -4.5160  -3.7912  -1.6387   0.0886   1.4144   1.9129

          k = 0.3182 0.5845 0.0000 ( 10662 PWs)   bands (ev):

   -62.4579 -36.7199 -36.6711 -36.5622 -13.5660 -13.5034  -7.0268  -6.2461
    -5.6695  -5.1635  -4.5179  -3.7890  -1.6408   0.0911   1.4151   1.9104

          k = 0.3182 0.5896 0.0000 ( 10662 PWs)   bands (ev):

   -62.4579 -36.7206 -36.6702 -36.5622 -13.5672 -13.5040  -7.0246  -6.2561
    -5.6585  -5.1616  -4.5212  -3.7852  -1.6443   0.0953   1.4163   1.9062

          k = 0.3233 0.5593 0.0000 ( 10662 PWs)   bands (ev):

   -62.4579 -36.7197 -36.6714 -36.5622 -13.5658 -13.5031  -7.0270  -6.2462
    -5.6681  -5.1649  -4.5188  -3.7882  -1.6411   0.0918   1.4148   1.9108

          k = 0.3233 0.5644 0.0000 ( 10662 PWs)   bands (ev):

   -62.4578 -36.7190 -36.6723 -36.5621 -13.5646 -13.5025  -7.0292  -6.2357
    -5.6793  -5.1672  -4.5156  -3.7919  -1.6377   0.0876   1.4136   1.9149

          k = 0.3233 0.5694 0.0000 ( 10666 PWs)   bands (ev):

   -62.4578 -36.7186 -36.6729 -36.5621 -13.5639 -13.5021  -7.0305  -6.2291
    -5.6863  -5.1686  -4.5137  -3.7941  -1.6357   0.0851   1.4128   1.9174

          k = 0.3233 0.5745 0.0000 ( 10660 PWs)   bands (ev):

   -62.4578 -36.7184 -36.6731 -36.5621 -13.5636 -13.5020  -7.0309  -6.2269
    -5.6886  -5.1690  -4.5130  -3.7949  -1.6350   0.0843   1.4126   1.9182

          k = 0.3233 0.5795 0.0000 ( 10666 PWs)   bands (ev):

   -62.4578 -36.7186 -36.6729 -36.5621 -13.5639 -13.5021  -7.0305  -6.2291
    -5.6863  -5.1686  -4.5137  -3.7941  -1.6357   0.0851   1.4128   1.9174

          k = 0.3233 0.5845 0.0000 ( 10662 PWs)   bands (ev):

   -62.4578 -36.7190 -36.6723 -36.5621 -13.5646 -13.5025  -7.0292  -6.2357
    -5.6793  -5.1672  -4.5156  -3.7919  -1.6377   0.0876   1.4136   1.9149

          k = 0.3233 0.5896 0.0000 ( 10662 PWs)   bands (ev):

   -62.4579 -36.7197 -36.6714 -36.5622 -13.5658 -13.5031  -7.0270  -6.2462
    -5.6681  -5.1649  -4.5188  -3.7882  -1.6411   0.0918   1.4148   1.9108

          k = 0.3283 0.5593 0.0000 ( 10666 PWs)   bands (ev):

   -62.4578 -36.7192 -36.6722 -36.5621 -13.5648 -13.5025  -7.0286  -6.2405
    -5.6742  -5.1666  -4.5175  -3.7900  -1.6393   0.0898   1.4140   1.9139

          k = 0.3283 0.5644 0.0000 ( 10664 PWs)   bands (ev):

   -62.4578 -36.7185 -36.6732 -36.5621 -13.5636 -13.5019  -7.0308  -6.2295
    -5.6854  -5.1692  -4.5143  -3.7936  -1.6359   0.0857   1.4127   1.9179

          k = 0.3283 0.5694 0.0000 ( 10664 PWs)   bands (ev):

   -62.4578 -36.7180 -36.6738 -36.5621 -13.5629 -13.5015  -7.0320  -6.2227
    -5.6924  -5.1708  -4.5124  -3.7957  -1.6339   0.0832   1.4119   1.9204

          k = 0.3283 0.5745 0.0000 ( 10666 PWs)   bands (ev):

   -62.4578 -36.7178 -36.6740 -36.5620 -13.5627 -13.5014  -7.0325  -6.2204
    -5.6948  -5.1713  -4.5118  -3.7965  -1.6332   0.0824   1.4116   1.9212

          k = 0.3283 0.5795 0.0000 ( 10664 PWs)   bands (ev):

   -62.4578 -36.7180 -36.6738 -36.5621 -13.5629 -13.5015  -7.0320  -6.2227
    -5.6924  -5.1708  -4.5124  -3.7957  -1.6339   0.0832   1.4119   1.9204

          k = 0.3283 0.5845 0.0000 ( 10664 PWs)   bands (ev):

   -62.4578 -36.7185 -36.6732 -36.5621 -13.5636 -13.5019  -7.0308  -6.2295
    -5.6854  -5.1692  -4.5143  -3.7936  -1.6359   0.0857   1.4127   1.9179

          k = 0.3283 0.5896 0.0000 ( 10666 PWs)   bands (ev):

   -62.4578 -36.7192 -36.6722 -36.5621 -13.5648 -13.5025  -7.0286  -6.2405
    -5.6742  -5.1666  -4.5175  -3.7900  -1.6393   0.0898   1.4140   1.9139

          k = 0.3333 0.5593 0.0000 ( 10665 PWs)   bands (ev):

   -62.4578 -36.7190 -36.6725 -36.5621 -13.5642 -13.5020  -7.0295  -6.2390
    -5.6763  -5.1668  -4.5173  -3.7904  -1.6387   0.0895   1.4138   1.9156

          k = 0.3333 0.5644 0.0000 ( 10660 PWs)   bands (ev):

   -62.4578 -36.7182 -36.6735 -36.5621 -13.5631 -13.5014  -7.0316  -6.2279
    -5.6873  -5.1698  -4.5143  -3.7939  -1.6354   0.0854   1.4124   1.9195

          k = 0.3333 0.5694 0.0000 ( 10662 PWs)   bands (ev):

   -62.4578 -36.7177 -36.6742 -36.5620 -13.5624 -13.5011  -7.0328  -6.2210
    -5.6942  -5.1716  -4.5124  -3.7960  -1.6335   0.0830   1.4115   1.9219

          k = 0.3333 0.5745 0.0000 ( 10664 PWs)   bands (ev):

   -62.4578 -36.7176 -36.6744 -36.5620 -13.5622 -13.5010  -7.0332  -6.2186
    -5.6965  -5.1721  -4.5118  -3.7967  -1.6328   0.0821   1.4112   1.9227

          k = 0.3333 0.5795 0.0000 ( 10662 PWs)   bands (ev):

   -62.4578 -36.7177 -36.6742 -36.5620 -13.5624 -13.5011  -7.0328  -6.2210
    -5.6942  -5.1716  -4.5124  -3.7960  -1.6335   0.0830   1.4115   1.9219

          k = 0.3333 0.5845 0.0000 ( 10660 PWs)   bands (ev):

   -62.4578 -36.7182 -36.6735 -36.5621 -13.5631 -13.5014  -7.0316  -6.2279
    -5.6873  -5.1698  -4.5143  -3.7939  -1.6354   0.0854   1.4124   1.9195

          k = 0.3333 0.5896 0.0000 ( 10665 PWs)   bands (ev):

   -62.4578 -36.7190 -36.6725 -36.5621 -13.5642 -13.5020  -7.0295  -6.2390
    -5.6763  -5.1668  -4.5173  -3.7904  -1.6387   0.0895   1.4138   1.9156

          k = 0.3384 0.5593 0.0000 ( 10669 PWs)   bands (ev):

   -62.4578 -36.7192 -36.6724 -36.5621 -13.5641 -13.5018  -7.0294  -6.2420
    -5.6742  -5.1656  -4.5184  -3.7894  -1.6395   0.0908   1.4141   1.9158

          k = 0.3384 0.5644 0.0000 ( 10666 PWs)   bands (ev):

   -62.4578 -36.7184 -36.6735 -36.5620 -13.5630 -13.5013  -7.0315  -6.2309
    -5.6847  -5.1691  -4.5154  -3.7928  -1.6363   0.0868   1.4126   1.9196

          k = 0.3384 0.5694 0.0000 ( 10664 PWs)   bands (ev):

   -62.4578 -36.7178 -36.6741 -36.5620 -13.5624 -13.5009  -7.0327  -6.2240
    -5.6913  -5.1711  -4.5136  -3.7948  -1.6344   0.0844   1.4117   1.9219

          k = 0.3384 0.5745 0.0000 ( 10664 PWs)   bands (ev):

   -62.4578 -36.7177 -36.6744 -36.5620 -13.5621 -13.5008  -7.0332  -6.2216
    -5.6936  -5.1717  -4.5130  -3.7955  -1.6338   0.0836   1.4114   1.9227

          k = 0.3384 0.5795 0.0000 ( 10664 PWs)   bands (ev):

   -62.4578 -36.7178 -36.6741 -36.5620 -13.5624 -13.5009  -7.0327  -6.2240
    -5.6913  -5.1711  -4.5136  -3.7948  -1.6344   0.0844   1.4117   1.9219

          k = 0.3384 0.5845 0.0000 ( 10666 PWs)   bands (ev):

   -62.4578 -36.7184 -36.6735 -36.5620 -13.5630 -13.5013  -7.0315  -6.2309
    -5.6847  -5.1691  -4.5154  -3.7928  -1.6363   0.0868   1.4126   1.9196

          k = 0.3384 0.5896 0.0000 ( 10669 PWs)   bands (ev):

   -62.4578 -36.7192 -36.6724 -36.5621 -13.5641 -13.5018  -7.0294  -6.2420
    -5.6742  -5.1656  -4.5184  -3.7894  -1.6395   0.0908   1.4141   1.9158

          k = 0.3434 0.5593 0.0000 ( 10667 PWs)   bands (ev):

   -62.4578 -36.7197 -36.6719 -36.5621 -13.5644 -13.5019  -7.0286  -6.2491
    -5.6679  -5.1633  -4.5207  -3.7871  -1.6416   0.0937   1.4150   1.9144

          k = 0.3434 0.5644 0.0000 ( 10666 PWs)   bands (ev):

   -62.4578 -36.7188 -36.6730 -36.5620 -13.5634 -13.5013  -7.0306  -6.2383
    -5.6777  -5.1672  -4.5178  -3.7903  -1.6386   0.0898   1.4134   1.9181

          k = 0.3434 0.5694 0.0000 ( 10666 PWs)   bands (ev):

   -62.4578 -36.7183 -36.6736 -36.5620 -13.5628 -13.5010  -7.0318  -6.2315
    -5.6839  -5.1695  -4.5161  -3.7923  -1.6368   0.0875   1.4125   1.9204

          k = 0.3434 0.5745 0.0000 ( 10660 PWs)   bands (ev):

   -62.4578 -36.7181 -36.6739 -36.5620 -13.5625 -13.5009  -7.0322  -6.2292
    -5.6860  -5.1702  -4.5155  -3.7929  -1.6362   0.0867   1.4121   1.9211

          k = 0.3434 0.5795 0.0000 ( 10666 PWs)   bands (ev):

   -62.4578 -36.7183 -36.6736 -36.5620 -13.5628 -13.5010  -7.0318  -6.2315
    -5.6839  -5.1695  -4.5161  -3.7923  -1.6368   0.0875   1.4125   1.9204

          k = 0.3434 0.5845 0.0000 ( 10666 PWs)   bands (ev):

   -62.4578 -36.7188 -36.6730 -36.5620 -13.5634 -13.5013  -7.0306  -6.2383
    -5.6777  -5.1672  -4.5178  -3.7903  -1.6386   0.0898   1.4134   1.9181

          k = 0.3434 0.5896 0.0000 ( 10667 PWs)   bands (ev):

   -62.4578 -36.7197 -36.6719 -36.5621 -13.5644 -13.5019  -7.0286  -6.2491
    -5.6679  -5.1633  -4.5207  -3.7871  -1.6416   0.0937   1.4150   1.9144

          k = 0.3485 0.5593 0.0000 ( 10671 PWs)   bands (ev):

   -62.4578 -36.7204 -36.6711 -36.5621 -13.5652 -13.5022  -7.0269  -6.2601
    -5.6577  -5.1599  -4.5242  -3.7833  -1.6452   0.0983   1.4164   1.9115

          k = 0.3485 0.5644 0.0000 ( 10667 PWs)   bands (ev):

   -62.4578 -36.7196 -36.6721 -36.5621 -13.5642 -13.5016  -7.0288  -6.2496
    -5.6666  -5.1643  -4.5214  -3.7864  -1.6423   0.0945   1.4147   1.9151

          k = 0.3485 0.5694 0.0000 ( 10664 PWs)   bands (ev):

   -62.4578 -36.7190 -36.6728 -36.5620 -13.5636 -13.5013  -7.0300  -6.2431
    -5.6722  -5.1668  -4.5198  -3.7882  -1.6405   0.0922   1.4137   1.9172

          k = 0.3485 0.5745 0.0000 ( 10658 PWs)   bands (ev):

   -62.4578 -36.7189 -36.6730 -36.5620 -13.5634 -13.5012  -7.0304  -6.2409
    -5.6741  -5.1677  -4.5192  -3.7889  -1.6400   0.0915   1.4134   1.9180

          k = 0.3485 0.5795 0.0000 ( 10664 PWs)   bands (ev):

   -62.4578 -36.7190 -36.6728 -36.5620 -13.5636 -13.5013  -7.0300  -6.2431
    -5.6722  -5.1668  -4.5198  -3.7882  -1.6405   0.0922   1.4137   1.9172

          k = 0.3485 0.5845 0.0000 ( 10667 PWs)   bands (ev):

   -62.4578 -36.7196 -36.6721 -36.5621 -13.5642 -13.5016  -7.0288  -6.2496
    -5.6666  -5.1643  -4.5214  -3.7864  -1.6423   0.0945   1.4147   1.9151

          k = 0.3485 0.5896 0.0000 ( 10671 PWs)   bands (ev):

   -62.4578 -36.7204 -36.6711 -36.5621 -13.5652 -13.5022  -7.0269  -6.2601
    -5.6577  -5.1599  -4.5242  -3.7833  -1.6452   0.0983   1.4164   1.9115

          k = 0.0000 0.0000 0.0000 ( 10807 PWs)   bands (ev):

   -62.5015 -36.6482 -36.4362 -36.4282 -15.7217 -14.4288  -7.2438  -4.2323
    -4.1784  -3.4280  -3.1135  -3.0813  -1.6631   1.1425   1.1701   1.3679

          k = 0.5000 0.2872 0.0000 ( 10692 PWs)   bands (ev):

   -62.4624 -36.8106 -36.5711 -36.5230 -13.8263 -13.6572  -7.4002  -6.4290
    -5.6900  -4.7864  -3.5137  -2.5877  -2.2545   0.6475   1.1548   2.2421

          k =-0.3333-0.5745 0.0000 ( 10664 PWs)   bands (ev):

   -62.4578 -36.7176 -36.6744 -36.5620 -13.5622 -13.5010  -7.0332  -6.2186
    -5.6965  -5.1721  -4.5118  -3.7967  -1.6328   0.0821   1.4112   1.9227

          k = 0.0833 0.1436 0.0000 ( 10757 PWs)   bands (ev):

   -62.4940 -36.6337 -36.5068 -36.4485 -15.4208 -14.3037  -6.9146  -4.8175
    -4.3246  -3.8912  -3.6411  -2.6061  -1.8503   0.7593   0.8814   1.0761

          k = 0.1000 0.1723 0.0000 ( 10750 PWs)   bands (ev):

   -62.4911 -36.6279 -36.5345 -36.4567 -15.2959 -14.2517  -6.7959  -5.0093
    -4.5149  -3.8770  -3.7800  -2.5674  -1.9591   0.6215   0.8597   0.9734

          k = 0.1167 0.2011 0.0000 ( 10744 PWs)   bands (ev):

   -62.4879 -36.6215 -36.5643 -36.4665 -15.1542 -14.1927  -6.6806  -5.1881
    -4.6936  -4.1372  -3.6707  -2.5565  -2.0900   0.5053   0.8703   0.8904

          k = 0.1333 0.2298 0.0000 ( 10768 PWs)   bands (ev):

   -62.4845 -36.6147 -36.5949 -36.4776 -14.9985 -14.1279  -6.5869  -5.3324
    -4.8672  -4.4018  -3.5821  -2.5722  -2.2265   0.4082   0.8427   0.9116

          k = 0.1500 0.2585 0.0000 ( 10761 PWs)   bands (ev):

   -62.4810 -36.6251 -36.6077 -36.4903 -14.8323 -14.0586  -6.5367  -5.4189
    -5.0559  -4.6367  -3.5412  -2.6132  -2.3416   0.3352   0.8338   0.9791

          k = 0.1667 0.2872 0.0000 ( 10755 PWs)   bands (ev):

   -62.4774 -36.6537 -36.6007 -36.5043 -14.6595 -13.9864  -6.5425  -5.4361
    -5.2860  -4.8040  -3.5748  -2.6782  -2.4080   0.2998   0.8545   1.0660

          k = 0.1833 0.3160 0.0000 ( 10741 PWs)   bands (ev):

   -62.4740 -36.6797 -36.5939 -36.5196 -14.4846 -13.9130  -6.5916  -5.5510
    -5.3987  -4.8999  -3.6887  -2.7655  -2.4180   0.3153   0.8905   1.1643

          k = 0.2000 0.3447 0.0000 ( 10737 PWs)   bands (ev):

   -62.4708 -36.7021 -36.5874 -36.5361 -14.3125 -13.8402  -6.6562  -5.8240
    -5.3371  -4.9433  -3.8632  -2.8725  -2.3853   0.3834   0.9301   1.2642

          k = 0.2167 0.3734 0.0000 ( 10745 PWs)   bands (ev):

   -62.4678 -36.7201 -36.5815 -36.5537 -14.1482 -13.7700  -6.7115  -6.0862
    -5.2779  -4.9468  -4.0740  -2.9962  -2.3235   0.4841   0.9744   1.3551

          k = 0.2333 0.4021 0.0000 ( 10729 PWs)   bands (ev):

   -62.4652 -36.7331 -36.5763 -36.5722 -13.9971 -13.7044  -6.7404  -6.3266
    -5.2374  -4.9177  -4.3037  -3.1325  -2.2370   0.5617   1.0539   1.4260

          k = 0.2500 0.4308 0.0000 ( 10709 PWs)   bands (ev):

   -62.4629 -36.7409 -36.5914 -36.5719 -13.8641 -13.6454  -6.7324  -6.5380
    -5.2236  -4.8614  -4.5403  -3.2763  -2.1272   0.5548   1.2054   1.4689

          k = 0.2667 0.4596 0.0000 ( 10696 PWs)   bands (ev):

   -62.4610 -36.7432 -36.6110 -36.5682 -13.7533 -13.5948  -6.7152  -6.6814
    -5.2418  -4.7842  -4.7702  -3.4217  -1.9994   0.4687   1.4058   1.4819

          k = 0.2833 0.4883 0.0000 ( 10668 PWs)   bands (ev):

   -62.4596 -36.7405 -36.6305 -36.5655 -13.6675 -13.5543  -6.8546  -6.5858
    -5.3073  -4.9665  -4.6946  -3.5606  -1.8659   0.3418   1.4707   1.6083

          k = 0.3000 0.5170 0.0000 ( 10655 PWs)   bands (ev):

   -62.4586 -36.7333 -36.6494 -36.5635 -13.6078 -13.5250  -6.9542  -6.4513
    -5.4428  -5.0905  -4.6054  -3.6815  -1.7456   0.2120   1.4463   1.7764

          k = 0.3167 0.5457 0.0000 ( 10675 PWs)   bands (ev):

   -62.4580 -36.7236 -36.6660 -36.5624 -13.5735 -13.5073  -7.0133  -6.3010
    -5.6097  -5.1506  -4.5367  -3.7669  -1.6616   0.1159   1.4221   1.8849

          k =-0.1667-0.0000 0.0000 ( 10757 PWs)   bands (ev):

   -62.4939 -36.6334 -36.5027 -36.4541 -15.4182 -14.3011  -6.9123  -4.7958
    -4.3193  -3.9217  -3.6561  -2.6011  -1.8450   0.7756   0.8718   1.0570

          k =-0.2000-0.0000 0.0000 ( 10739 PWs)   bands (ev):

   -62.4908 -36.6276 -36.5313 -36.4620 -15.2922 -14.2481  -6.7931  -4.9937
    -4.5117  -3.8900  -3.8054  -2.5637  -1.9533   0.6316   0.8428   0.9610

          k =-0.2333 0.0000 0.0000 ( 10743 PWs)   bands (ev):

   -62.4876 -36.6211 -36.5619 -36.4714 -15.1493 -14.1879  -6.6775  -5.1781
    -4.6930  -4.1489  -3.6898  -2.5533  -2.0855   0.5090   0.8476   0.8859

          k =-0.2667-0.0000 0.0000 ( 10755 PWs)   bands (ev):

   -62.4841 -36.6142 -36.5933 -36.4823 -14.9924 -14.1219  -6.5843  -5.3271
    -4.8694  -4.4124  -3.5931  -2.5687  -2.2257   0.4070   0.8463   0.8849

          k =-0.3000-0.0000 0.0000 ( 10761 PWs)   bands (ev):

   -62.4806 -36.6244 -36.6071 -36.4946 -14.8249 -14.0515  -6.5360  -5.4167
    -5.0615  -4.6464  -3.5422  -2.6090  -2.3474   0.3311   0.8449   0.9499

          k =-0.3333 0.0000 0.0000 ( 10743 PWs)   bands (ev):

   -62.4770 -36.6537 -36.6000 -36.5082 -14.6510 -13.9782  -6.5451  -5.4352
    -5.2947  -4.8131  -3.5657  -2.6729  -2.4217   0.2950   0.8727   1.0362

          k =-0.3667-0.0000 0.0000 ( 10743 PWs)   bands (ev):

   -62.4735 -36.6803 -36.5932 -36.5232 -14.4750 -13.9039  -6.5983  -5.5616
    -5.3980  -4.9095  -3.6723  -2.7590  -2.4377   0.3107   0.9160   1.1354

          k =-0.4000-0.0000 0.0000 ( 10743 PWs)   bands (ev):

   -62.4703 -36.7032 -36.5867 -36.5394 -14.3021 -13.8303  -6.6666  -5.8357
    -5.3367  -4.9538  -3.8431  -2.8650  -2.4082   0.3795   0.9634   1.2380

          k =-0.4333 0.0000 0.0000 ( 10751 PWs)   bands (ev):

   -62.4673 -36.7215 -36.5808 -36.5567 -14.1373 -13.7597  -6.7246  -6.0985
    -5.2782  -4.9583  -4.0528  -2.9877  -2.3472   0.4810   1.0148   1.3329

          k =-0.4667-0.0000 0.0000 ( 10727 PWs)   bands (ev):

   -62.4647 -36.7347 -36.5756 -36.5749 -13.9862 -13.6941  -6.7552  -6.3389
    -5.2386  -4.9298  -4.2830  -3.1234  -2.2598   0.5628   1.0963   1.4089

          k =-0.5000-0.0000 0.0000 ( 10711 PWs)   bands (ev):

   -62.4624 -36.7424 -36.5938 -36.5712 -13.8537 -13.6356  -6.7478  -6.5497
    -5.2257  -4.8738  -4.5213  -3.2670  -2.1478   0.5644   1.2424   1.4571

          k =-0.5333 0.0000 0.0000 ( 10701 PWs)   bands (ev):

   -62.4606 -36.7445 -36.6131 -36.5677 -13.7441 -13.5860  -6.7257  -6.6962
    -5.2440  -4.7964  -4.7542  -3.4124  -2.0169   0.4840   1.4359   1.4746

          k =-0.5667-0.0000 0.0000 ( 10687 PWs)   bands (ev):

   -62.4593 -36.7413 -36.6324 -36.5650 -13.6600 -13.5471  -6.8633  -6.5990
    -5.3068  -4.9564  -4.7058  -3.5520  -1.8793   0.3577   1.4666   1.6317

          k =-0.6000-0.0000 0.0000 ( 10669 PWs)   bands (ev):

   -62.4584 -36.7336 -36.6511 -36.5632 -13.6025 -13.5198  -6.9604  -6.4616
    -5.4380  -5.0876  -4.6147  -3.6743  -1.7542   0.2244   1.4442   1.7925

          k =-0.6333 0.0000 0.0000 ( 10664 PWs)   bands (ev):

   -62.4579 -36.7234 -36.6672 -36.5622 -13.5707 -13.5045  -7.0166  -6.3072
    -5.6049  -5.1511  -4.5422  -3.7625  -1.6654   0.1223   1.4212   1.8930

          k = 0.0833-0.1436 0.0000 ( 10757 PWs)   bands (ev):

   -62.4940 -36.6337 -36.5068 -36.4485 -15.4208 -14.3037  -6.9146  -4.8175
    -4.3246  -3.8912  -3.6411  -2.6061  -1.8503   0.7593   0.8814   1.0761

          k = 0.1000-0.1723 0.0000 ( 10750 PWs)   bands (ev):

   -62.4911 -36.6279 -36.5345 -36.4567 -15.2959 -14.2517  -6.7959  -5.0093
    -4.5149  -3.8770  -3.7800  -2.5674  -1.9591   0.6215   0.8597   0.9734

          k = 0.1167-0.2011 0.0000 ( 10744 PWs)   bands (ev):

   -62.4879 -36.6215 -36.5643 -36.4665 -15.1542 -14.1927  -6.6806  -5.1881
    -4.6936  -4.1372  -3.6707  -2.5565  -2.0900   0.5053   0.8703   0.8904

          k = 0.1333-0.2298 0.0000 ( 10768 PWs)   bands (ev):

   -62.4845 -36.6147 -36.5949 -36.4776 -14.9985 -14.1279  -6.5869  -5.3324
    -4.8672  -4.4018  -3.5821  -2.5722  -2.2265   0.4082   0.8427   0.9116

          k = 0.1500-0.2585 0.0000 ( 10761 PWs)   bands (ev):

   -62.4810 -36.6251 -36.6077 -36.4903 -14.8323 -14.0586  -6.5367  -5.4189
    -5.0559  -4.6367  -3.5412  -2.6132  -2.3416   0.3352   0.8338   0.9791

          k = 0.1667-0.2872 0.0000 ( 10755 PWs)   bands (ev):

   -62.4774 -36.6537 -36.6007 -36.5043 -14.6595 -13.9864  -6.5425  -5.4361
    -5.2860  -4.8040  -3.5748  -2.6782  -2.4080   0.2998   0.8545   1.0660

          k = 0.1833-0.3160 0.0000 ( 10741 PWs)   bands (ev):

   -62.4740 -36.6797 -36.5939 -36.5196 -14.4846 -13.9130  -6.5916  -5.5510
    -5.3987  -4.8999  -3.6887  -2.7655  -2.4180   0.3153   0.8905   1.1643

          k = 0.2000-0.3447 0.0000 ( 10737 PWs)   bands (ev):

   -62.4708 -36.7021 -36.5874 -36.5361 -14.3125 -13.8402  -6.6562  -5.8240
    -5.3371  -4.9433  -3.8632  -2.8725  -2.3853   0.3834   0.9301   1.2642

          k = 0.2167-0.3734 0.0000 ( 10745 PWs)   bands (ev):

   -62.4678 -36.7201 -36.5815 -36.5537 -14.1482 -13.7700  -6.7115  -6.0862
    -5.2779  -4.9468  -4.0740  -2.9962  -2.3235   0.4841   0.9744   1.3551

          k = 0.2333-0.4021 0.0000 ( 10729 PWs)   bands (ev):

   -62.4652 -36.7331 -36.5763 -36.5722 -13.9971 -13.7044  -6.7404  -6.3266
    -5.2374  -4.9177  -4.3037  -3.1325  -2.2370   0.5617   1.0539   1.4260

          k = 0.2500-0.4308 0.0000 ( 10709 PWs)   bands (ev):

   -62.4629 -36.7409 -36.5914 -36.5719 -13.8641 -13.6454  -6.7324  -6.5380
    -5.2236  -4.8614  -4.5403  -3.2763  -2.1272   0.5548   1.2054   1.4689

          k = 0.2667-0.4596 0.0000 ( 10696 PWs)   bands (ev):

   -62.4610 -36.7432 -36.6110 -36.5682 -13.7533 -13.5948  -6.7152  -6.6814
    -5.2418  -4.7842  -4.7702  -3.4217  -1.9994   0.4687   1.4058   1.4819

          k = 0.2833-0.4883 0.0000 ( 10668 PWs)   bands (ev):

   -62.4596 -36.7405 -36.6305 -36.5655 -13.6675 -13.5543  -6.8546  -6.5858
    -5.3073  -4.9665  -4.6946  -3.5606  -1.8659   0.3418   1.4707   1.6083

          k = 0.3000-0.5170 0.0000 ( 10655 PWs)   bands (ev):

   -62.4586 -36.7333 -36.6494 -36.5635 -13.6078 -13.5250  -6.9542  -6.4513
    -5.4428  -5.0905  -4.6054  -3.6815  -1.7456   0.2120   1.4463   1.7764

          k = 0.3167-0.5457 0.0000 ( 10675 PWs)   bands (ev):

   -62.4580 -36.7236 -36.6660 -36.5624 -13.5735 -13.5073  -7.0133  -6.3010
    -5.6097  -5.1506  -4.5367  -3.7669  -1.6616   0.1159   1.4221   1.8849

     Writing all to output data dir ./tmp/mos2.save/ :
     XML data file, pseudopotentials, collected wavefunctions
 
     init_run     :      0.70s CPU      1.08s WALL (       1 calls)
     electrons    :    118.59s CPU    120.73s WALL (       1 calls)

     Called by init_run:
     wfcinit      :      0.00s CPU      0.00s WALL (       1 calls)
     wfcinit:atom :      0.05s CPU      0.06s WALL (      97 calls)
     wfcinit:wfcr :      2.13s CPU      2.16s WALL (      97 calls)
     potinit      :      0.13s CPU      0.17s WALL (       1 calls)
     hinit0       :      0.11s CPU      0.12s WALL (       1 calls)

     Called by electrons:
     c_bands      :    118.59s CPU    120.73s WALL (       1 calls)
     v_of_rho     :      0.11s CPU      0.14s WALL (       1 calls)
     v_h          :      0.01s CPU      0.01s WALL (       1 calls)
     v_xc         :      0.10s CPU      0.13s WALL (       1 calls)
     newd         :      0.39s CPU      0.69s WALL (       1 calls)

     Called by c_bands:
     init_us_2    :      0.08s CPU      0.10s WALL (      97 calls)
     ccgdiagg     :    116.10s CPU    118.06s WALL (     100 calls)
     wfcrot       :      2.19s CPU      2.23s WALL (     100 calls)

     Called by sum_band:

     Called by *cgdiagg:
     h_psi        :     78.82s CPU     80.11s WALL (   53608 calls)
     s_psi        :     13.86s CPU     14.17s WALL (  107116 calls)

     Called by h_psi:
     h_psi:calbec :     17.17s CPU     17.40s WALL (   53608 calls)
     vloc_psi     :     50.81s CPU     51.72s WALL (   53608 calls)
                                        0.00s GPU  (   53608 calls)
     add_vuspsi   :      9.73s CPU      9.93s WALL (   53608 calls)
     hs_1psi      :     85.14s CPU     86.52s WALL (   53508 calls)
     s_1psi       :     14.81s CPU     15.07s WALL (   53508 calls)

     General routines
     calbec       :     24.69s CPU     25.09s WALL (  107116 calls)
     fft          :      0.07s CPU      0.08s WALL (      13 calls)
     ffts         :      0.00s CPU      0.00s WALL (       1 calls)
     fftw         :     37.64s CPU     38.31s WALL (  110604 calls)
     interpolate  :      0.01s CPU      0.01s WALL (       1 calls)
     davcio       :      0.03s CPU      0.09s WALL (     194 calls)
 
     Parallel routines
 
     PWSCF        :   1m59.55s CPU   2m 2.22s WALL

 
   This run was terminated on:   0:31:38  23Sep2026            

=------------------------------------------------------------------------------=
   JOB DONE.
=------------------------------------------------------------------------------=
