
     Program PWSCF v.7.5 starts on 22Sep2026 at 22:54:48 

     This program is part of the open-source Quantum ESPRESSO suite
     for quantum simulation of materials; please cite
         "P. Giannozzi et al., J. Phys.:Condens. Matter 21 395502 (2009);
         "P. Giannozzi et al., J. Phys.:Condens. Matter 29 465901 (2017);
         "P. Giannozzi et al., J. Chem. Phys. 152 154105 (2020);
          URL http://www.quantum-espresso.org", 
     in publications or presentations arising from this work. More details at
     http://www.quantum-espresso.org/quote

     Parallel version (MPI), running on     4 processors

     MPI processes distributed on     1 nodes
     2989 MiB available memory on the printing compute node when the environment starts

     Reading input from scf.in

     Current dimensions of program PWSCF are:
     Max number of different atomic species (ntypx) = 10
     Max number of k-points (npk) =  40000
     Max angular momentum in pseudopotentials (lmaxx) =  4
     Message from routine setup:
     using ibrav=0 with symmetry is DISCOURAGED, use correct ibrav instead

     R & G space division:  proc/nbgrp/npool/nimage =       4
     Subspace diagonalization in iterative solution of the eigenvalue problem:
     a serial algorithm will be used


     Parallelization info
     --------------------
     sticks:   dense  smooth     PW     G-vecs:    dense   smooth      PW
     Min         321     162     49                 7616     2711     477
     Max         322     163     50                 7619     2714     481
     Sum        1285     649    199                30467    10849    1917

     Using Slab Decomposition



     bravais-lattice index     =            0
     lattice parameter (alat)  =       5.4022  a.u.
     unit-cell volume          =     111.4774 (a.u.)^3
     number of atoms/cell      =            1
     number of atomic types    =            1
     number of electrons       =         3.00
     number of Kohn-Sham states=            6
     kinetic-energy cutoff     =      80.0000  Ry
     charge density cutoff     =     640.0000  Ry
     scf convergence threshold =      1.0E-10
     mixing beta               =       0.7000
     number of iterations used =            8  plain     mixing
     Exchange-correlation= PBE
                           (   1   4   3   4   0   0   0)

     celldm(1)=   5.402158  celldm(2)=   0.000000  celldm(3)=   0.000000
     celldm(4)=   0.000000  celldm(5)=   0.000000  celldm(6)=   0.000000

     crystal axes: (cart. coord. in units of alat)
               a(1) = (  -0.707107   0.000000   0.707107 )  
               a(2) = (   0.000000   0.707107   0.707107 )  
               a(3) = (  -0.707107   0.707107   0.000000 )  

     reciprocal axes: (cart. coord. in units 2 pi/alat)
               b(1) = ( -0.707107 -0.707107  0.707107 )  
               b(2) = (  0.707107  0.707107  0.707107 )  
               b(3) = ( -0.707107  0.707107 -0.707107 )  


     PseudoPot. # 1 for Al read from file:
     ../../pseudo/Al.pbe-n-rrkjus_psl.1.0.0.UPF
     MD5 check sum: bbe9f3f15d9b3b5ab9a58e4859ebdbfe
     Pseudo is Ultrasoft + core correction, Zval =  3.0
     Generated using &quot;atomic&quot; code by A. Dal Corso  v.6.3
     Using radial grid of 1135 points,  6 beta functions with: 
                l(1) =   0
                l(2) =   0
                l(3) =   1
                l(4) =   1
                l(5) =   2
                l(6) =   2
     Q(r) pseudized with 0 coefficients 


     atomic species   valence    mass     pseudopotential
     Al                3.00    26.98154     Al( 1.00)

     48 Sym. Ops., with inversion, found



   Cartesian axes

     site n.     atom                  positions (alat units)
         1        Al     tau(   1) = (   0.0000000   0.0000000   0.0000000  )

     number of k points=   413  Marzari-Vanderbilt smearing, width (Ry)=  0.0050

     Number of k-points >= 100: set verbosity='high' to print them.

     Dense  grid:    30467 G-vectors     FFT dimensions: (  45,  45,  45)

     Smooth grid:    10849 G-vectors     FFT dimensions: (  32,  32,  32)

     Estimated max dynamical RAM per process >      43.02 MB

     Estimated total dynamical RAM >     172.09 MB

     The initial density is read from file :
     ./tmp/al-fcc.save/charge-density

     Starting wfcs are    4 randomized atomic wfcs +    2 random wfcs

     total cpu time spent up to now is        1.3 secs

     per-process dynamical memory:    31.8 Mb

     Self-consistent Calculation

     iteration #  1     ecut=    80.00 Ry     beta= 0.70
     CG style diagonalization
     ethr =  1.00E-06,  avg # of iterations = 20.6

     total cpu time spent up to now is       20.8 secs

     total energy              =      -5.03958907 Ry
     estimated scf accuracy    <       0.00000332 Ry

     iteration #  2     ecut=    80.00 Ry     beta= 0.70
     CG style diagonalization
     ethr =  1.11E-07,  avg # of iterations =  3.1

     total cpu time spent up to now is       23.8 secs

     total energy              =      -5.03959016 Ry
     estimated scf accuracy    <       0.00000034 Ry

     iteration #  3     ecut=    80.00 Ry     beta= 0.70
     CG style diagonalization
     ethr =  1.13E-08,  avg # of iterations =  3.1

     total cpu time spent up to now is       26.8 secs

     total energy              =      -5.03959019 Ry
     estimated scf accuracy    <          2.9E-09 Ry

     iteration #  4     ecut=    80.00 Ry     beta= 0.70
     CG style diagonalization
     ethr =  9.72E-11,  avg # of iterations =  3.4

     total cpu time spent up to now is       30.1 secs

     End of self-consistent calculation

     Number of k-points >= 100: set verbosity='high' to print the bands.

     the Fermi energy is     7.8951 ev

!    total energy              =      -5.03959020 Ry
     estimated scf accuracy    <          7.6E-11 Ry
     smearing contrib. (-TS)   =       0.00000411 Ry
     internal energy E=F+TS    =      -5.03959430 Ry

     The total energy is F=E-TS. E is the sum of the following terms:
     one-electron contribution =       2.94572959 Ry
     hartree contribution      =       0.00579347 Ry
     xc contribution           =      -2.58996406 Ry
     ewald contribution        =      -5.40115331 Ry

     convergence has been achieved in   4 iterations

     Forces acting on atoms (cartesian axes, Ry/au):

     atom    1 type  1   force =     0.00000000    0.00000000    0.00000000

     Total force =     0.000000     Total SCF correction =     0.000000


     Computing stress (Cartesian axis) and pressure

          total   stress  (Ry/bohr**3)                   (kbar)     P=       -2.86
  -0.00001947   0.00000000   0.00000000           -2.86        0.00        0.00
   0.00000000  -0.00001947   0.00000000            0.00       -2.86        0.00
   0.00000000   0.00000000  -0.00001947            0.00        0.00       -2.86


     Writing all to output data dir ./tmp/al-fcc.save/ :
     XML data file, charge density, pseudopotentials, collected wavefunctions

     init_run     :      1.05s CPU      1.16s WALL (       1 calls)
     electrons    :     26.01s CPU     28.85s WALL (       1 calls)
     forces       :      0.37s CPU      0.37s WALL (       1 calls)
     stress       :      1.86s CPU      1.87s WALL (       1 calls)

     Called by init_run:
     wfcinit      :      0.69s CPU      0.78s WALL (       1 calls)
     potinit      :      0.09s CPU      0.09s WALL (       1 calls)
     hinit0       :      0.19s CPU      0.19s WALL (       1 calls)

     Called by electrons:
     c_bands      :     24.52s CPU     27.22s WALL (       4 calls)
     sum_band     :      1.31s CPU      1.44s WALL (       4 calls)
     v_of_rho     :      0.07s CPU      0.07s WALL (       5 calls)
     newd         :      0.14s CPU      0.15s WALL (       5 calls)
     mix_rho      :      0.00s CPU      0.00s WALL (       4 calls)

     Called by c_bands:
     init_us_2    :      0.55s CPU      0.59s WALL (    4543 calls)
     ccgdiagg     :     22.43s CPU     24.89s WALL (    1652 calls)
     wfcrot       :      2.41s CPU      2.70s WALL (    1652 calls)

     Called by *cgdiagg:
     h_psi        :     15.95s CPU     17.75s WALL (   69093 calls)
     s_psi        :      3.20s CPU      3.55s WALL (  136534 calls)

     Called by h_psi:
     h_psi:calbec :      2.47s CPU      2.76s WALL (   69093 calls)
     vloc_psi     :     11.42s CPU     12.69s WALL (   69093 calls)
                                        0.00s GPU  (   69093 calls)
     add_vuspsi   :      1.71s CPU      1.91s WALL (   69093 calls)
     hs_1psi      :     15.90s CPU     17.66s WALL (   67441 calls)
     s_1psi       :      3.83s CPU      4.22s WALL (   67441 calls)

     General routines
     calbec       :      5.60s CPU      6.12s WALL (  145207 calls)
     fft          :      0.11s CPU      0.11s WALL (      88 calls)
     ffts         :      0.07s CPU      0.07s WALL (       9 calls)
     fftw         :     10.19s CPU     11.34s WALL (  164618 calls)
     interpolate  :      0.08s CPU      0.08s WALL (       5 calls)

     Parallel routines

     PWSCF        :     29.53s CPU     32.56s WALL


   This run was terminated on:  22:55:21  22Sep2026            

=------------------------------------------------------------------------------=
   JOB DONE.
=------------------------------------------------------------------------------=
