
     Program PWSCF v.7.5 starts on 22Sep2026 at 22:55: 3 

     This program is part of the open-source Quantum ESPRESSO suite
     for quantum simulation of materials; please cite
         "P. Giannozzi et al., J. Phys.:Condens. Matter 21 395502 (2009);
         "P. Giannozzi et al., J. Phys.:Condens. Matter 29 465901 (2017);
         "P. Giannozzi et al., J. Chem. Phys. 152 154105 (2020);
          URL http://www.quantum-espresso.org", 
     in publications or presentations arising from this work. More details at
     http://www.quantum-espresso.org/quote

     Parallel version (MPI), running on     4 processors

     MPI processes distributed on     1 nodes
     2817 MiB available memory on the printing compute node when the environment starts

     Reading input from scf.in

     Current dimensions of program PWSCF are:
     Max number of different atomic species (ntypx) = 10
     Max number of k-points (npk) =  40000
     Max angular momentum in pseudopotentials (lmaxx) =  4
     Message from routine setup:
     using ibrav=0 with symmetry is DISCOURAGED, use correct ibrav instead

     R & G space division:  proc/nbgrp/npool/nimage =       4
     Subspace diagonalization in iterative solution of the eigenvalue problem:
     a serial algorithm will be used


     Parallelization info
     --------------------
     sticks:   dense  smooth     PW     G-vecs:    dense   smooth      PW
     Min         586     290     87                18826     6641    1070
     Max         587     294     88                18830     6642    1073
     Sum        2347    1165    349                75313    26565    4285

     Using Slab Decomposition



     bravais-lattice index     =            0
     lattice parameter (alat)  =       7.3085  a.u.
     unit-cell volume          =     276.0338 (a.u.)^3
     number of atoms/cell      =            2
     number of atomic types    =            1
     number of electrons       =         8.00
     number of Kohn-Sham states=            8
     kinetic-energy cutoff     =      80.0000  Ry
     charge density cutoff     =     640.0000  Ry
     scf convergence threshold =      1.0E-10
     mixing beta               =       0.7000
     number of iterations used =            8  plain     mixing
     Exchange-correlation= PBE
                           (   1   4   3   4   0   0   0)

     celldm(1)=   7.308458  celldm(2)=   0.000000  celldm(3)=   0.000000
     celldm(4)=   0.000000  celldm(5)=   0.000000  celldm(6)=   0.000000

     crystal axes: (cart. coord. in units of alat)
               a(1) = (  -0.707107   0.000000   0.707107 )  
               a(2) = (   0.000000   0.707107   0.707107 )  
               a(3) = (  -0.707107   0.707107   0.000000 )  

     reciprocal axes: (cart. coord. in units 2 pi/alat)
               b(1) = ( -0.707107 -0.707107  0.707107 )  
               b(2) = (  0.707107  0.707107  0.707107 )  
               b(3) = ( -0.707107  0.707107 -0.707107 )  


     PseudoPot. # 1 for Si read from file:
     ../../pseudo/Si.pbe-n-rrkjus_psl.1.0.0.UPF
     MD5 check sum: fa25574f73a70a4139f2adfbefec430c
     Pseudo is Ultrasoft + core correction, Zval =  4.0
     Generated using &quot;atomic&quot; code by A. Dal Corso  v.6.3
     Using radial grid of 1141 points,  6 beta functions with: 
                l(1) =   0
                l(2) =   0
                l(3) =   1
                l(4) =   1
                l(5) =   2
                l(6) =   2
     Q(r) pseudized with 0 coefficients 


     atomic species   valence    mass     pseudopotential
     Si                4.00    28.08500     Si( 1.00)

     48 Sym. Ops., with inversion, found (24 have fractional translation)



   Cartesian axes

     site n.     atom                  positions (alat units)
         1        Si     tau(   1) = (  -0.0000000   0.0000000   0.0000000  )
         2        Si     tau(   2) = (   0.3535534   0.3535534   0.3535534  )

     number of k points=   413  Marzari-Vanderbilt smearing, width (Ry)=  0.0050

     Number of k-points >= 100: set verbosity='high' to print them.

     Dense  grid:    75313 G-vectors     FFT dimensions: (  60,  60,  60)

     Smooth grid:    26565 G-vectors     FFT dimensions: (  48,  48,  48)

     Estimated max dynamical RAM per process >     113.77 MB

     Estimated total dynamical RAM >     455.07 MB

     The initial density is read from file :
     ./tmp/si-diamond.save/charge-density


     starting charge       8.0000, renormalised to       8.0000
     Starting wfcs are    8 randomized atomic wfcs

     total cpu time spent up to now is        5.3 secs

     per-process dynamical memory:    68.4 Mb

     Self-consistent Calculation

     iteration #  1     ecut=    80.00 Ry     beta= 0.70
     CG style diagonalization
     ethr =  1.00E-06,  avg # of iterations = 16.0

     Threshold (ethr) on eigenvalues was too large:
     Diagonalizing with lowered threshold

     CG style diagonalization
     ethr =  1.23E-10,  avg # of iterations =  9.1

     total cpu time spent up to now is      149.3 secs

     total energy              =     -22.84025460 Ry
     estimated scf accuracy    <          7.3E-09 Ry

     iteration #  2     ecut=    80.00 Ry     beta= 0.70
     CG style diagonalization
     ethr =  9.13E-11,  avg # of iterations =  3.5

     total cpu time spent up to now is      169.6 secs

     total energy              =     -22.84025465 Ry
     estimated scf accuracy    <          7.1E-10 Ry

     iteration #  3     ecut=    80.00 Ry     beta= 0.70
     CG style diagonalization
     ethr =  8.85E-12,  avg # of iterations =  3.5

     total cpu time spent up to now is      189.9 secs

     End of self-consistent calculation

     Number of k-points >= 100: set verbosity='high' to print the bands.

     the Fermi energy is     6.2965 ev

!    total energy              =     -22.84025465 Ry
     estimated scf accuracy    <          2.0E-12 Ry
     smearing contrib. (-TS)   =       0.00000000 Ry
     internal energy E=F+TS    =     -22.84025465 Ry

     The total energy is F=E-TS. E is the sum of the following terms:
     one-electron contribution =       5.00128199 Ry
     hartree contribution      =       1.11926117 Ry
     xc contribution           =     -12.28295344 Ry
     ewald contribution        =     -16.67784435 Ry

     convergence has been achieved in   3 iterations

     Forces acting on atoms (cartesian axes, Ry/au):

     atom    1 type  1   force =    -0.00000000   -0.00000000    0.00000000
     atom    2 type  1   force =     0.00000000    0.00000000   -0.00000000

     Total force =     0.000000     Total SCF correction =     0.000000


     Computing stress (Cartesian axis) and pressure

          total   stress  (Ry/bohr**3)                   (kbar)     P=        0.01
   0.00000009  -0.00000000  -0.00000000            0.01       -0.00       -0.00
  -0.00000000   0.00000009   0.00000000           -0.00        0.01        0.00
  -0.00000000   0.00000000   0.00000009           -0.00        0.00        0.01


     Writing all to output data dir ./tmp/si-diamond.save/ :
     XML data file, charge density, pseudopotentials, collected wavefunctions

     init_run     :      4.92s CPU      5.14s WALL (       1 calls)
     electrons    :    176.96s CPU    184.63s WALL (       1 calls)
     forces       :      1.95s CPU      2.01s WALL (       1 calls)
     stress       :      7.92s CPU      8.11s WALL (       1 calls)

     Called by init_run:
     wfcinit      :      4.01s CPU      4.19s WALL (       1 calls)
     potinit      :      0.21s CPU      0.21s WALL (       1 calls)
     hinit0       :      0.33s CPU      0.33s WALL (       1 calls)

     Called by electrons:
     c_bands      :    168.57s CPU    175.71s WALL (       4 calls)
     sum_band     :      8.00s CPU      8.43s WALL (       4 calls)
     v_of_rho     :      0.14s CPU      0.15s WALL (       4 calls)
     newd         :      0.33s CPU      0.45s WALL (       4 calls)
     mix_rho      :      0.01s CPU      0.01s WALL (       4 calls)

     Called by c_bands:
     init_us_2    :      1.71s CPU      1.75s WALL (    4543 calls)
     ccgdiagg     :    160.07s CPU    166.87s WALL (    1652 calls)
     wfcrot       :     11.27s CPU     11.76s WALL (    1239 calls)

     Called by *cgdiagg:
     h_psi        :    119.95s CPU    125.32s WALL (  100518 calls)
     s_psi        :     23.40s CPU     24.28s WALL (  199797 calls)

     Called by h_psi:
     h_psi:calbec :     17.41s CPU     18.42s WALL (  100518 calls)
     vloc_psi     :     88.87s CPU     92.77s WALL (  100518 calls)
                                        0.00s GPU  (  100518 calls)
     add_vuspsi   :     12.76s CPU     13.22s WALL (  100518 calls)
     hs_1psi      :    122.49s CPU    127.80s WALL (   99279 calls)
     s_1psi       :     26.71s CPU     27.70s WALL (   99279 calls)

     General routines
     calbec       :     39.43s CPU     41.19s WALL (  208470 calls)
     fft          :      0.30s CPU      0.31s WALL (      76 calls)
     ffts         :      0.17s CPU      0.17s WALL (       8 calls)
     fftw         :     78.06s CPU     81.51s WALL (  231598 calls)
     interpolate  :      0.18s CPU      0.18s WALL (       4 calls)

     Parallel routines

     PWSCF        :   3m12.09s CPU   3m20.38s WALL


   This run was terminated on:  22:58:23  22Sep2026            

=------------------------------------------------------------------------------=
   JOB DONE.
=------------------------------------------------------------------------------=
