
     Program PWSCF v.7.5 starts on 22Sep2026 at 22: 7:32 

     This program is part of the open-source Quantum ESPRESSO suite
     for quantum simulation of materials; please cite
         "P. Giannozzi et al., J. Phys.:Condens. Matter 21 395502 (2009);
         "P. Giannozzi et al., J. Phys.:Condens. Matter 29 465901 (2017);
         "P. Giannozzi et al., J. Chem. Phys. 152 154105 (2020);
          URL http://www.quantum-espresso.org", 
     in publications or presentations arising from this work. More details at
     http://www.quantum-espresso.org/quote

     Parallel version (MPI), running on     8 processors

     MPI processes distributed on     1 nodes
     2332 MiB available memory on the printing compute node when the environment starts
 
     Reading input from al.scf.in

     Current dimensions of program PWSCF are:
     Max number of different atomic species (ntypx) = 10
     Max number of k-points (npk) =  40000
     Max angular momentum in pseudopotentials (lmaxx) =  4
     Message from routine setup:
     using ibrav=0 with symmetry is DISCOURAGED, use correct ibrav instead
 
     R & G space division:  proc/nbgrp/npool/nimage =       8
     Subspace diagonalization in iterative solution of the eigenvalue problem:
     a serial algorithm will be used

 
     Parallelization info
     --------------------
     sticks:   dense  smooth     PW     G-vecs:    dense   smooth      PW
     Min          38      38     13                  440      440      90
     Max          40      40     14                  441      441      91
     Sum         313     313    109                 3527     3527     725
 
     Using Slab Decomposition
 


     bravais-lattice index     =            0
     lattice parameter (alat)  =       5.2862  a.u.
     unit-cell volume          =     104.4547 (a.u.)^3
     number of atoms/cell      =            1
     number of atomic types    =            1
     number of electrons       =         3.00
     number of Kohn-Sham states=            6
     kinetic-energy cutoff     =      40.0000  Ry
     charge density cutoff     =     160.0000  Ry
     scf convergence threshold =      1.0E-12
     mixing beta               =       0.7000
     number of iterations used =            8  plain     mixing
     Exchange-correlation= SLA  PZ   NOGX NOGC
                           (   1   1   0   0   0   0   0)

     celldm(1)=   5.286249  celldm(2)=   0.000000  celldm(3)=   0.000000
     celldm(4)=   0.000000  celldm(5)=   0.000000  celldm(6)=   0.000000

     crystal axes: (cart. coord. in units of alat)
               a(1) = (  -0.707107   0.000000   0.707107 )  
               a(2) = (   0.000000   0.707107   0.707107 )  
               a(3) = (  -0.707107   0.707107   0.000000 )  

     reciprocal axes: (cart. coord. in units 2 pi/alat)
               b(1) = ( -0.707107 -0.707107  0.707107 )  
               b(2) = (  0.707107  0.707107  0.707107 )  
               b(3) = ( -0.707107  0.707107 -0.707107 )  


     PseudoPot. # 1 for Al read from file:
     ./pseudo/Al.pz-vbc.UPF
     MD5 check sum: f06ceae8da0fe5c02c98e3688433298c
     Pseudo is Norm-conserving, Zval =  3.0
     Generated by new atomic code, or converted to UPF format
     Using radial grid of  171 points,  2 beta functions with: 
                l(1) =   0
                l(2) =   1

     atomic species   valence    mass     pseudopotential
     Al                3.00    26.98154     Al( 1.00)

     48 Sym. Ops., with inversion, found


                                    s                        frac. trans.

      isym =  1     identity                                     

 cryst.   s( 1) = (     1          0          0      )
                  (     0          1          0      )
                  (     0          0          1      )

 cart.    s( 1) = (  1.0000000  0.0000000  0.0000000 )
                  (  0.0000000  1.0000000  0.0000000 )
                  (  0.0000000  0.0000000  1.0000000 )


      isym =  2     180 deg rotation - cart. axis [0,0,1]        

 cryst.   s( 2) = (     0          1         -1      )
                  (     1          0         -1      )
                  (     0          0         -1      )

 cart.    s( 2) = ( -1.0000000  0.0000000  0.0000000 )
                  (  0.0000000 -1.0000000  0.0000000 )
                  (  0.0000000  0.0000000  1.0000000 )


      isym =  3     180 deg rotation - cart. axis [0,1,0]        

 cryst.   s( 3) = (    -1          0          0      )
                  (    -1          0          1      )
                  (    -1          1          0      )

 cart.    s( 3) = ( -1.0000000  0.0000000  0.0000000 )
                  (  0.0000000  1.0000000  0.0000000 )
                  (  0.0000000  0.0000000 -1.0000000 )


      isym =  4     180 deg rotation - cart. axis [1,0,0]        

 cryst.   s( 4) = (     0         -1          1      )
                  (     0         -1          0      )
                  (     1         -1          0      )

 cart.    s( 4) = (  1.0000000  0.0000000  0.0000000 )
                  (  0.0000000 -1.0000000  0.0000000 )
                  (  0.0000000  0.0000000 -1.0000000 )


      isym =  5     180 deg rotation - cart. axis [1,1,0]        

 cryst.   s( 5) = (     0         -1          0      )
                  (    -1          0          0      )
                  (     0          0         -1      )

 cart.    s( 5) = (  0.0000000  1.0000000  0.0000000 )
                  (  1.0000000  0.0000000  0.0000000 )
                  (  0.0000000  0.0000000 -1.0000000 )


      isym =  6     180 deg rotation - cart. axis [1,-1,0]       

 cryst.   s( 6) = (    -1          0          1      )
                  (     0         -1          1      )
                  (     0          0          1      )

 cart.    s( 6) = (  0.0000000 -1.0000000  0.0000000 )
                  ( -1.0000000  0.0000000  0.0000000 )
                  (  0.0000000  0.0000000 -1.0000000 )


      isym =  7      90 deg rotation - cart. axis [0,0,-1]       

 cryst.   s( 7) = (     0          1          0      )
                  (     0          1         -1      )
                  (    -1          1          0      )

 cart.    s( 7) = (  0.0000000  1.0000000  0.0000000 )
                  ( -1.0000000  0.0000000  0.0000000 )
                  (  0.0000000  0.0000000  1.0000000 )


      isym =  8      90 deg rotation - cart. axis [0,0,1]        

 cryst.   s( 8) = (     1          0         -1      )
                  (     1          0          0      )
                  (     1         -1          0      )

 cart.    s( 8) = (  0.0000000 -1.0000000  0.0000000 )
                  (  1.0000000  0.0000000  0.0000000 )
                  (  0.0000000  0.0000000  1.0000000 )


      isym =  9     180 deg rotation - cart. axis [1,0,1]        

 cryst.   s( 9) = (    -1          0          0      )
                  (     0          0         -1      )
                  (     0         -1          0      )

 cart.    s( 9) = (  0.0000000  0.0000000  1.0000000 )
                  (  0.0000000 -1.0000000  0.0000000 )
                  (  1.0000000  0.0000000  0.0000000 )


      isym = 10     180 deg rotation - cart. axis [-1,0,1]       

 cryst.   s(10) = (     1          0          0      )
                  (     1         -1          0      )
                  (     1          0         -1      )

 cart.    s(10) = (  0.0000000  0.0000000 -1.0000000 )
                  (  0.0000000 -1.0000000  0.0000000 )
                  ( -1.0000000  0.0000000  0.0000000 )


      isym = 11      90 deg rotation - cart. axis [0,1,0]        

 cryst.   s(11) = (     0          1         -1      )
                  (    -1          1          0      )
                  (     0          1          0      )

 cart.    s(11) = (  0.0000000  0.0000000  1.0000000 )
                  (  0.0000000  1.0000000  0.0000000 )
                  ( -1.0000000  0.0000000  0.0000000 )


      isym = 12      90 deg rotation - cart. axis [0,-1,0]       

 cryst.   s(12) = (     0         -1          1      )
                  (     0          0          1      )
                  (    -1          0          1      )

 cart.    s(12) = (  0.0000000  0.0000000 -1.0000000 )
                  (  0.0000000  1.0000000  0.0000000 )
                  (  1.0000000  0.0000000  0.0000000 )


      isym = 13     180 deg rotation - cart. axis [0,1,1]        

 cryst.   s(13) = (    -1          1          0      )
                  (     0          1          0      )
                  (     0          1         -1      )

 cart.    s(13) = ( -1.0000000  0.0000000  0.0000000 )
                  (  0.0000000  0.0000000  1.0000000 )
                  (  0.0000000  1.0000000  0.0000000 )


      isym = 14     180 deg rotation - cart. axis [0,1,-1]       

 cryst.   s(14) = (     0          0         -1      )
                  (     0         -1          0      )
                  (    -1          0          0      )

 cart.    s(14) = ( -1.0000000  0.0000000  0.0000000 )
                  (  0.0000000  0.0000000 -1.0000000 )
                  (  0.0000000 -1.0000000  0.0000000 )


      isym = 15      90 deg rotation - cart. axis [-1,0,0]       

 cryst.   s(15) = (     0          0          1      )
                  (    -1          0          1      )
                  (     0         -1          1      )

 cart.    s(15) = (  1.0000000  0.0000000  0.0000000 )
                  (  0.0000000  0.0000000  1.0000000 )
                  (  0.0000000 -1.0000000  0.0000000 )


      isym = 16      90 deg rotation - cart. axis [1,0,0]        

 cryst.   s(16) = (     1         -1          0      )
                  (     1          0         -1      )
                  (     1          0          0      )

 cart.    s(16) = (  1.0000000  0.0000000  0.0000000 )
                  (  0.0000000  0.0000000 -1.0000000 )
                  (  0.0000000  1.0000000  0.0000000 )


      isym = 17     120 deg rotation - cart. axis [-1,-1,-1]     

 cryst.   s(17) = (    -1          0          1      )
                  (    -1          1          0      )
                  (    -1          0          0      )

 cart.    s(17) = (  0.0000000  1.0000000  0.0000000 )
                  (  0.0000000  0.0000000  1.0000000 )
                  (  1.0000000  0.0000000  0.0000000 )


      isym = 18     120 deg rotation - cart. axis [-1,1,1]       

 cryst.   s(18) = (     0          1          0      )
                  (     0          0          1      )
                  (     1          0          0      )

 cart.    s(18) = (  0.0000000 -1.0000000  0.0000000 )
                  (  0.0000000  0.0000000  1.0000000 )
                  ( -1.0000000  0.0000000  0.0000000 )


      isym = 19     120 deg rotation - cart. axis [1,1,-1]       

 cryst.   s(19) = (     1          0         -1      )
                  (     0          0         -1      )
                  (     0          1         -1      )

 cart.    s(19) = (  0.0000000  1.0000000  0.0000000 )
                  (  0.0000000  0.0000000 -1.0000000 )
                  ( -1.0000000  0.0000000  0.0000000 )


      isym = 20     120 deg rotation - cart. axis [1,-1,1]       

 cryst.   s(20) = (     0         -1          0      )
                  (     1         -1          0      )
                  (     0         -1          1      )

 cart.    s(20) = (  0.0000000 -1.0000000  0.0000000 )
                  (  0.0000000  0.0000000 -1.0000000 )
                  (  1.0000000  0.0000000  0.0000000 )


      isym = 21     120 deg rotation - cart. axis [1,1,1]        

 cryst.   s(21) = (     0          0         -1      )
                  (     0          1         -1      )
                  (     1          0         -1      )

 cart.    s(21) = (  0.0000000  0.0000000  1.0000000 )
                  (  1.0000000  0.0000000  0.0000000 )
                  (  0.0000000  1.0000000  0.0000000 )


      isym = 22     120 deg rotation - cart. axis [-1,1,-1]      

 cryst.   s(22) = (    -1          1          0      )
                  (    -1          0          0      )
                  (    -1          0          1      )

 cart.    s(22) = (  0.0000000  0.0000000  1.0000000 )
                  ( -1.0000000  0.0000000  0.0000000 )
                  (  0.0000000 -1.0000000  0.0000000 )


      isym = 23     120 deg rotation - cart. axis [1,-1,-1]      

 cryst.   s(23) = (     0          0          1      )
                  (     1          0          0      )
                  (     0          1          0      )

 cart.    s(23) = (  0.0000000  0.0000000 -1.0000000 )
                  ( -1.0000000  0.0000000  0.0000000 )
                  (  0.0000000  1.0000000  0.0000000 )


      isym = 24     120 deg rotation - cart. axis [-1,-1,1]      

 cryst.   s(24) = (     1         -1          0      )
                  (     0         -1          1      )
                  (     0         -1          0      )

 cart.    s(24) = (  0.0000000  0.0000000 -1.0000000 )
                  (  1.0000000  0.0000000  0.0000000 )
                  (  0.0000000 -1.0000000  0.0000000 )


      isym = 25     inversion                                    

 cryst.   s(25) = (    -1          0          0      )
                  (     0         -1          0      )
                  (     0          0         -1      )

 cart.    s(25) = ( -1.0000000  0.0000000  0.0000000 )
                  (  0.0000000 -1.0000000  0.0000000 )
                  (  0.0000000  0.0000000 -1.0000000 )


      isym = 26     inv. 180 deg rotation - cart. axis [0,0,1]   

 cryst.   s(26) = (     0         -1          1      )
                  (    -1          0          1      )
                  (     0          0          1      )

 cart.    s(26) = (  1.0000000  0.0000000  0.0000000 )
                  (  0.0000000  1.0000000  0.0000000 )
                  (  0.0000000  0.0000000 -1.0000000 )


      isym = 27     inv. 180 deg rotation - cart. axis [0,1,0]   

 cryst.   s(27) = (     1          0          0      )
                  (     1          0         -1      )
                  (     1         -1          0      )

 cart.    s(27) = (  1.0000000  0.0000000  0.0000000 )
                  (  0.0000000 -1.0000000  0.0000000 )
                  (  0.0000000  0.0000000  1.0000000 )


      isym = 28     inv. 180 deg rotation - cart. axis [1,0,0]   

 cryst.   s(28) = (     0          1         -1      )
                  (     0          1          0      )
                  (    -1          1          0      )

 cart.    s(28) = ( -1.0000000  0.0000000  0.0000000 )
                  (  0.0000000  1.0000000  0.0000000 )
                  (  0.0000000  0.0000000  1.0000000 )


      isym = 29     inv. 180 deg rotation - cart. axis [1,1,0]   

 cryst.   s(29) = (     0          1          0      )
                  (     1          0          0      )
                  (     0          0          1      )

 cart.    s(29) = (  0.0000000 -1.0000000  0.0000000 )
                  ( -1.0000000  0.0000000  0.0000000 )
                  (  0.0000000  0.0000000  1.0000000 )


      isym = 30     inv. 180 deg rotation - cart. axis [1,-1,0]  

 cryst.   s(30) = (     1          0         -1      )
                  (     0          1         -1      )
                  (     0          0         -1      )

 cart.    s(30) = (  0.0000000  1.0000000  0.0000000 )
                  (  1.0000000  0.0000000  0.0000000 )
                  (  0.0000000  0.0000000  1.0000000 )


      isym = 31     inv.  90 deg rotation - cart. axis [0,0,-1]  

 cryst.   s(31) = (     0         -1          0      )
                  (     0         -1          1      )
                  (     1         -1          0      )

 cart.    s(31) = (  0.0000000 -1.0000000  0.0000000 )
                  (  1.0000000  0.0000000  0.0000000 )
                  (  0.0000000  0.0000000 -1.0000000 )


      isym = 32     inv.  90 deg rotation - cart. axis [0,0,1]   

 cryst.   s(32) = (    -1          0          1      )
                  (    -1          0          0      )
                  (    -1          1          0      )

 cart.    s(32) = (  0.0000000  1.0000000  0.0000000 )
                  ( -1.0000000  0.0000000  0.0000000 )
                  (  0.0000000  0.0000000 -1.0000000 )


      isym = 33     inv. 180 deg rotation - cart. axis [1,0,1]   

 cryst.   s(33) = (     1          0          0      )
                  (     0          0          1      )
                  (     0          1          0      )

 cart.    s(33) = (  0.0000000  0.0000000 -1.0000000 )
                  (  0.0000000  1.0000000  0.0000000 )
                  ( -1.0000000  0.0000000  0.0000000 )


      isym = 34     inv. 180 deg rotation - cart. axis [-1,0,1]  

 cryst.   s(34) = (    -1          0          0      )
                  (    -1          1          0      )
                  (    -1          0          1      )

 cart.    s(34) = (  0.0000000  0.0000000  1.0000000 )
                  (  0.0000000  1.0000000  0.0000000 )
                  (  1.0000000  0.0000000  0.0000000 )


      isym = 35     inv.  90 deg rotation - cart. axis [0,1,0]   

 cryst.   s(35) = (     0         -1          1      )
                  (     1         -1          0      )
                  (     0         -1          0      )

 cart.    s(35) = (  0.0000000  0.0000000 -1.0000000 )
                  (  0.0000000 -1.0000000  0.0000000 )
                  (  1.0000000  0.0000000  0.0000000 )


      isym = 36     inv.  90 deg rotation - cart. axis [0,-1,0]  

 cryst.   s(36) = (     0          1         -1      )
                  (     0          0         -1      )
                  (     1          0         -1      )

 cart.    s(36) = (  0.0000000  0.0000000  1.0000000 )
                  (  0.0000000 -1.0000000  0.0000000 )
                  ( -1.0000000  0.0000000  0.0000000 )


      isym = 37     inv. 180 deg rotation - cart. axis [0,1,1]   

 cryst.   s(37) = (     1         -1          0      )
                  (     0         -1          0      )
                  (     0         -1          1      )

 cart.    s(37) = (  1.0000000  0.0000000  0.0000000 )
                  (  0.0000000  0.0000000 -1.0000000 )
                  (  0.0000000 -1.0000000  0.0000000 )


      isym = 38     inv. 180 deg rotation - cart. axis [0,1,-1]  

 cryst.   s(38) = (     0          0          1      )
                  (     0          1          0      )
                  (     1          0          0      )

 cart.    s(38) = (  1.0000000  0.0000000  0.0000000 )
                  (  0.0000000  0.0000000  1.0000000 )
                  (  0.0000000  1.0000000  0.0000000 )


      isym = 39     inv.  90 deg rotation - cart. axis [-1,0,0]  

 cryst.   s(39) = (     0          0         -1      )
                  (     1          0         -1      )
                  (     0          1         -1      )

 cart.    s(39) = ( -1.0000000  0.0000000  0.0000000 )
                  (  0.0000000  0.0000000 -1.0000000 )
                  (  0.0000000  1.0000000  0.0000000 )


      isym = 40     inv.  90 deg rotation - cart. axis [1,0,0]   

 cryst.   s(40) = (    -1          1          0      )
                  (    -1          0          1      )
                  (    -1          0          0      )

 cart.    s(40) = ( -1.0000000  0.0000000  0.0000000 )
                  (  0.0000000  0.0000000  1.0000000 )
                  (  0.0000000 -1.0000000  0.0000000 )


      isym = 41     inv. 120 deg rotation - cart. axis [-1,-1,-1]

 cryst.   s(41) = (     1          0         -1      )
                  (     1         -1          0      )
                  (     1          0          0      )

 cart.    s(41) = (  0.0000000 -1.0000000  0.0000000 )
                  (  0.0000000  0.0000000 -1.0000000 )
                  ( -1.0000000  0.0000000  0.0000000 )


      isym = 42     inv. 120 deg rotation - cart. axis [-1,1,1]  

 cryst.   s(42) = (     0         -1          0      )
                  (     0          0         -1      )
                  (    -1          0          0      )

 cart.    s(42) = (  0.0000000  1.0000000  0.0000000 )
                  (  0.0000000  0.0000000 -1.0000000 )
                  (  1.0000000  0.0000000  0.0000000 )


      isym = 43     inv. 120 deg rotation - cart. axis [1,1,-1]  

 cryst.   s(43) = (    -1          0          1      )
                  (     0          0          1      )
                  (     0         -1          1      )

 cart.    s(43) = (  0.0000000 -1.0000000  0.0000000 )
                  (  0.0000000  0.0000000  1.0000000 )
                  (  1.0000000  0.0000000  0.0000000 )


      isym = 44     inv. 120 deg rotation - cart. axis [1,-1,1]  

 cryst.   s(44) = (     0          1          0      )
                  (    -1          1          0      )
                  (     0          1         -1      )

 cart.    s(44) = (  0.0000000  1.0000000  0.0000000 )
                  (  0.0000000  0.0000000  1.0000000 )
                  ( -1.0000000  0.0000000  0.0000000 )


      isym = 45     inv. 120 deg rotation - cart. axis [1,1,1]   

 cryst.   s(45) = (     0          0          1      )
                  (     0         -1          1      )
                  (    -1          0          1      )

 cart.    s(45) = (  0.0000000  0.0000000 -1.0000000 )
                  ( -1.0000000  0.0000000  0.0000000 )
                  (  0.0000000 -1.0000000  0.0000000 )


      isym = 46     inv. 120 deg rotation - cart. axis [-1,1,-1] 

 cryst.   s(46) = (     1         -1          0      )
                  (     1          0          0      )
                  (     1          0         -1      )

 cart.    s(46) = (  0.0000000  0.0000000 -1.0000000 )
                  (  1.0000000  0.0000000  0.0000000 )
                  (  0.0000000  1.0000000  0.0000000 )


      isym = 47     inv. 120 deg rotation - cart. axis [1,-1,-1] 

 cryst.   s(47) = (     0          0         -1      )
                  (    -1          0          0      )
                  (     0         -1          0      )

 cart.    s(47) = (  0.0000000  0.0000000  1.0000000 )
                  (  1.0000000  0.0000000  0.0000000 )
                  (  0.0000000 -1.0000000  0.0000000 )


      isym = 48     inv. 120 deg rotation - cart. axis [-1,-1,1] 

 cryst.   s(48) = (    -1          1          0      )
                  (     0          1         -1      )
                  (     0          1          0      )

 cart.    s(48) = (  0.0000000  0.0000000  1.0000000 )
                  ( -1.0000000  0.0000000  0.0000000 )
                  (  0.0000000  1.0000000  0.0000000 )


   Cartesian axes

     site n.     atom                  positions (alat units)
         1        Al     tau(   1) = (   0.0000000   0.0000000   0.0000000  )

   Crystallographic axes

     site n.     atom                  positions (cryst. coord.)
         1        Al     tau(   1) = (  0.0000000  0.0000000  0.0000000  )

     number of k points=   145  Marzari-Vanderbilt smearing, width (Ry)=  0.0200
                       cart. coord. in units 2pi/alat
        k(    1) = (   0.0000000   0.0000000   0.0000000), wk =   0.0004883
        k(    2) = (  -0.0441942   0.0441942  -0.0441942), wk =   0.0039062
        k(    3) = (  -0.0883883   0.0883883  -0.0883883), wk =   0.0039062
        k(    4) = (  -0.1325825   0.1325825  -0.1325825), wk =   0.0039062
        k(    5) = (  -0.1767767   0.1767767  -0.1767767), wk =   0.0039062
        k(    6) = (  -0.2209709   0.2209709  -0.2209709), wk =   0.0039062
        k(    7) = (  -0.2651650   0.2651650  -0.2651650), wk =   0.0039062
        k(    8) = (  -0.3093592   0.3093592  -0.3093592), wk =   0.0039062
        k(    9) = (   0.3535534  -0.3535534   0.3535534), wk =   0.0019531
        k(   10) = (   0.0000000   0.0883883   0.0000000), wk =   0.0029297
        k(   11) = (  -0.0441942   0.1325825  -0.0441942), wk =   0.0117188
        k(   12) = (  -0.0883883   0.1767767  -0.0883883), wk =   0.0117188
        k(   13) = (  -0.1325825   0.2209709  -0.1325825), wk =   0.0117188
        k(   14) = (  -0.1767767   0.2651650  -0.1767767), wk =   0.0117188
        k(   15) = (  -0.2209709   0.3093592  -0.2209709), wk =   0.0117188
        k(   16) = (  -0.2651650   0.3535534  -0.2651650), wk =   0.0117188
        k(   17) = (   0.3977476  -0.3093592   0.3977476), wk =   0.0117188
        k(   18) = (   0.3535534  -0.2651650   0.3535534), wk =   0.0117188
        k(   19) = (   0.3093592  -0.2209709   0.3093592), wk =   0.0117188
        k(   20) = (   0.2651650  -0.1767767   0.2651650), wk =   0.0117188
        k(   21) = (   0.2209709  -0.1325825   0.2209709), wk =   0.0117188
        k(   22) = (   0.1767767  -0.0883883   0.1767767), wk =   0.0117188
        k(   23) = (   0.1325825  -0.0441942   0.1325825), wk =   0.0117188
        k(   24) = (   0.0883883   0.0000000   0.0883883), wk =   0.0058594
        k(   25) = (   0.0000000   0.1767767   0.0000000), wk =   0.0029297
        k(   26) = (  -0.0441942   0.2209709  -0.0441942), wk =   0.0117188
        k(   27) = (  -0.0883883   0.2651650  -0.0883883), wk =   0.0117188
        k(   28) = (  -0.1325825   0.3093592  -0.1325825), wk =   0.0117188
        k(   29) = (  -0.1767767   0.3535534  -0.1767767), wk =   0.0117188
        k(   30) = (  -0.2209709   0.3977476  -0.2209709), wk =   0.0117188
        k(   31) = (   0.4419417  -0.2651650   0.4419417), wk =   0.0117188
        k(   32) = (   0.3977476  -0.2209709   0.3977476), wk =   0.0117188
        k(   33) = (   0.3535534  -0.1767767   0.3535534), wk =   0.0117188
        k(   34) = (   0.3093592  -0.1325825   0.3093592), wk =   0.0117188
        k(   35) = (   0.2651650  -0.0883883   0.2651650), wk =   0.0117188
        k(   36) = (   0.2209709  -0.0441942   0.2209709), wk =   0.0117188
        k(   37) = (   0.1767767   0.0000000   0.1767767), wk =   0.0058594
        k(   38) = (   0.0000000   0.2651650   0.0000000), wk =   0.0029297
        k(   39) = (  -0.0441942   0.3093592  -0.0441942), wk =   0.0117188
        k(   40) = (  -0.0883883   0.3535534  -0.0883883), wk =   0.0117188
        k(   41) = (  -0.1325825   0.3977476  -0.1325825), wk =   0.0117188
        k(   42) = (  -0.1767767   0.4419417  -0.1767767), wk =   0.0117188
        k(   43) = (   0.4861359  -0.2209709   0.4861359), wk =   0.0117188
        k(   44) = (   0.4419417  -0.1767767   0.4419417), wk =   0.0117188
        k(   45) = (   0.3977476  -0.1325825   0.3977476), wk =   0.0117188
        k(   46) = (   0.3535534  -0.0883883   0.3535534), wk =   0.0117188
        k(   47) = (   0.3093592  -0.0441942   0.3093592), wk =   0.0117188
        k(   48) = (   0.2651650   0.0000000   0.2651650), wk =   0.0058594
        k(   49) = (   0.0000000   0.3535534   0.0000000), wk =   0.0029297
        k(   50) = (  -0.0441942   0.3977476  -0.0441942), wk =   0.0117188
        k(   51) = (  -0.0883883   0.4419417  -0.0883883), wk =   0.0117188
        k(   52) = (  -0.1325825   0.4861359  -0.1325825), wk =   0.0117188
        k(   53) = (   0.5303301  -0.1767767   0.5303301), wk =   0.0117188
        k(   54) = (   0.4861359  -0.1325825   0.4861359), wk =   0.0117188
        k(   55) = (   0.4419417  -0.0883883   0.4419417), wk =   0.0117188
        k(   56) = (   0.3977476  -0.0441942   0.3977476), wk =   0.0117188
        k(   57) = (   0.3535534   0.0000000   0.3535534), wk =   0.0058594
        k(   58) = (   0.0000000   0.4419417   0.0000000), wk =   0.0029297
        k(   59) = (  -0.0441942   0.4861359  -0.0441942), wk =   0.0117188
        k(   60) = (  -0.0883883   0.5303301  -0.0883883), wk =   0.0117188
        k(   61) = (   0.5745243  -0.1325825   0.5745243), wk =   0.0117188
        k(   62) = (   0.5303301  -0.0883883   0.5303301), wk =   0.0117188
        k(   63) = (   0.4861359  -0.0441942   0.4861359), wk =   0.0117188
        k(   64) = (   0.4419417   0.0000000   0.4419417), wk =   0.0058594
        k(   65) = (   0.0000000   0.5303301   0.0000000), wk =   0.0029297
        k(   66) = (  -0.0441942   0.5745243  -0.0441942), wk =   0.0117188
        k(   67) = (   0.6187184  -0.0883883   0.6187184), wk =   0.0117188
        k(   68) = (   0.5745243  -0.0441942   0.5745243), wk =   0.0117188
        k(   69) = (   0.5303301   0.0000000   0.5303301), wk =   0.0058594
        k(   70) = (   0.0000000   0.6187184   0.0000000), wk =   0.0029297
        k(   71) = (   0.6629126  -0.0441942   0.6629126), wk =   0.0117188
        k(   72) = (   0.6187184   0.0000000   0.6187184), wk =   0.0058594
        k(   73) = (   0.0000000  -0.7071068   0.0000000), wk =   0.0014648
        k(   74) = (  -0.0883883   0.1767767   0.0000000), wk =   0.0117188
        k(   75) = (  -0.1325825   0.2209709  -0.0441942), wk =   0.0234375
        k(   76) = (  -0.1767767   0.2651650  -0.0883883), wk =   0.0234375
        k(   77) = (  -0.2209709   0.3093592  -0.1325825), wk =   0.0234375
        k(   78) = (  -0.2651650   0.3535534  -0.1767767), wk =   0.0234375
        k(   79) = (   0.3977476  -0.3093592   0.4861359), wk =   0.0234375
        k(   80) = (   0.3535534  -0.2651650   0.4419417), wk =   0.0117188
        k(   81) = (  -0.0883883   0.2651650   0.0000000), wk =   0.0117188
        k(   82) = (  -0.1325825   0.3093592  -0.0441942), wk =   0.0234375
        k(   83) = (  -0.1767767   0.3535534  -0.0883883), wk =   0.0234375
        k(   84) = (  -0.2209709   0.3977476  -0.1325825), wk =   0.0234375
        k(   85) = (   0.4419417  -0.2651650   0.5303301), wk =   0.0234375
        k(   86) = (   0.3977476  -0.2209709   0.4861359), wk =   0.0234375
        k(   87) = (   0.3535534  -0.1767767   0.4419417), wk =   0.0234375
        k(   88) = (   0.3093592  -0.1325825   0.3977476), wk =   0.0234375
        k(   89) = (   0.2651650  -0.0883883   0.3535534), wk =   0.0234375
        k(   90) = (   0.2209709  -0.0441942   0.3093592), wk =   0.0234375
        k(   91) = (   0.1767767   0.0000000   0.2651650), wk =   0.0117188
        k(   92) = (  -0.0883883   0.3535534   0.0000000), wk =   0.0117188
        k(   93) = (  -0.1325825   0.3977476  -0.0441942), wk =   0.0234375
        k(   94) = (  -0.1767767   0.4419417  -0.0883883), wk =   0.0234375
        k(   95) = (   0.4861359  -0.2209709   0.5745243), wk =   0.0234375
        k(   96) = (   0.4419417  -0.1767767   0.5303301), wk =   0.0234375
        k(   97) = (   0.3977476  -0.1325825   0.4861359), wk =   0.0234375
        k(   98) = (   0.3535534  -0.0883883   0.4419417), wk =   0.0234375
        k(   99) = (   0.3093592  -0.0441942   0.3977476), wk =   0.0234375
        k(  100) = (   0.2651650   0.0000000   0.3535534), wk =   0.0117188
        k(  101) = (  -0.0883883   0.4419417   0.0000000), wk =   0.0117188
        k(  102) = (  -0.1325825   0.4861359  -0.0441942), wk =   0.0234375
        k(  103) = (   0.5303301  -0.1767767   0.6187184), wk =   0.0234375
        k(  104) = (   0.4861359  -0.1325825   0.5745243), wk =   0.0234375
        k(  105) = (   0.4419417  -0.0883883   0.5303301), wk =   0.0234375
        k(  106) = (   0.3977476  -0.0441942   0.4861359), wk =   0.0234375
        k(  107) = (   0.3535534   0.0000000   0.4419417), wk =   0.0117188
        k(  108) = (  -0.0883883   0.5303301   0.0000000), wk =   0.0117188
        k(  109) = (   0.5745243  -0.1325825   0.6629126), wk =   0.0234375
        k(  110) = (   0.5303301  -0.0883883   0.6187184), wk =   0.0234375
        k(  111) = (   0.4861359  -0.0441942   0.5745243), wk =   0.0234375
        k(  112) = (   0.4419417   0.0000000   0.5303301), wk =   0.0117188
        k(  113) = (   0.6187184  -0.0883883   0.7071068), wk =   0.0117188
        k(  114) = (   0.5745243  -0.0441942   0.6629126), wk =   0.0234375
        k(  115) = (   0.5303301  -0.0000000   0.6187184), wk =   0.0117188
        k(  116) = (  -0.0883883  -0.7071068   0.0000000), wk =   0.0058594
        k(  117) = (  -0.1767767   0.3535534   0.0000000), wk =   0.0117188
        k(  118) = (  -0.2209709   0.3977476  -0.0441942), wk =   0.0234375
        k(  119) = (   0.4419417  -0.2651650   0.6187184), wk =   0.0234375
        k(  120) = (   0.3977476  -0.2209709   0.5745243), wk =   0.0234375
        k(  121) = (   0.3535534  -0.1767767   0.5303301), wk =   0.0117188
        k(  122) = (  -0.1767767   0.4419417   0.0000000), wk =   0.0117188
        k(  123) = (   0.4861359  -0.2209709   0.6629126), wk =   0.0234375
        k(  124) = (   0.4419417  -0.1767767   0.6187184), wk =   0.0234375
        k(  125) = (   0.3977476  -0.1325825   0.5745243), wk =   0.0234375
        k(  126) = (   0.3535534  -0.0883883   0.5303301), wk =   0.0234375
        k(  127) = (   0.3093592  -0.0441942   0.4861359), wk =   0.0234375
        k(  128) = (   0.2651650   0.0000000   0.4419417), wk =   0.0117188
        k(  129) = (   0.5303301  -0.1767767   0.7071068), wk =   0.0117188
        k(  130) = (   0.4861359  -0.1325825   0.6629126), wk =   0.0234375
        k(  131) = (   0.4419417  -0.0883883   0.6187184), wk =   0.0234375
        k(  132) = (   0.3977476  -0.0441942   0.5745243), wk =   0.0234375
        k(  133) = (   0.3535534   0.0000000   0.5303301), wk =   0.0117188
        k(  134) = (   0.5303301  -0.0883883   0.7071068), wk =   0.0117188
        k(  135) = (   0.4861359  -0.0441942   0.6629126), wk =   0.0234375
        k(  136) = (   0.4419417  -0.0000000   0.6187184), wk =   0.0117188
        k(  137) = (  -0.1767767  -0.7071068   0.0000000), wk =   0.0058594
        k(  138) = (   0.4419417  -0.1767767   0.7071068), wk =   0.0117188
        k(  139) = (   0.3977476  -0.1325825   0.6629126), wk =   0.0234375
        k(  140) = (   0.3535534  -0.0883883   0.6187184), wk =   0.0117188
        k(  141) = (   0.4419417  -0.0883883   0.7071068), wk =   0.0117188
        k(  142) = (   0.3977476  -0.0441942   0.6629126), wk =   0.0234375
        k(  143) = (   0.3535534  -0.0000000   0.6187184), wk =   0.0117188
        k(  144) = (  -0.2651650  -0.7071068   0.0000000), wk =   0.0058594
        k(  145) = (  -0.3535534  -0.7071068   0.0000000), wk =   0.0029297

                       cryst. coord.
        k(    1) = (   0.0000000   0.0000000   0.0000000), wk =   0.0004883
        k(    2) = (   0.0000000   0.0000000   0.0625000), wk =   0.0039062
        k(    3) = (   0.0000000   0.0000000   0.1250000), wk =   0.0039062
        k(    4) = (   0.0000000   0.0000000   0.1875000), wk =   0.0039062
        k(    5) = (   0.0000000   0.0000000   0.2500000), wk =   0.0039062
        k(    6) = (   0.0000000   0.0000000   0.3125000), wk =   0.0039062
        k(    7) = (   0.0000000   0.0000000   0.3750000), wk =   0.0039062
        k(    8) = (   0.0000000   0.0000000   0.4375000), wk =   0.0039062
        k(    9) = (   0.0000000   0.0000000  -0.5000000), wk =   0.0019531
        k(   10) = (   0.0000000   0.0625000   0.0625000), wk =   0.0029297
        k(   11) = (   0.0000000   0.0625000   0.1250000), wk =   0.0117188
        k(   12) = (   0.0000000   0.0625000   0.1875000), wk =   0.0117188
        k(   13) = (   0.0000000   0.0625000   0.2500000), wk =   0.0117188
        k(   14) = (   0.0000000   0.0625000   0.3125000), wk =   0.0117188
        k(   15) = (   0.0000000   0.0625000   0.3750000), wk =   0.0117188
        k(   16) = (   0.0000000   0.0625000   0.4375000), wk =   0.0117188
        k(   17) = (   0.0000000   0.0625000  -0.5000000), wk =   0.0117188
        k(   18) = (   0.0000000   0.0625000  -0.4375000), wk =   0.0117188
        k(   19) = (   0.0000000   0.0625000  -0.3750000), wk =   0.0117188
        k(   20) = (   0.0000000   0.0625000  -0.3125000), wk =   0.0117188
        k(   21) = (   0.0000000   0.0625000  -0.2500000), wk =   0.0117188
        k(   22) = (   0.0000000   0.0625000  -0.1875000), wk =   0.0117188
        k(   23) = (   0.0000000   0.0625000  -0.1250000), wk =   0.0117188
        k(   24) = (   0.0000000   0.0625000  -0.0625000), wk =   0.0058594
        k(   25) = (   0.0000000   0.1250000   0.1250000), wk =   0.0029297
        k(   26) = (   0.0000000   0.1250000   0.1875000), wk =   0.0117188
        k(   27) = (   0.0000000   0.1250000   0.2500000), wk =   0.0117188
        k(   28) = (   0.0000000   0.1250000   0.3125000), wk =   0.0117188
        k(   29) = (   0.0000000   0.1250000   0.3750000), wk =   0.0117188
        k(   30) = (   0.0000000   0.1250000   0.4375000), wk =   0.0117188
        k(   31) = (   0.0000000   0.1250000  -0.5000000), wk =   0.0117188
        k(   32) = (   0.0000000   0.1250000  -0.4375000), wk =   0.0117188
        k(   33) = (   0.0000000   0.1250000  -0.3750000), wk =   0.0117188
        k(   34) = (   0.0000000   0.1250000  -0.3125000), wk =   0.0117188
        k(   35) = (   0.0000000   0.1250000  -0.2500000), wk =   0.0117188
        k(   36) = (   0.0000000   0.1250000  -0.1875000), wk =   0.0117188
        k(   37) = (   0.0000000   0.1250000  -0.1250000), wk =   0.0058594
        k(   38) = (   0.0000000   0.1875000   0.1875000), wk =   0.0029297
        k(   39) = (   0.0000000   0.1875000   0.2500000), wk =   0.0117188
        k(   40) = (   0.0000000   0.1875000   0.3125000), wk =   0.0117188
        k(   41) = (   0.0000000   0.1875000   0.3750000), wk =   0.0117188
        k(   42) = (   0.0000000   0.1875000   0.4375000), wk =   0.0117188
        k(   43) = (   0.0000000   0.1875000  -0.5000000), wk =   0.0117188
        k(   44) = (   0.0000000   0.1875000  -0.4375000), wk =   0.0117188
        k(   45) = (   0.0000000   0.1875000  -0.3750000), wk =   0.0117188
        k(   46) = (   0.0000000   0.1875000  -0.3125000), wk =   0.0117188
        k(   47) = (   0.0000000   0.1875000  -0.2500000), wk =   0.0117188
        k(   48) = (   0.0000000   0.1875000  -0.1875000), wk =   0.0058594
        k(   49) = (   0.0000000   0.2500000   0.2500000), wk =   0.0029297
        k(   50) = (   0.0000000   0.2500000   0.3125000), wk =   0.0117188
        k(   51) = (   0.0000000   0.2500000   0.3750000), wk =   0.0117188
        k(   52) = (   0.0000000   0.2500000   0.4375000), wk =   0.0117188
        k(   53) = (   0.0000000   0.2500000  -0.5000000), wk =   0.0117188
        k(   54) = (   0.0000000   0.2500000  -0.4375000), wk =   0.0117188
        k(   55) = (   0.0000000   0.2500000  -0.3750000), wk =   0.0117188
        k(   56) = (   0.0000000   0.2500000  -0.3125000), wk =   0.0117188
        k(   57) = (   0.0000000   0.2500000  -0.2500000), wk =   0.0058594
        k(   58) = (   0.0000000   0.3125000   0.3125000), wk =   0.0029297
        k(   59) = (   0.0000000   0.3125000   0.3750000), wk =   0.0117188
        k(   60) = (   0.0000000   0.3125000   0.4375000), wk =   0.0117188
        k(   61) = (   0.0000000   0.3125000  -0.5000000), wk =   0.0117188
        k(   62) = (   0.0000000   0.3125000  -0.4375000), wk =   0.0117188
        k(   63) = (   0.0000000   0.3125000  -0.3750000), wk =   0.0117188
        k(   64) = (   0.0000000   0.3125000  -0.3125000), wk =   0.0058594
        k(   65) = (   0.0000000   0.3750000   0.3750000), wk =   0.0029297
        k(   66) = (   0.0000000   0.3750000   0.4375000), wk =   0.0117188
        k(   67) = (   0.0000000   0.3750000  -0.5000000), wk =   0.0117188
        k(   68) = (   0.0000000   0.3750000  -0.4375000), wk =   0.0117188
        k(   69) = (   0.0000000   0.3750000  -0.3750000), wk =   0.0058594
        k(   70) = (   0.0000000   0.4375000   0.4375000), wk =   0.0029297
        k(   71) = (   0.0000000   0.4375000  -0.5000000), wk =   0.0117188
        k(   72) = (   0.0000000   0.4375000  -0.4375000), wk =   0.0058594
        k(   73) = (   0.0000000  -0.5000000  -0.5000000), wk =   0.0014648
        k(   74) = (   0.0625000   0.1250000   0.1875000), wk =   0.0117188
        k(   75) = (   0.0625000   0.1250000   0.2500000), wk =   0.0234375
        k(   76) = (   0.0625000   0.1250000   0.3125000), wk =   0.0234375
        k(   77) = (   0.0625000   0.1250000   0.3750000), wk =   0.0234375
        k(   78) = (   0.0625000   0.1250000   0.4375000), wk =   0.0234375
        k(   79) = (   0.0625000   0.1250000  -0.5000000), wk =   0.0234375
        k(   80) = (   0.0625000   0.1250000  -0.4375000), wk =   0.0117188
        k(   81) = (   0.0625000   0.1875000   0.2500000), wk =   0.0117188
        k(   82) = (   0.0625000   0.1875000   0.3125000), wk =   0.0234375
        k(   83) = (   0.0625000   0.1875000   0.3750000), wk =   0.0234375
        k(   84) = (   0.0625000   0.1875000   0.4375000), wk =   0.0234375
        k(   85) = (   0.0625000   0.1875000  -0.5000000), wk =   0.0234375
        k(   86) = (   0.0625000   0.1875000  -0.4375000), wk =   0.0234375
        k(   87) = (   0.0625000   0.1875000  -0.3750000), wk =   0.0234375
        k(   88) = (   0.0625000   0.1875000  -0.3125000), wk =   0.0234375
        k(   89) = (   0.0625000   0.1875000  -0.2500000), wk =   0.0234375
        k(   90) = (   0.0625000   0.1875000  -0.1875000), wk =   0.0234375
        k(   91) = (   0.0625000   0.1875000  -0.1250000), wk =   0.0117188
        k(   92) = (   0.0625000   0.2500000   0.3125000), wk =   0.0117188
        k(   93) = (   0.0625000   0.2500000   0.3750000), wk =   0.0234375
        k(   94) = (   0.0625000   0.2500000   0.4375000), wk =   0.0234375
        k(   95) = (   0.0625000   0.2500000  -0.5000000), wk =   0.0234375
        k(   96) = (   0.0625000   0.2500000  -0.4375000), wk =   0.0234375
        k(   97) = (   0.0625000   0.2500000  -0.3750000), wk =   0.0234375
        k(   98) = (   0.0625000   0.2500000  -0.3125000), wk =   0.0234375
        k(   99) = (   0.0625000   0.2500000  -0.2500000), wk =   0.0234375
        k(  100) = (   0.0625000   0.2500000  -0.1875000), wk =   0.0117188
        k(  101) = (   0.0625000   0.3125000   0.3750000), wk =   0.0117188
        k(  102) = (   0.0625000   0.3125000   0.4375000), wk =   0.0234375
        k(  103) = (   0.0625000   0.3125000  -0.5000000), wk =   0.0234375
        k(  104) = (   0.0625000   0.3125000  -0.4375000), wk =   0.0234375
        k(  105) = (   0.0625000   0.3125000  -0.3750000), wk =   0.0234375
        k(  106) = (   0.0625000   0.3125000  -0.3125000), wk =   0.0234375
        k(  107) = (   0.0625000   0.3125000  -0.2500000), wk =   0.0117188
        k(  108) = (   0.0625000   0.3750000   0.4375000), wk =   0.0117188
        k(  109) = (   0.0625000   0.3750000  -0.5000000), wk =   0.0234375
        k(  110) = (   0.0625000   0.3750000  -0.4375000), wk =   0.0234375
        k(  111) = (   0.0625000   0.3750000  -0.3750000), wk =   0.0234375
        k(  112) = (   0.0625000   0.3750000  -0.3125000), wk =   0.0117188
        k(  113) = (   0.0625000   0.4375000  -0.5000000), wk =   0.0117188
        k(  114) = (   0.0625000   0.4375000  -0.4375000), wk =   0.0234375
        k(  115) = (   0.0625000   0.4375000  -0.3750000), wk =   0.0117188
        k(  116) = (   0.0625000  -0.5000000  -0.4375000), wk =   0.0058594
        k(  117) = (   0.1250000   0.2500000   0.3750000), wk =   0.0117188
        k(  118) = (   0.1250000   0.2500000   0.4375000), wk =   0.0234375
        k(  119) = (   0.1250000   0.2500000  -0.5000000), wk =   0.0234375
        k(  120) = (   0.1250000   0.2500000  -0.4375000), wk =   0.0234375
        k(  121) = (   0.1250000   0.2500000  -0.3750000), wk =   0.0117188
        k(  122) = (   0.1250000   0.3125000   0.4375000), wk =   0.0117188
        k(  123) = (   0.1250000   0.3125000  -0.5000000), wk =   0.0234375
        k(  124) = (   0.1250000   0.3125000  -0.4375000), wk =   0.0234375
        k(  125) = (   0.1250000   0.3125000  -0.3750000), wk =   0.0234375
        k(  126) = (   0.1250000   0.3125000  -0.3125000), wk =   0.0234375
        k(  127) = (   0.1250000   0.3125000  -0.2500000), wk =   0.0234375
        k(  128) = (   0.1250000   0.3125000  -0.1875000), wk =   0.0117188
        k(  129) = (   0.1250000   0.3750000  -0.5000000), wk =   0.0117188
        k(  130) = (   0.1250000   0.3750000  -0.4375000), wk =   0.0234375
        k(  131) = (   0.1250000   0.3750000  -0.3750000), wk =   0.0234375
        k(  132) = (   0.1250000   0.3750000  -0.3125000), wk =   0.0234375
        k(  133) = (   0.1250000   0.3750000  -0.2500000), wk =   0.0117188
        k(  134) = (   0.1250000   0.4375000  -0.4375000), wk =   0.0117188
        k(  135) = (   0.1250000   0.4375000  -0.3750000), wk =   0.0234375
        k(  136) = (   0.1250000   0.4375000  -0.3125000), wk =   0.0117188
        k(  137) = (   0.1250000  -0.5000000  -0.3750000), wk =   0.0058594
        k(  138) = (   0.1875000   0.3750000  -0.4375000), wk =   0.0117188
        k(  139) = (   0.1875000   0.3750000  -0.3750000), wk =   0.0234375
        k(  140) = (   0.1875000   0.3750000  -0.3125000), wk =   0.0117188
        k(  141) = (   0.1875000   0.4375000  -0.3750000), wk =   0.0117188
        k(  142) = (   0.1875000   0.4375000  -0.3125000), wk =   0.0234375
        k(  143) = (   0.1875000   0.4375000  -0.2500000), wk =   0.0117188
        k(  144) = (   0.1875000  -0.5000000  -0.3125000), wk =   0.0058594
        k(  145) = (   0.2500000  -0.5000000  -0.2500000), wk =   0.0029297

     Dense  grid:     3527 G-vectors     FFT dimensions: (  24,  24,  24)

     Dynamical RAM for                 wfc:       0.01 MB

     Dynamical RAM for     wfc (w. buffer):       0.74 MB

     Dynamical RAM for           str. fact:       0.01 MB

     Dynamical RAM for           local pot:       0.00 MB

     Dynamical RAM for          nlocal pot:       0.00 MB

     Dynamical RAM for                qrad:       0.09 MB

     Dynamical RAM for          rho,v,vnew:       0.06 MB

     Dynamical RAM for               rhoin:       0.02 MB

     Dynamical RAM for            rho*nmix:       0.11 MB

     Dynamical RAM for           G-vectors:       0.03 MB

     Dynamical RAM for          h,s,v(r/c):       0.01 MB

     Dynamical RAM for          <psi|beta>:       0.00 MB

     Dynamical RAM for                 psi:       0.01 MB

     Dynamical RAM for                hpsi:       0.01 MB

     Dynamical RAM for      wfcinit/wfcrot:       0.01 MB

     Estimated static dynamical RAM per process >       1.02 MB

     Estimated max dynamical RAM per process >       1.15 MB

     Estimated total dynamical RAM >       9.24 MB

     Initial potential from superposition of free atoms

     starting charge       2.9979, renormalised to       3.0000

     negative rho (up, down):  2.984E-05 0.000E+00
     Starting wfcs are    4 randomized atomic wfcs +    2 random wfcs

     total cpu time spent up to now is        0.1 secs

     Self-consistent Calculation

     iteration #  1     ecut=    40.00 Ry     beta= 0.70
     Davidson diagonalization with overlap

---- Real-time Memory Report at c_bands before calling an iterative solver
            53 MiB given to the printing process from OS
             0 MiB allocation reported by mallinfo(arena+hblkhd)
          2246 MiB available memory on the node where the printing process lives
------------------
     ethr =  1.00E-02,  avg # of iterations =  5.6

     Threshold (ethr) on eigenvalues was too large:
     Diagonalizing with lowered threshold

     Davidson diagonalization with overlap

---- Real-time Memory Report at c_bands before calling an iterative solver
            56 MiB given to the printing process from OS
             0 MiB allocation reported by mallinfo(arena+hblkhd)
          2243 MiB available memory on the node where the printing process lives
------------------
     ethr =  1.91E-04,  avg # of iterations =  2.1

     negative rho (up, down):  6.892E-06 0.000E+00

     total cpu time spent up to now is        0.6 secs

     total energy              =      -4.19084836 Ry
     estimated scf accuracy    <       0.00572737 Ry

     iteration #  2     ecut=    40.00 Ry     beta= 0.70
     Davidson diagonalization with overlap

---- Real-time Memory Report at c_bands before calling an iterative solver
            56 MiB given to the printing process from OS
             0 MiB allocation reported by mallinfo(arena+hblkhd)
          2241 MiB available memory on the node where the printing process lives
------------------
     ethr =  1.91E-04,  avg # of iterations =  1.0

     total cpu time spent up to now is        0.7 secs

     total energy              =      -4.19088631 Ry
     estimated scf accuracy    <       0.00044172 Ry

     iteration #  3     ecut=    40.00 Ry     beta= 0.70
     Davidson diagonalization with overlap

---- Real-time Memory Report at c_bands before calling an iterative solver
            56 MiB given to the printing process from OS
             0 MiB allocation reported by mallinfo(arena+hblkhd)
          2241 MiB available memory on the node where the printing process lives
------------------
     ethr =  1.47E-05,  avg # of iterations =  2.0

     total cpu time spent up to now is        0.9 secs

     total energy              =      -4.19088958 Ry
     estimated scf accuracy    <       0.00000031 Ry

     iteration #  4     ecut=    40.00 Ry     beta= 0.70
     Davidson diagonalization with overlap

---- Real-time Memory Report at c_bands before calling an iterative solver
            56 MiB given to the printing process from OS
             0 MiB allocation reported by mallinfo(arena+hblkhd)
          2241 MiB available memory on the node where the printing process lives
------------------
     ethr =  1.03E-08,  avg # of iterations =  2.3

     total cpu time spent up to now is        1.0 secs

     total energy              =      -4.19088961 Ry
     estimated scf accuracy    <          5.7E-09 Ry

     iteration #  5     ecut=    40.00 Ry     beta= 0.70
     Davidson diagonalization with overlap

---- Real-time Memory Report at c_bands before calling an iterative solver
            56 MiB given to the printing process from OS
             0 MiB allocation reported by mallinfo(arena+hblkhd)
          2240 MiB available memory on the node where the printing process lives
------------------
     ethr =  1.91E-10,  avg # of iterations =  1.4

     total cpu time spent up to now is        1.2 secs

     total energy              =      -4.19088961 Ry
     estimated scf accuracy    <          8.5E-12 Ry

     iteration #  6     ecut=    40.00 Ry     beta= 0.70
     Davidson diagonalization with overlap

---- Real-time Memory Report at c_bands before calling an iterative solver
            56 MiB given to the printing process from OS
             0 MiB allocation reported by mallinfo(arena+hblkhd)
          2239 MiB available memory on the node where the printing process lives
------------------
     ethr =  2.83E-13,  avg # of iterations =  2.2

     total cpu time spent up to now is        1.3 secs

     total energy              =      -4.19088961 Ry
     estimated scf accuracy    <          1.8E-12 Ry

     iteration #  7     ecut=    40.00 Ry     beta= 0.70
     Davidson diagonalization with overlap

---- Real-time Memory Report at c_bands before calling an iterative solver
            56 MiB given to the printing process from OS
             0 MiB allocation reported by mallinfo(arena+hblkhd)
          2239 MiB available memory on the node where the printing process lives
------------------
     ethr =  1.00E-13,  avg # of iterations =  1.0

     total cpu time spent up to now is        1.5 secs

     End of self-consistent calculation

          k = 0.0000 0.0000 0.0000 (   459 PWs)   bands (ev):

    -3.1666  21.3263  21.3263  22.7463  22.7463  22.7463

     occupation numbers 
     1.0000   0.0000   0.0000   0.0000   0.0000   0.0000

          k =-0.0442 0.0442-0.0442 (   447 PWs)   bands (ev):

    -3.0544  19.4542  20.9227  20.9227  23.3213  23.3215

     occupation numbers 
     1.0000   0.0000   0.0000   0.0000   0.0000   0.0000

          k =-0.0884 0.0884-0.0884 (   450 PWs)   bands (ev):

    -2.7188  16.8706  20.3298  20.3298  23.4419  24.3595

     occupation numbers 
     1.0000   0.0000   0.0000   0.0000   0.0000   0.0000

          k =-0.1326 0.1326-0.1326 (   459 PWs)   bands (ev):

    -2.1623  14.3215  19.8553  19.8553  23.2748  24.6034

     occupation numbers 
     1.0000   0.0000   0.0000   0.0000   0.0000   0.0000

          k =-0.1768 0.1768-0.1768 (   450 PWs)   bands (ev):

    -1.3883  11.8921  19.5451  19.5451  23.1352  23.5152

     occupation numbers 
     1.0000   0.0000   0.0000   0.0000   0.0000   0.0000

          k =-0.2210 0.2210-0.2210 (   450 PWs)   bands (ev):

    -0.4023   9.6107  19.4099  19.4099  22.4083  22.4083

     occupation numbers 
     1.0000   0.0000   0.0000   0.0000   0.0000   0.0000

          k =-0.2652 0.2652-0.2652 (   443 PWs)   bands (ev):

     0.7897   7.4915  19.4536  19.4536  21.4546  21.4546

     occupation numbers 
     1.0000   1.0002   0.0000   0.0000   0.0000   0.0000

          k =-0.3094 0.3094-0.3094 (   449 PWs)   bands (ev):

     2.1798   5.5447  19.6784  19.6784  20.6790  20.6790

     occupation numbers 
     1.0000   1.0000   0.0000   0.0000   0.0000   0.0000

          k = 0.3536-0.3536 0.3536 (   434 PWs)   bands (ev):

     3.6447   3.8944  20.0684  20.0684  20.1048  20.1048

     occupation numbers 
     1.0000   1.0000   0.0000   0.0000   0.0000   0.0000

          k = 0.0000 0.0884 0.0000 (   443 PWs)   bands (ev):

    -3.0170  20.0676  20.0676  20.3397  22.4369  24.2289

     occupation numbers 
     1.0000   0.0000   0.0000   0.0000   0.0000   0.0000

          k =-0.0442 0.1326-0.0442 (   447 PWs)   bands (ev):

    -2.7560  17.7625  19.3406  20.4251  22.6560  24.6564

     occupation numbers 
     1.0000   0.0000   0.0000   0.0000   0.0000   0.0000

          k =-0.0884 0.1768-0.0884 (   458 PWs)   bands (ev):

    -2.2733  15.2207  18.7819  20.1480  23.1574  24.1675

     occupation numbers 
     1.0000   0.0000   0.0000   0.0000   0.0000   0.0000

          k =-0.1326 0.2210-0.1326 (   452 PWs)   bands (ev):

    -1.5720  12.7616  18.4004  19.8509  22.0511  24.3232

     occupation numbers 
     1.0000   0.0000   0.0000   0.0000   0.0000   0.0000

          k =-0.1768 0.2652-0.1768 (   449 PWs)   bands (ev):

    -0.6569  10.4364  18.1987  19.6808  20.8631  24.1643

     occupation numbers 
     1.0000   0.0000   0.0000   0.0000   0.0000   0.0000

          k =-0.2210 0.3094-0.2210 (   443 PWs)   bands (ev):

     0.4660   8.2665  18.1779  19.6449  19.8687  23.1688

     occupation numbers 
     1.0000   0.7916   0.0000   0.0000   0.0000   0.0000

          k =-0.2652 0.3536-0.2652 (   447 PWs)   bands (ev):

     1.7897   6.2641  18.3391  18.9679  19.8767  22.3381

     occupation numbers 
     1.0000   1.0000   0.0000   0.0000   0.0000   0.0000

          k = 0.3977-0.3094 0.3977 (   449 PWs)   bands (ev):

     3.2988   4.4463  18.3093  18.6836  20.2374  21.6863

     occupation numbers 
     1.0000   1.0000   0.0000   0.0000   0.0000   0.0000

          k = 0.3536-0.2652 0.3536 (   447 PWs)   bands (ev):

     2.7782   5.0285  17.8354  19.2123  20.7863  21.2175

     occupation numbers 
     1.0000   1.0000   0.0000   0.0000   0.0000   0.0000

          k = 0.3094-0.2210 0.3094 (   443 PWs)   bands (ev):

     1.3267   6.9117  17.5487  19.9225  20.9351  21.5179

     occupation numbers 
     1.0000   1.0000   0.0000   0.0000   0.0000   0.0000

          k = 0.2652-0.1768 0.2652 (   445 PWs)   bands (ev):

     0.0690   8.9703  17.4495  20.7064  20.9436  22.4229

     occupation numbers 
     1.0000   0.0002   0.0000   0.0000   0.0000   0.0000

          k = 0.2210-0.1326 0.2210 (   451 PWs)   bands (ev):

    -0.9854  11.1915  17.5374  20.8655  21.9267  23.4495

     occupation numbers 
     1.0000   0.0000   0.0000   0.0000   0.0000   0.0000

          k = 0.1768-0.0884 0.1768 (   453 PWs)   bands (ev):

    -1.8298  13.5581  17.8135  21.1049  23.1036  23.8758

     occupation numbers 
     1.0000   0.0000   0.0000   0.0000   0.0000   0.0000

          k = 0.1326-0.0442 0.1326 (   453 PWs)   bands (ev):

    -2.4587  16.0282  18.2882  21.4627  23.5437  23.9644

     occupation numbers 
     1.0000   0.0000   0.0000   0.0000   0.0000   0.0000

          k = 0.0884 0.0000 0.0884 (   449 PWs)   bands (ev):

    -2.8678  18.3365  19.1392  21.6168  22.9156  23.8118

     occupation numbers 
     1.0000   0.0000   0.0000   0.0000   0.0000   0.0000

          k = 0.0000 0.1768 0.0000 (   451 PWs)   bands (ev):

    -2.5700  18.5272  18.5272  18.7073  21.6734  23.4208

     occupation numbers 
     1.0000   0.0000   0.0000   0.0000   0.0000   0.0000

          k =-0.0442 0.2210-0.0442 (   456 PWs)   bands (ev):

    -2.1621  16.2228  17.8958  19.0555  21.6161  21.9577

     occupation numbers 
     1.0000   0.0000   0.0000   0.0000   0.0000   0.0000

          k =-0.0884 0.2652-0.0884 (   451 PWs)   bands (ev):

    -1.5351  13.7840  17.4471  18.9870  20.2810  22.8783

     occupation numbers 
     1.0000   0.0000   0.0000   0.0000   0.0000   0.0000

          k =-0.1326 0.3094-0.1326 (   446 PWs)   bands (ev):

    -0.6932  11.4375  17.1807  18.7178  19.1142  24.3459

     occupation numbers 
     1.0000   0.0000   0.0000   0.0000   0.0000   0.0000

          k =-0.1768 0.3536-0.1768 (   450 PWs)   bands (ev):

     0.3580   9.2293  17.0965  17.8025  18.8856  25.0683

     occupation numbers 
     1.0000   0.0000   0.0000   0.0000   0.0000   0.0000

          k =-0.2210 0.3977-0.2210 (   443 PWs)   bands (ev):

     1.6117   7.1799  16.8925  17.1946  19.0064  24.1906

     occupation numbers 
     1.0000   1.0000   0.0000   0.0000   0.0000   0.0000

          k = 0.4419-0.2652 0.4419 (   447 PWs)   bands (ev):

     3.0576   5.3043  16.1608  17.4759  19.3238  23.4826

     occupation numbers 
     1.0000   1.0000   0.0000   0.0000   0.0000   0.0000

          k = 0.3977-0.2210 0.3977 (   447 PWs)   bands (ev):

     3.5757   4.7238  15.6190  17.9413  19.8334  22.9540

     occupation numbers 
     1.0000   1.0000   0.0000   0.0000   0.0000   0.0000

          k = 0.3536-0.1768 0.3536 (   447 PWs)   bands (ev):

     2.0733   6.5305  15.2713  18.5913  20.5313  22.6076

     occupation numbers 
     1.0000   1.0000   0.0000   0.0000   0.0000   0.0000

          k = 0.3094-0.1326 0.3094 (   444 PWs)   bands (ev):

     0.7538   8.5175  15.1221  19.4242  21.4108  22.4437

     occupation numbers 
     1.0000   0.1815   0.0000   0.0000   0.0000   0.0000

          k = 0.2652-0.0884 0.2652 (   451 PWs)   bands (ev):

    -0.3659  10.6562  15.1808  20.4313  22.4581  22.4604

     occupation numbers 
     1.0000   0.0000   0.0000   0.0000   0.0000   0.0000

          k = 0.2210-0.0442 0.2210 (   453 PWs)   bands (ev):

    -1.2782  12.8933  15.4852  21.5767  22.6176  23.6587

     occupation numbers 
     1.0000   0.0000   0.0000   0.0000   0.0000   0.0000

          k = 0.1768 0.0000 0.1768 (   451 PWs)   bands (ev):

    -1.9773  14.9230  16.3108  22.4871  22.7163  24.1671

     occupation numbers 
     1.0000   0.0000   0.0000   0.0000   0.0000   0.0000

          k = 0.0000 0.2652 0.0000 (   447 PWs)   bands (ev):

    -1.8295  17.1825  17.1969  17.1969  20.0402  20.7354

     occupation numbers 
     1.0000   0.0000   0.0000   0.0000   0.0000   0.0000

          k =-0.0442 0.3094-0.0442 (   450 PWs)   bands (ev):

    -1.2779  14.9110  16.6834  17.7455  18.5135  20.8418

     occupation numbers 
     1.0000   0.0000   0.0000   0.0000   0.0000   0.0000

          k =-0.0884 0.3536-0.0884 (   447 PWs)   bands (ev):

    -0.5110  12.5919  16.3538  17.0403  17.9481  21.9443

     occupation numbers 
     1.0000   0.0000   0.0000   0.0000   0.0000   0.0000

          k =-0.1326 0.3977-0.1326 (   445 PWs)   bands (ev):

     0.4661  10.3668  15.8760  16.2070  17.9219  23.5517

     occupation numbers 
     1.0000   0.0000   0.0000   0.0000   0.0000   0.0000

          k =-0.1768 0.4419-0.1768 (   444 PWs)   bands (ev):

     1.6468   8.2824  14.8811  16.2425  18.0226  25.3587

     occupation numbers 
     1.0000   0.7508   0.0000   0.0000   0.0000   0.0000

          k = 0.4861-0.2210 0.4861 (   445 PWs)   bands (ev):

     3.0219   6.3611  14.0749  16.4606  18.2970  25.4729

     occupation numbers 
     1.0000   1.0000   0.0000   0.0000   0.0000   0.0000

          k = 0.4419-0.1768 0.4419 (   445 PWs)   bands (ev):

     4.4414   4.7563  13.4647  16.8624  18.7605  24.8885

     occupation numbers 
     1.0000   1.0000   0.0000   0.0000   0.0000   0.0000

          k = 0.3977-0.1326 0.3977 (   444 PWs)   bands (ev):

     3.0236   6.3476  13.0581  17.4487  19.4142  24.4834

     occupation numbers 
     1.0000   1.0000   0.0000   0.0000   0.0000   0.0000

          k = 0.3536-0.0884 0.3536 (   442 PWs)   bands (ev):

     1.6473   8.2437  12.8701  18.2200  20.2524  24.2563

     occupation numbers 
     1.0000   0.8464   0.0000   0.0000   0.0000   0.0000

          k = 0.3094-0.0442 0.3094 (   441 PWs)   bands (ev):

     0.4661  10.2371  12.9543  19.1753  21.2626  24.1836

     occupation numbers 
     1.0000   0.0000   0.0000   0.0000   0.0000   0.0000

          k = 0.2652 0.0000 0.2652 (   449 PWs)   bands (ev):

    -0.5112  11.9931  13.6296  20.3080  22.4204  23.9321

     occupation numbers 
     1.0000   0.0000   0.0000   0.0000   0.0000   0.0000

          k = 0.0000 0.3536 0.0000 (   456 PWs)   bands (ev):

    -0.8023  15.8969  16.1068  16.1068  16.8211  19.8078

     occupation numbers 
     1.0000   0.0000   0.0000   0.0000   0.0000   0.0000

          k =-0.0442 0.3977-0.0442 (   445 PWs)   bands (ev):

    -0.1115  13.8432  15.3549  15.7149  16.7405  19.9757

     occupation numbers 
     1.0000   0.0000   0.0000   0.0000   0.0000   0.0000

          k =-0.0884 0.4419-0.0884 (   447 PWs)   bands (ev):

     0.7895  11.6505  14.0959  15.5061  16.9811  21.1714

     occupation numbers 
     1.0000   0.0000   0.0000   0.0000   0.0000   0.0000

          k =-0.1326 0.4861-0.1326 (   444 PWs)   bands (ev):

     1.8945   9.5540  13.0221  15.4795  17.1178  22.9039

     occupation numbers 
     1.0000   0.0000   0.0000   0.0000   0.0000   0.0000

          k = 0.5303-0.1768 0.5303 (   447 PWs)   bands (ev):

     3.1941   7.6009  12.1414  15.6350  17.3645  24.8868

     occupation numbers 
     1.0000   1.0016   0.0000   0.0000   0.0000   0.0000

          k = 0.4861-0.1326 0.4861 (   446 PWs)   bands (ev):

     4.6626   5.8267  11.4639  15.9733  17.7835  26.9366

     occupation numbers 
     1.0000   1.0000   0.0000   0.0000   0.0000   0.0000

          k = 0.4419-0.0884 0.4419 (   449 PWs)   bands (ev):

     4.1686   6.3547  11.0071  16.4956  18.3898  26.5552

     occupation numbers 
     1.0000   1.0000   0.0000   0.0000   0.0000   0.0000

          k = 0.3977-0.0442 0.3977 (   441 PWs)   bands (ev):

     2.7432   8.1002  10.8304  17.2031  19.1819  26.2710

     occupation numbers 
     1.0000   1.0618   0.0000   0.0000   0.0000   0.0000

          k = 0.3536 0.0000 0.3536 (   443 PWs)   bands (ev):

     1.5049   9.6015  11.2781  18.0965  20.1479  25.9412

     occupation numbers 
     1.0000   0.0000   0.0000   0.0000   0.0000   0.0000

          k = 0.0000 0.4419 0.0000 (   444 PWs)   bands (ev):

     0.5022  13.8088  14.8842  15.2613  15.2613  19.0043

     occupation numbers 
     1.0000   0.0000   0.0000   0.0000   0.0000   0.0000

          k =-0.0442 0.4861-0.0442 (   444 PWs)   bands (ev):

     1.3256  12.4193  13.0916  14.9910  15.9247  19.2758

     occupation numbers 
     1.0000   0.0000   0.0000   0.0000   0.0000   0.0000

          k =-0.0884 0.5303-0.0884 (   446 PWs)   bands (ev):

     2.3520  10.8683  11.4421  14.9028  16.2919  20.5931

     occupation numbers 
     1.0000   0.0000   0.0000   0.0000   0.0000   0.0000

          k = 0.5745-0.1326 0.5745 (   449 PWs)   bands (ev):

     3.5710   8.9798  10.4176  14.9963  16.5674  22.4538

     occupation numbers 
     1.0000   0.0002   0.0000   0.0000   0.0000   0.0000

          k = 0.5303-0.0884 0.5303 (   442 PWs)   bands (ev):

     4.9593   7.1819   9.6650  15.2718  16.9568  24.5789

     occupation numbers 
     1.0000   1.0000   0.0000   0.0000   0.0000   0.0000

          k = 0.4861-0.0442 0.4861 (   448 PWs)   bands (ev):

     5.4907   6.5084   9.1977  15.7304  17.5181  26.8274

     occupation numbers 
     1.0000   1.0000   0.0000   0.0000   0.0000   0.0000

          k = 0.4419 0.0000 0.4419 (   443 PWs)   bands (ev):

     4.0327   7.7519   9.3667  16.3736  18.2624  28.4695

     occupation numbers 
     1.0000   1.0132   0.0000   0.0000   0.0000   0.0000

          k = 0.0000 0.5303 0.0000 (   448 PWs)   bands (ev):

     2.0696  11.0244  14.1562  14.6595  14.6595  18.3898

     occupation numbers 
     1.0000   0.0000   0.0000   0.0000   0.0000   0.0000

          k =-0.0442 0.5745-0.0442 (   451 PWs)   bands (ev):

     3.0137   9.7874  12.5299  14.5101  15.3830  18.7865

     occupation numbers 
     1.0000   0.0000   0.0000   0.0000   0.0000   0.0000

          k = 0.6187-0.0884 0.6187 (   452 PWs)   bands (ev):

     4.1417   8.7510  10.6431  14.5420  15.8739  20.2359

     occupation numbers 
     1.0000   0.0117   0.0000   0.0000   0.0000   0.0000

          k = 0.5745-0.0442 0.5745 (   445 PWs)   bands (ev):

     5.4009   7.9236   8.8915  14.7553  16.2883  22.2238

     occupation numbers 
     1.0000   1.0601   0.0011   0.0000   0.0000   0.0000

          k = 0.5303 0.0000 0.5303 (   440 PWs)   bands (ev):

     6.4384   6.9355   8.0547  15.1509  16.8191  24.4731

     occupation numbers 
     1.0000   1.0000   1.0806   0.0000   0.0000   0.0000

          k = 0.0000 0.6187 0.0000 (   452 PWs)   bands (ev):

     3.8664   8.4994  13.7180  14.2996  14.2996  18.0058

     occupation numbers 
     1.0000   0.2120   0.0000   0.0000   0.0000   0.0000

          k = 0.6629-0.0442 0.6629 (   450 PWs)   bands (ev):

     4.8640   7.4557  12.2584  14.2702  15.1120  18.5355

     occupation numbers 
     1.0000   1.0001   0.0000   0.0000   0.0000   0.0000

          k = 0.6187 0.0000 0.6187 (   450 PWs)   bands (ev):

     5.6539   7.0094  10.4971  14.4219  15.7338  20.1153

     occupation numbers 
     1.0000   1.0000   0.0000   0.0000   0.0000   0.0000

          k = 0.0000-0.7071 0.0000 (   444 PWs)   bands (ev):

     5.3930   6.7305  13.5717  14.1798  14.1798  17.8755

     occupation numbers 
     1.0000   1.0000   0.0000   0.0000   0.0000   0.0000

          k =-0.0884 0.1768 0.0000 (   457 PWs)   bands (ev):

    -2.4216  16.6463  17.7047  20.7690  22.4431  23.6102

     occupation numbers 
     1.0000   0.0000   0.0000   0.0000   0.0000   0.0000

          k =-0.1326 0.2210-0.0442 (   455 PWs)   bands (ev):

    -1.8666  14.4673  16.8865  20.8597  21.8563  23.4800

     occupation numbers 
     1.0000   0.0000   0.0000   0.0000   0.0000   0.0000

          k =-0.1768 0.2652-0.0884 (   449 PWs)   bands (ev):

    -1.0950  12.1113  16.5014  20.5593  20.6991  24.5587

     occupation numbers 
     1.0000   0.0000   0.0000   0.0000   0.0000   0.0000

          k =-0.2210 0.3094-0.1326 (   445 PWs)   bands (ev):

    -0.1119   9.8584  16.3330  19.4040  20.6122  23.7354

     occupation numbers 
     1.0000   0.0000   0.0000   0.0000   0.0000   0.0000

          k =-0.2652 0.3536-0.1768 (   441 PWs)   bands (ev):

     1.0765   7.7542  16.3587  18.4281  20.6800  22.7885

     occupation numbers 
     1.0000   1.0136   0.0000   0.0000   0.0000   0.0000

          k = 0.3977-0.3094 0.4861 (   446 PWs)   bands (ev):

     2.4619   5.8171  16.5671  17.6485  20.9139  22.0128

     occupation numbers 
     1.0000   1.0000   0.0000   0.0000   0.0000   0.0000

          k = 0.3536-0.2652 0.4419 (   446 PWs)   bands (ev):

     3.9103   4.1845  16.8332  17.1919  21.1967  21.5477

     occupation numbers 
     1.0000   1.0000   0.0000   0.0000   0.0000   0.0000

          k =-0.0884 0.2652 0.0000 (   449 PWs)   bands (ev):

    -1.6822  15.1925  16.3852  19.4369  20.1674  21.6846

     occupation numbers 
     1.0000   0.0000   0.0000   0.0000   0.0000   0.0000

          k =-0.1326 0.3094-0.0442 (   450 PWs)   bands (ev):

    -0.9851  13.1468  15.6474  18.7466  19.7175  22.5095

     occupation numbers 
     1.0000   0.0000   0.0000   0.0000   0.0000   0.0000

          k =-0.1768 0.3536-0.0884 (   448 PWs)   bands (ev):

    -0.0755  10.9131  15.3632  17.5107  19.7242  23.9637

     occupation numbers 
     1.0000   0.0000   0.0000   0.0000   0.0000   0.0000

          k =-0.2210 0.3977-0.1326 (   445 PWs)   bands (ev):

     1.0405   8.7814  15.2900  16.4772  19.7846  24.6086

     occupation numbers 
     1.0000   0.0074   0.0000   0.0000   0.0000   0.0000

          k = 0.4419-0.2652 0.5303 (   443 PWs)   bands (ev):

     2.3555   6.8012  15.2686  15.7831  19.9930  23.8514

     occupation numbers 
     1.0000   1.0000   0.0000   0.0000   0.0000   0.0000

          k = 0.3977-0.2210 0.4861 (   443 PWs)   bands (ev):

     3.8502   5.0022  14.8077  15.9171  20.3737  23.2011

     occupation numbers 
     1.0000   1.0000   0.0000   0.0000   0.0000   0.0000

          k = 0.3536-0.1768 0.4419 (   441 PWs)   bands (ev):

     3.3368   5.5744  14.3574  16.4302  20.9293  22.7262

     occupation numbers 
     1.0000   1.0000   0.0000   0.0000   0.0000   0.0000

          k = 0.3094-0.1326 0.3977 (   443 PWs)   bands (ev):

     1.8959   7.4345  14.0894  17.1540  21.6328  22.4554

     occupation numbers 
     1.0000   1.0001   0.0000   0.0000   0.0000   0.0000

          k = 0.2652-0.0884 0.3536 (   444 PWs)   bands (ev):

     0.6460   9.4522  14.0302  18.0711  22.1244  22.7209

     occupation numbers 
     1.0000   0.0000   0.0000   0.0000   0.0000   0.0000

          k = 0.2210-0.0442 0.3094 (   449 PWs)   bands (ev):

    -0.4021  11.5667  14.2284  19.1734  22.1544  23.6017

     occupation numbers 
     1.0000   0.0000   0.0000   0.0000   0.0000   0.0000

          k = 0.1768 0.0000 0.2652 (   451 PWs)   bands (ev):

    -1.2414  13.4589  14.9812  20.4478  21.8784  23.3999

     occupation numbers 
     1.0000   0.0000   0.0000   0.0000   0.0000   0.0000

          k =-0.0884 0.3536 0.0000 (   451 PWs)   bands (ev):

    -0.6565  13.9936  15.2558  17.0116  18.2768  20.7732

     occupation numbers 
     1.0000   0.0000   0.0000   0.0000   0.0000   0.0000

          k =-0.1326 0.3977-0.0442 (   448 PWs)   bands (ev):

     0.1777  12.0805  14.5847  15.7347  18.7069  21.6806

     occupation numbers 
     1.0000   0.0000   0.0000   0.0000   0.0000   0.0000

          k =-0.1768 0.4419-0.0884 (   448 PWs)   bands (ev):

     1.2191   9.9725  14.2164  14.8131  18.8626  23.2724

     occupation numbers 
     1.0000   0.0000   0.0000   0.0000   0.0000   0.0000

          k = 0.4861-0.2210 0.5745 (   444 PWs)   bands (ev):

     2.4601   7.9677  13.4926  14.6712  19.0615  25.0469

     occupation numbers 
     1.0000   1.0740   0.0000   0.0000   0.0000   0.0000

          k = 0.4419-0.1768 0.5303 (   447 PWs)   bands (ev):

     3.8877   6.1211  12.7828  14.9157  19.4063  25.1822

     occupation numbers 
     1.0000   1.0000   0.0000   0.0000   0.0000   0.0000

          k = 0.3977-0.1326 0.4861 (   445 PWs)   bands (ev):

     4.4003   5.5413  12.2529  15.3815  19.9239  24.6802

     occupation numbers 
     1.0000   1.0000   0.0000   0.0000   0.0000   0.0000

          k = 0.3536-0.0884 0.4419 (   438 PWs)   bands (ev):

     2.9184   7.2985  11.9370  16.0469  20.6184  24.3087

     occupation numbers 
     1.0000   1.0000   0.0000   0.0000   0.0000   0.0000

          k = 0.3094-0.0442 0.3977 (   439 PWs)   bands (ev):

     1.6116   9.1687  11.8957  16.9046  21.4816  24.0464

     occupation numbers 
     1.0000   0.0000   0.0000   0.0000   0.0000   0.0000

          k = 0.2652 0.0000 0.3536 (   444 PWs)   bands (ev):

     0.5021  10.7958  12.4623  17.9493  22.4846  23.5352

     occupation numbers 
     1.0000   0.0000   0.0000   0.0000   0.0000   0.0000

          k =-0.0884 0.4419 0.0000 (   445 PWs)   bands (ev):

     0.6460  13.0568  13.8121  14.5845  17.3612  19.9995

     occupation numbers 
     1.0000   0.0000   0.0000   0.0000   0.0000   0.0000

          k =-0.1326 0.4861-0.0442 (   446 PWs)   bands (ev):

     1.6104  11.2637  12.6921  13.9998  17.9269  21.0151

     occupation numbers 
     1.0000   0.0000   0.0000   0.0000   0.0000   0.0000

          k = 0.5303-0.1768 0.6187 (   445 PWs)   bands (ev):

     2.7741   9.2878  11.7190  13.9251  18.2208  22.7335

     occupation numbers 
     1.0000   0.0000   0.0000   0.0000   0.0000   0.0000

          k = 0.4861-0.1326 0.5745 (   444 PWs)   bands (ev):

     4.1241   7.4198  10.9166  14.1150  18.5556  24.7497

     occupation numbers 
     1.0000   1.0001   0.0000   0.0000   0.0000   0.0000

          k = 0.4419-0.0884 0.5303 (   449 PWs)   bands (ev):

     5.4990   5.8497  10.3256  14.5187  19.0350  26.5180

     occupation numbers 
     1.0000   1.0000   0.0000   0.0000   0.0000   0.0000

          k = 0.3977-0.0442 0.4861 (   445 PWs)   bands (ev):

     4.1351   7.2982  10.0104  15.1224  19.6850  26.3609

     occupation numbers 
     1.0000   1.0000   0.0000   0.0000   0.0000   0.0000

          k = 0.3536 0.0000 0.4419 (   438 PWs)   bands (ev):

     2.7780   8.6752  10.3242  15.9195  20.5067  25.7245

     occupation numbers 
     1.0000   0.0332   0.0000   0.0000   0.0000   0.0000

          k =-0.0884 0.5303 0.0000 (   449 PWs)   bands (ev):

     2.2109  11.1391  12.3858  13.8531  16.7049  19.4122

     occupation numbers 
     1.0000   0.0000   0.0000   0.0000   0.0000   0.0000

          k = 0.5745-0.1326 0.6629 (   449 PWs)   bands (ev):

     3.2928  10.0011  10.8171  13.4406  17.4008  20.5522

     occupation numbers 
     1.0000   0.0000   0.0000   0.0000   0.0000   0.0000

          k = 0.5303-0.0884 0.6187 (   443 PWs)   bands (ev):

     4.5530   8.7399   9.3771  13.5216  17.8289  22.3971

     occupation numbers 
     1.0000   0.0138   0.0000   0.0000   0.0000   0.0000

          k = 0.4861-0.0442 0.5745 (   444 PWs)   bands (ev):

     5.9276   7.1138   8.6718  13.8506  18.2977  24.5560

     occupation numbers 
     1.0000   1.0000   0.0347   0.0000   0.0000   0.0000

          k = 0.4419 0.0000 0.5303 (   445 PWs)   bands (ev):

     5.5315   7.0942   8.6727  14.3881  18.9089  26.8002

     occupation numbers 
     1.0000   1.0000   0.0343   0.0000   0.0000   0.0000

          k = 0.6187-0.0884 0.7071 (   452 PWs)   bands (ev):

     4.0042   8.6308  11.9825  13.4640  16.3111  19.0469

     occupation numbers 
     1.0000   0.0571   0.0000   0.0000   0.0000   0.0000

          k = 0.5745-0.0442 0.6629 (   449 PWs)   bands (ev):

     5.1331   7.7238  10.5108  13.1754  17.1365  20.3153

     occupation numbers 
     1.0000   1.0094   0.0000   0.0000   0.0000   0.0000

          k = 0.5303-0.0000 0.6187 (   447 PWs)   bands (ev):

     6.0458   7.3905   8.8605  13.3894  17.6973  22.2831

     occupation numbers 
     1.0000   1.0000   0.0020   0.0000   0.0000   0.0000

          k =-0.0884-0.7071 0.0000 (   454 PWs)   bands (ev):

     5.5234   6.8719  11.8480  13.3357  16.1798  18.9230

     occupation numbers 
     1.0000   1.0000   0.0000   0.0000   0.0000   0.0000

          k =-0.1768 0.3536 0.0000 (   448 PWs)   bands (ev):

    -0.2204  12.2596  13.8330  17.3969  20.8019  22.6574

     occupation numbers 
     1.0000   0.0000   0.0000   0.0000   0.0000   0.0000

          k =-0.2210 0.3977-0.0442 (   445 PWs)   bands (ev):

     0.7538  10.4992  13.1773  16.2195  21.2680  23.6876

     occupation numbers 
     1.0000   0.0000   0.0000   0.0000   0.0000   0.0000

          k = 0.4419-0.2652 0.6187 (   442 PWs)   bands (ev):

     1.9309   8.5093  13.0876  15.2357  21.4711  23.6331

     occupation numbers 
     1.0000   0.1949   0.0000   0.0000   0.0000   0.0000

          k = 0.3977-0.2210 0.5745 (   446 PWs)   bands (ev):

     3.3016   6.6189  13.2333  14.4737  21.7355  22.9314

     occupation numbers 
     1.0000   1.0000   0.0000   0.0000   0.0000   0.0000

          k = 0.3536-0.1768 0.5303 (   442 PWs)   bands (ev):

     4.7069   5.0376  13.4035  14.1003  21.9762  22.5286

     occupation numbers 
     1.0000   1.0000   0.0000   0.0000   0.0000   0.0000

          k =-0.1768 0.4419 0.0000 (   445 PWs)   bands (ev):

     1.0761  11.3267  12.8584  14.5032  19.9052  21.9711

     occupation numbers 
     1.0000   0.0000   0.0000   0.0000   0.0000   0.0000

          k = 0.4861-0.2210 0.6629 (   444 PWs)   bands (ev):

     2.1777   9.6936  12.2766  13.4871  20.5276  23.2213

     occupation numbers 
     1.0000   0.0000   0.0000   0.0000   0.0000   0.0000

          k = 0.4419-0.1768 0.6187 (   443 PWs)   bands (ev):

     3.4732   7.8316  12.0677  12.8726  20.8864  24.6314

     occupation numbers 
     1.0000   1.0303   0.0000   0.0000   0.0000   0.0000

          k = 0.3977-0.1326 0.5745 (   442 PWs)   bands (ev):

     4.9358   6.0874  11.6311  12.9559  21.3112  24.3364

     occupation numbers 
     1.0000   1.0000   0.0000   0.0000   0.0000   0.0000

          k = 0.3536-0.0884 0.5303 (   443 PWs)   bands (ev):

     4.4401   6.6248  11.2292  13.4421  21.8737  23.8595

     occupation numbers 
     1.0000   1.0000   0.0000   0.0000   0.0000   0.0000

          k = 0.3094-0.0442 0.4861 (   439 PWs)   bands (ev):

     3.0223   8.3651  11.0682  14.1676  22.5632  23.4547

     occupation numbers 
     1.0000   0.5250   0.0000   0.0000   0.0000   0.0000

          k = 0.2652 0.0000 0.4419 (   445 PWs)   bands (ev):

     1.7889   9.8661  11.5129  15.0984  22.7069  23.3119

     occupation numbers 
     1.0000   0.0000   0.0000   0.0000   0.0000   0.0000

          k = 0.5303-0.1768 0.7071 (   454 PWs)   bands (ev):

     2.6336  10.6605  11.3817  12.5637  19.2528  21.4361

     occupation numbers 
     1.0000   0.0000   0.0000   0.0000   0.0000   0.0000

          k = 0.4861-0.1326 0.6629 (   442 PWs)   bands (ev):

     3.8485   9.1391  10.5505  12.0700  20.0179  22.8226

     occupation numbers 
     1.0000   0.0000   0.0000   0.0000   0.0000   0.0000

          k = 0.4419-0.0884 0.6187 (   444 PWs)   bands (ev):

     5.2317   7.4163   9.8813  12.1920  20.5176  24.7569

     occupation numbers 
     1.0000   1.0001   0.0000   0.0000   0.0000   0.0000

          k = 0.3977-0.0442 0.5745 (   444 PWs)   bands (ev):

     5.7515   6.7744   9.4409  12.6266  21.0773  25.8957

     occupation numbers 
     1.0000   1.0000   0.0000   0.0000   0.0000   0.0000

          k = 0.3536 0.0000 0.5303 (   440 PWs)   bands (ev):

     4.3050   8.0151   9.6149  13.2934  21.7717  25.1414

     occupation numbers 
     1.0000   1.0828   0.0000   0.0000   0.0000   0.0000

          k = 0.5303-0.0884 0.7071 (   448 PWs)   bands (ev):

     4.4164   9.0112  10.2609  12.0310  18.8588  21.1004

     occupation numbers 
     1.0000   0.0001   0.0000   0.0000   0.0000   0.0000

          k = 0.4861-0.0442 0.6629 (   445 PWs)   bands (ev):

     5.6693   8.1997   8.9887  11.7335  19.7599  22.6104

     occupation numbers 
     1.0000   0.9385   0.0002   0.0000   0.0000   0.0000

          k = 0.4419-0.0000 0.6187 (   441 PWs)   bands (ev):

     6.7004   7.1836   8.2906  12.0373  20.3926  24.6977

     occupation numbers 
     1.0000   1.0000   0.7294   0.0000   0.0000   0.0000

          k =-0.1768-0.7071 0.0000 (   452 PWs)   bands (ev):

     5.9150   7.2876  10.1277  11.8817  18.7272  20.9863

     occupation numbers 
     1.0000   1.0000   0.0000   0.0000   0.0000   0.0000

          k = 0.4419-0.1768 0.7071 (   442 PWs)   bands (ev):

     3.3340   9.2032  10.7449  12.4611  22.0715  23.5920

     occupation numbers 
     1.0000   0.0000   0.0000   0.0000   0.0000   0.0000

          k = 0.3977-0.1326 0.6629 (   448 PWs)   bands (ev):

     4.6748   7.8269  10.3955  11.7022  22.8592  24.0142

     occupation numbers 
     1.0000   1.0290   0.0000   0.0000   0.0000   0.0000

          k = 0.3536-0.0884 0.6187 (   446 PWs)   bands (ev):

     6.0256   6.3687  10.4558  11.3671  23.1678  23.7574

     occupation numbers 
     1.0000   1.0000   0.0000   0.0000   0.0000   0.0000

          k = 0.4419-0.0884 0.7071 (   445 PWs)   bands (ev):

     5.0989   8.8059   9.5048  10.8073  21.6828  23.4163

     occupation numbers 
     1.0000   0.0050   0.0000   0.0000   0.0000   0.0000

          k = 0.3977-0.0442 0.6629 (   449 PWs)   bands (ev):

     6.4626   7.5410   9.0301  10.5460  22.6371  24.8770

     occupation numbers 
     1.0000   1.0006   0.0001   0.0000   0.0000   0.0000

          k = 0.3536-0.0000 0.6187 (   447 PWs)   bands (ev):

     6.0419   7.6197   9.1027  10.9429  23.2848  24.7662

     occupation numbers 
     1.0000   1.0022   0.0000   0.0000   0.0000   0.0000

          k =-0.2652-0.7071 0.0000 (   444 PWs)   bands (ev):

     6.5693   7.9316   8.6736  10.5323  21.5524  23.3342

     occupation numbers 
     1.0000   1.0628   0.0339   0.0000   0.0000   0.0000

          k =-0.3536-0.7071 0.0000 (   444 PWs)   bands (ev):

     7.4880   7.4880   8.4463   9.7744  24.6391  24.6395

     occupation numbers 
     1.0002   1.0002   0.3192   0.0000   0.0000   0.0000

     the Fermi energy is     8.4122 ev

!    total energy              =      -4.19088961 Ry
     estimated scf accuracy    <          1.5E-15 Ry
     smearing contrib. (-TS)   =      -0.00000169 Ry
     internal energy E=F+TS    =      -4.19088792 Ry

     The total energy is F=E-TS. E is the sum of the following terms:
     one-electron contribution =       2.95840896 Ry
     hartree contribution      =       0.00995072 Ry
     xc contribution           =      -1.63966551 Ry
     ewald contribution        =      -5.51958209 Ry

     convergence has been achieved in   7 iterations

     Forces acting on atoms (cartesian axes, Ry/au):

     atom    1 type  1   force =     0.00000000    0.00000000    0.00000000
     The non-local contrib.  to forces
     atom    1 type  1   force =     0.00000000    0.00000000   -0.00000000
     The ionic contribution  to forces
     atom    1 type  1   force =     0.00000000    0.00000000    0.00000000
     The local contribution  to forces
     atom    1 type  1   force =     0.00000000   -0.00000000    0.00000000
     The core correction contribution to forces
     atom    1 type  1   force =     0.00000000    0.00000000    0.00000000
     The Hubbard contrib.    to forces
     atom    1 type  1   force =     0.00000000    0.00000000    0.00000000
     The SCF correction term to forces
     atom    1 type  1   force =     0.00000000   -0.00000000    0.00000000

     Total force =     0.000000     Total SCF correction =     0.000000


     Computing stress (Cartesian axis) and pressure

          total   stress  (Ry/bohr**3)                   (kbar)     P=        0.02
   0.00000014  -0.00000000   0.00000000            0.02       -0.00        0.00
  -0.00000000   0.00000014   0.00000000           -0.00        0.02        0.00
   0.00000000   0.00000000   0.00000014            0.00        0.00        0.02

     kinetic stress (kbar)   1705.89      0.00      0.00
                                0.00   1705.89      0.00
                                0.00      0.00   1705.89

     local   stress (kbar)   -103.18      0.00      0.00
                                0.00   -103.18     -0.00
                                0.00     -0.00   -103.18

     nonloc. stress (kbar)   1683.47     -0.00     -0.00
                               -0.00   1683.47     -0.00
                                0.00     -0.00   1683.47

     hartree stress (kbar)      4.67      0.00      0.00
                                0.00      4.67      0.00
                                0.00      0.00      4.67

     exc-cor stress (kbar)   -699.72      0.00      0.00
                                0.00   -699.72      0.00
                                0.00      0.00   -699.72

     corecor stress (kbar)      0.00      0.00      0.00
                                0.00      0.00      0.00
                                0.00      0.00      0.00

     ewald   stress (kbar)  -2591.10      0.00      0.00
                                0.00  -2591.10     -0.00
                                0.00     -0.00  -2591.10

     hubbard stress (kbar)      0.00      0.00      0.00
                                0.00      0.00      0.00
                                0.00      0.00      0.00

     DFT-D   stress (kbar)      0.00      0.00      0.00
                                0.00      0.00      0.00
                                0.00      0.00      0.00

     XDM     stress (kbar)      0.00      0.00      0.00
                                0.00      0.00      0.00
                                0.00      0.00      0.00

     dft-nl  stress (kbar)      0.00      0.00      0.00
                                0.00      0.00      0.00
                                0.00      0.00      0.00

     TS-vdW  stress (kbar)      0.00      0.00      0.00
                                0.00      0.00      0.00
                                0.00      0.00      0.00

     MDB     stress (kbar)      0.00      0.00      0.00
                                0.00      0.00      0.00
                                0.00      0.00      0.00

     3D-RISM stress (kbar)      0.00      0.00      0.00
                                0.00      0.00      0.00
                                0.00      0.00      0.00


     Writing all to output data dir ./tmp/al.save/ :
     XML data file, charge density, pseudopotentials, collected wavefunctions
 
     init_run     :      0.05s CPU      0.07s WALL (       1 calls)
     electrons    :      1.20s CPU      1.38s WALL (       1 calls)
     forces       :      0.00s CPU      0.01s WALL (       1 calls)
     stress       :      0.02s CPU      0.03s WALL (       1 calls)

     Called by init_run:
     wfcinit      :      0.05s CPU      0.06s WALL (       1 calls)
     wfcinit:atom :      0.00s CPU      0.00s WALL (     145 calls)
     wfcinit:wfcr :      0.04s CPU      0.05s WALL (     145 calls)
     potinit      :      0.00s CPU      0.00s WALL (       1 calls)
     hinit0       :      0.00s CPU      0.00s WALL (       1 calls)

     Called by electrons:
     c_bands      :      1.02s CPU      1.18s WALL (       8 calls)
     sum_band     :      0.18s CPU      0.20s WALL (       8 calls)
     v_of_rho     :      0.00s CPU      0.00s WALL (       8 calls)
     v_h          :      0.00s CPU      0.00s WALL (       8 calls)
     v_xc         :      0.00s CPU      0.00s WALL (       8 calls)
     mix_rho      :      0.00s CPU      0.00s WALL (       8 calls)

     Called by c_bands:
     init_us_2    :      0.02s CPU      0.02s WALL (    2755 calls)
     cegterg      :      0.99s CPU      1.15s WALL (    1160 calls)

     Called by sum_band:
     sum_band:wei :      0.01s CPU      0.01s WALL (       8 calls)
     sum_band:loo :      0.16s CPU      0.18s WALL (       8 calls)
     sum_band:buf :      0.00s CPU      0.00s WALL (    1160 calls)
     sum_band:ini :      0.01s CPU      0.01s WALL (    1160 calls)

     Called by *egterg:
     cdiaghg      :      0.10s CPU      0.12s WALL (    3579 calls)
     cegterg:over :      0.04s CPU      0.05s WALL (    2564 calls)
     cegterg:upda :      0.01s CPU      0.01s WALL (    2564 calls)
     cegterg:last :      0.01s CPU      0.01s WALL (    2078 calls)
     h_psi        :      0.80s CPU      0.93s WALL (    3869 calls)
     g_psi        :      0.00s CPU      0.01s WALL (    2564 calls)

     Called by h_psi:
     h_psi:calbec :      0.03s CPU      0.04s WALL (    3869 calls)
     vloc_psi     :      0.73s CPU      0.85s WALL (    3869 calls)
                                        0.00s GPU  (    3869 calls)
     add_vuspsi   :      0.01s CPU      0.01s WALL (    3869 calls)

     General routines
     calbec       :      0.03s CPU      0.04s WALL (    6334 calls)
     fft          :      0.00s CPU      0.00s WALL (      29 calls)
     ffts         :      0.00s CPU      0.00s WALL (       8 calls)
     fftw         :      0.78s CPU      0.90s WALL (   42930 calls)
 
     Parallel routines
 
     PWSCF        :      1.31s CPU      1.54s WALL

 
   This run was terminated on:  22: 7:34  22Sep2026            

=------------------------------------------------------------------------------=
   JOB DONE.
=------------------------------------------------------------------------------=
