
     Program PWSCF v.7.5 starts on 22Sep2026 at 21:32:26 

     This program is part of the open-source Quantum ESPRESSO suite
     for quantum simulation of materials; please cite
         "P. Giannozzi et al., J. Phys.:Condens. Matter 21 395502 (2009);
         "P. Giannozzi et al., J. Phys.:Condens. Matter 29 465901 (2017);
         "P. Giannozzi et al., J. Chem. Phys. 152 154105 (2020);
          URL http://www.quantum-espresso.org", 
     in publications or presentations arising from this work. More details at
     http://www.quantum-espresso.org/quote

     Parallel version (MPI), running on     4 processors

     MPI processes distributed on     1 nodes
     8212 MiB available memory on the printing compute node when the environment starts

     Reading input from scf.in

     Current dimensions of program PWSCF are:
     Max number of different atomic species (ntypx) = 10
     Max number of k-points (npk) =  40000
     Max angular momentum in pseudopotentials (lmaxx) =  4

     R & G space division:  proc/nbgrp/npool/nimage =       4
     Subspace diagonalization in iterative solution of the eigenvalue problem:
     a serial algorithm will be used


     Parallelization info
     --------------------
     sticks:   dense  smooth     PW     G-vecs:    dense   smooth      PW
     Min         571     145     46                18093     2295     409
     Max         572     146     47                18095     2297     411
     Sum        2287     583    187                72377     9185    1639

     Using Slab Decomposition



     bravais-lattice index     =            2
     lattice parameter (alat)  =      10.2000  a.u.
     unit-cell volume          =     265.3020 (a.u.)^3
     number of atoms/cell      =            2
     number of atomic types    =            1
     number of electrons       =         8.00
     number of Kohn-Sham states=            4
     kinetic-energy cutoff     =      40.0000  Ry
     charge density cutoff     =     640.0000  Ry
     scf convergence threshold =      1.0E-10
     mixing beta               =       0.7000
     number of iterations used =            8  plain     mixing
     Exchange-correlation= PBE
                           (   1   4   3   4   0   0   0)

     celldm(1)=  10.200000  celldm(2)=   0.000000  celldm(3)=   0.000000
     celldm(4)=   0.000000  celldm(5)=   0.000000  celldm(6)=   0.000000

     crystal axes: (cart. coord. in units of alat)
               a(1) = (  -0.500000   0.000000   0.500000 )  
               a(2) = (   0.000000   0.500000   0.500000 )  
               a(3) = (  -0.500000   0.500000   0.000000 )  

     reciprocal axes: (cart. coord. in units 2 pi/alat)
               b(1) = ( -1.000000 -1.000000  1.000000 )  
               b(2) = (  1.000000  1.000000  1.000000 )  
               b(3) = ( -1.000000  1.000000 -1.000000 )  


     PseudoPot. # 1 for Si read from file:
     ../pseudo/Si.pbe-n-rrkjus_psl.1.0.0.UPF
     MD5 check sum: fa25574f73a70a4139f2adfbefec430c
     Pseudo is Ultrasoft + core correction, Zval =  4.0
     Generated using &quot;atomic&quot; code by A. Dal Corso  v.6.3
     Using radial grid of 1141 points,  6 beta functions with: 
                l(1) =   0
                l(2) =   0
                l(3) =   1
                l(4) =   1
                l(5) =   2
                l(6) =   2
     Q(r) pseudized with 0 coefficients 


     atomic species   valence    mass     pseudopotential
     Si                4.00    28.08500     Si( 1.00)

     48 Sym. Ops., with inversion, found (24 have fractional translation)



   Cartesian axes

     site n.     atom                  positions (alat units)
         1        Si     tau(   1) = (   0.0000000   0.0000000   0.0000000  )
         2        Si     tau(   2) = (   0.2500000   0.2500000   0.2500000  )

     number of k points=    29
                       cart. coord. in units 2pi/alat
        k(    1) = (   0.0000000   0.0000000   0.0000000), wk =   0.0039062
        k(    2) = (  -0.1250000   0.1250000  -0.1250000), wk =   0.0312500
        k(    3) = (  -0.2500000   0.2500000  -0.2500000), wk =   0.0312500
        k(    4) = (  -0.3750000   0.3750000  -0.3750000), wk =   0.0312500
        k(    5) = (   0.5000000  -0.5000000   0.5000000), wk =   0.0156250
        k(    6) = (   0.0000000   0.2500000   0.0000000), wk =   0.0234375
        k(    7) = (  -0.1250000   0.3750000  -0.1250000), wk =   0.0937500
        k(    8) = (  -0.2500000   0.5000000  -0.2500000), wk =   0.0937500
        k(    9) = (   0.6250000  -0.3750000   0.6250000), wk =   0.0937500
        k(   10) = (   0.5000000  -0.2500000   0.5000000), wk =   0.0937500
        k(   11) = (   0.3750000  -0.1250000   0.3750000), wk =   0.0937500
        k(   12) = (   0.2500000   0.0000000   0.2500000), wk =   0.0468750
        k(   13) = (   0.0000000   0.5000000   0.0000000), wk =   0.0234375
        k(   14) = (  -0.1250000   0.6250000  -0.1250000), wk =   0.0937500
        k(   15) = (   0.7500000  -0.2500000   0.7500000), wk =   0.0937500
        k(   16) = (   0.6250000  -0.1250000   0.6250000), wk =   0.0937500
        k(   17) = (   0.5000000   0.0000000   0.5000000), wk =   0.0468750
        k(   18) = (   0.0000000   0.7500000   0.0000000), wk =   0.0234375
        k(   19) = (   0.8750000  -0.1250000   0.8750000), wk =   0.0937500
        k(   20) = (   0.7500000   0.0000000   0.7500000), wk =   0.0468750
        k(   21) = (   0.0000000  -1.0000000   0.0000000), wk =   0.0117188
        k(   22) = (  -0.2500000   0.5000000   0.0000000), wk =   0.0937500
        k(   23) = (   0.6250000  -0.3750000   0.8750000), wk =   0.1875000
        k(   24) = (   0.5000000  -0.2500000   0.7500000), wk =   0.0937500
        k(   25) = (   0.7500000  -0.2500000   1.0000000), wk =   0.0937500
        k(   26) = (   0.6250000  -0.1250000   0.8750000), wk =   0.1875000
        k(   27) = (   0.5000000   0.0000000   0.7500000), wk =   0.0937500
        k(   28) = (  -0.2500000  -1.0000000   0.0000000), wk =   0.0468750
        k(   29) = (  -0.5000000  -1.0000000   0.0000000), wk =   0.0234375

     Dense  grid:    72377 G-vectors     FFT dimensions: (  60,  60,  60)

     Smooth grid:     9185 G-vectors     FFT dimensions: (  32,  32,  32)

     Estimated max dynamical RAM per process >      69.31 MB

     Estimated total dynamical RAM >     277.25 MB

     Initial potential from superposition of free atoms

     starting charge       7.9989, renormalised to       8.0000
     Starting wfcs are    8 randomized atomic wfcs

     total cpu time spent up to now is        2.2 secs

     per-process dynamical memory:    25.3 Mb

     Self-consistent Calculation

     iteration #  1     ecut=    40.00 Ry     beta= 0.70
     Davidson diagonalization with overlap
     ethr =  1.00E-02,  avg # of iterations =  2.0

     Threshold (ethr) on eigenvalues was too large:
     Diagonalizing with lowered threshold

     Davidson diagonalization with overlap
     ethr =  6.42E-04,  avg # of iterations =  1.5

     total cpu time spent up to now is        4.6 secs

     total energy              =     -22.83566824 Ry
     estimated scf accuracy    <       0.05558592 Ry

     iteration #  2     ecut=    40.00 Ry     beta= 0.70
     Davidson diagonalization with overlap
     ethr =  6.95E-04,  avg # of iterations =  1.0

     total cpu time spent up to now is        5.7 secs

     total energy              =     -22.83760638 Ry
     estimated scf accuracy    <       0.00284597 Ry

     iteration #  3     ecut=    40.00 Ry     beta= 0.70
     Davidson diagonalization with overlap
     ethr =  3.56E-05,  avg # of iterations =  2.7

     total cpu time spent up to now is        7.1 secs

     total energy              =     -22.83840273 Ry
     estimated scf accuracy    <       0.00010601 Ry

     iteration #  4     ecut=    40.00 Ry     beta= 0.70
     Davidson diagonalization with overlap
     ethr =  1.33E-06,  avg # of iterations =  3.8

     total cpu time spent up to now is        8.2 secs

     total energy              =     -22.83847398 Ry
     estimated scf accuracy    <       0.00001094 Ry

     iteration #  5     ecut=    40.00 Ry     beta= 0.70
     Davidson diagonalization with overlap
     ethr =  1.37E-07,  avg # of iterations =  3.7

     total cpu time spent up to now is       10.3 secs

     total energy              =     -22.83847985 Ry
     estimated scf accuracy    <       0.00000051 Ry

     iteration #  6     ecut=    40.00 Ry     beta= 0.70
     Davidson diagonalization with overlap
     ethr =  6.35E-09,  avg # of iterations =  4.4

     total cpu time spent up to now is       11.1 secs

     total energy              =     -22.83848013 Ry
     estimated scf accuracy    <       0.00000024 Ry

     iteration #  7     ecut=    40.00 Ry     beta= 0.70
     Davidson diagonalization with overlap
     ethr =  3.03E-09,  avg # of iterations =  2.1

     total cpu time spent up to now is       11.5 secs

     total energy              =     -22.83848017 Ry
     estimated scf accuracy    <          2.0E-09 Ry

     iteration #  8     ecut=    40.00 Ry     beta= 0.70
     Davidson diagonalization with overlap
     ethr =  2.55E-11,  avg # of iterations =  7.0

     total cpu time spent up to now is       12.0 secs

     total energy              =     -22.83848017 Ry
     estimated scf accuracy    <          1.1E-09 Ry

     iteration #  9     ecut=    40.00 Ry     beta= 0.70
     Davidson diagonalization with overlap
     ethr =  1.31E-11,  avg # of iterations =  1.2

     total cpu time spent up to now is       12.3 secs

     total energy              =     -22.83848017 Ry
     estimated scf accuracy    <          1.4E-10 Ry

     iteration # 10     ecut=    40.00 Ry     beta= 0.70
     Davidson diagonalization with overlap
     ethr =  1.77E-12,  avg # of iterations =  2.7

     total cpu time spent up to now is       12.7 secs

     End of self-consistent calculation

          k = 0.0000 0.0000 0.0000 (  1139 PWs)   bands (ev):

    -5.6924   6.3972   6.3972   6.3972

          k =-0.1250 0.1250-0.1250 (  1137 PWs)   bands (ev):

    -5.4851   4.7906   6.1024   6.1024

          k =-0.2500 0.2500-0.2500 (  1131 PWs)   bands (ev):

    -4.8798   2.4337   5.6246   5.6246

          k =-0.3750 0.3750-0.3750 (  1143 PWs)   bands (ev):

    -3.9692   0.3823   5.2940   5.2940

          k = 0.5000-0.5000 0.5000 (  1158 PWs)   bands (ev):

    -3.3148  -0.6618   5.1810   5.1810

          k = 0.0000 0.2500 0.0000 (  1151 PWs)   bands (ev):

    -5.4153   5.0790   5.5726   5.5726

          k =-0.1250 0.3750-0.1250 (  1130 PWs)   bands (ev):

    -4.9391   3.1560   5.0526   5.1404

          k =-0.2500 0.5000-0.2500 (  1141 PWs)   bands (ev):

    -4.1098   1.0616   4.5416   4.7818

          k = 0.6250-0.3750 0.6250 (  1133 PWs)   bands (ev):

    -3.2285  -0.4309   4.0882   4.8086

          k = 0.5000-0.2500 0.5000 (  1131 PWs)   bands (ev):

    -3.4795  -0.0519   3.9007   5.1116

          k = 0.3750-0.1250 0.3750 (  1130 PWs)   bands (ev):

    -4.4217   1.7322   4.0484   5.6124

          k = 0.2500 0.0000 0.2500 (  1151 PWs)   bands (ev):

    -5.1435   3.7043   4.7344   6.1019

          k = 0.0000 0.5000 0.0000 (  1118 PWs)   bands (ev):

    -4.5935   2.8813   4.4713   4.4713

          k =-0.1250 0.6250-0.1250 (  1128 PWs)   bands (ev):

    -3.8717   1.4338   3.6781   4.1487

          k = 0.7500-0.2500 0.7500 (  1128 PWs)   bands (ev):

    -2.9271  -0.0380   2.8013   4.1529

          k = 0.6250-0.1250 0.6250 (  1137 PWs)   bands (ev):

    -2.7165  -0.3040   2.3330   4.4778

          k = 0.5000 0.0000 0.5000 (  1125 PWs)   bands (ev):

    -3.6140   0.8807   2.5722   5.0472

          k = 0.0000 0.7500 0.0000 (  1126 PWs)   bands (ev):

    -3.2600   0.6229   3.7438   3.7438

          k = 0.8750-0.1250 0.8750 (  1135 PWs)   bands (ev):

    -2.3470  -0.4783   2.8941   3.6669

          k = 0.7500 0.0000 0.7500 (  1136 PWs)   bands (ev):

    -1.8943  -0.8851   2.0072   3.9292

          k = 0.0000-1.0000 0.0000 (  1138 PWs)   bands (ev):

    -1.4818  -1.4818   3.4946   3.4946

          k =-0.2500 0.5000 0.0000 (  1131 PWs)   bands (ev):

    -4.3416   2.0887   3.6314   4.9459

          k = 0.6250-0.3750 0.8750 (  1136 PWs)   bands (ev):

    -3.4368   0.5080   3.0205   4.4318

          k = 0.5000-0.2500 0.7500 (  1128 PWs)   bands (ev):

    -2.7683  -0.4598   2.8940   4.1961

          k = 0.7500-0.2500 1.0000 (  1129 PWs)   bands (ev):

    -3.0568   0.4008   2.9706   3.5830

          k = 0.6250-0.1250 0.8750 (  1133 PWs)   bands (ev):

    -2.1632  -0.5845   2.2567   3.3781

          k = 0.5000 0.0000 0.7500 (  1138 PWs)   bands (ev):

    -2.5200  -0.2165   2.0858   3.7624

          k =-0.2500-1.0000 0.0000 (  1134 PWs)   bands (ev):

    -1.3999  -1.3999   2.9133   2.9133

          k =-0.5000-1.0000 0.0000 (  1144 PWs)   bands (ev):

    -1.3094  -1.3094   2.4649   2.4649

     highest occupied level (ev):     6.3972

!    total energy              =     -22.83848017 Ry
     estimated scf accuracy    <          9.5E-12 Ry

     The total energy is the sum of the following terms:
     one-electron contribution =       5.30786565 Ry
     hartree contribution      =       1.08525926 Ry
     xc contribution           =     -12.33184651 Ry
     ewald contribution        =     -16.89975857 Ry

     convergence has been achieved in  10 iterations

     Forces acting on atoms (cartesian axes, Ry/au):

     atom    1 type  1   force =    -0.00000000   -0.00000000    0.00000000
     atom    2 type  1   force =     0.00000000    0.00000000   -0.00000000

     Total force =     0.000000     Total SCF correction =     0.000000


     Computing stress (Cartesian axis) and pressure

          total   stress  (Ry/bohr**3)                   (kbar)     P=       38.36
   0.00026074   0.00000000   0.00000000           38.36        0.00        0.00
  -0.00000000   0.00026074   0.00000000           -0.00       38.36        0.00
   0.00000000   0.00000000   0.00026074            0.00        0.00       38.36


     Writing all to output data dir ./tmp/si.save/ :
     XML data file, charge density, pseudopotentials, collected wavefunctions

     init_run     :      1.19s CPU      1.87s WALL (       1 calls)
     electrons    :      7.16s CPU     10.50s WALL (       1 calls)
     forces       :      0.17s CPU      0.20s WALL (       1 calls)
     stress       :      0.91s CPU      0.99s WALL (       1 calls)

     Called by init_run:
     wfcinit      :      0.27s CPU      0.42s WALL (       1 calls)
     potinit      :      0.16s CPU      0.20s WALL (       1 calls)
     hinit0       :      0.42s CPU      0.64s WALL (       1 calls)

     Called by electrons:
     c_bands      :      3.82s CPU      5.39s WALL (      11 calls)
     sum_band     :      1.97s CPU      3.05s WALL (      11 calls)
     v_of_rho     :      0.45s CPU      0.60s WALL (      11 calls)
     newd         :      0.93s CPU      1.54s WALL (      11 calls)
     mix_rho      :      0.06s CPU      0.07s WALL (      11 calls)

     Called by c_bands:
     init_us_2    :      0.08s CPU      0.09s WALL (     725 calls)
     cegterg      :      3.54s CPU      5.02s WALL (     319 calls)

     Called by *egterg:
     cdiaghg      :      0.15s CPU      0.21s WALL (    1220 calls)
     h_psi        :      2.44s CPU      3.45s WALL (    1278 calls)
     s_psi        :      0.15s CPU      0.20s WALL (    1278 calls)
     g_psi        :      0.00s CPU      0.00s WALL (     930 calls)

     Called by h_psi:
     h_psi:calbec :      0.41s CPU      0.60s WALL (    1278 calls)
     vloc_psi     :      1.87s CPU      2.64s WALL (    1278 calls)
                                        0.00s GPU  (    1278 calls)
     add_vuspsi   :      0.15s CPU      0.19s WALL (    1278 calls)

     General routines
     calbec       :      0.73s CPU      1.01s WALL (    2090 calls)
     fft          :      0.55s CPU      0.68s WALL (     167 calls)
     ffts         :      0.09s CPU      0.13s WALL (      22 calls)
     fftw         :      2.37s CPU      3.40s WALL (    9718 calls)
     interpolate  :      0.10s CPU      0.14s WALL (      11 calls)

     Parallel routines

     PWSCF        :      9.63s CPU     13.93s WALL


   This run was terminated on:  21:32:40  22Sep2026            

=------------------------------------------------------------------------------=
   JOB DONE.
=------------------------------------------------------------------------------=
