
     Program PWSCF v.7.5 starts on 22Sep2026 at 23:52:22 

     This program is part of the open-source Quantum ESPRESSO suite
     for quantum simulation of materials; please cite
         "P. Giannozzi et al., J. Phys.:Condens. Matter 21 395502 (2009);
         "P. Giannozzi et al., J. Phys.:Condens. Matter 29 465901 (2017);
         "P. Giannozzi et al., J. Chem. Phys. 152 154105 (2020);
          URL http://www.quantum-espresso.org", 
     in publications or presentations arising from this work. More details at
     http://www.quantum-espresso.org/quote

     Parallel version (MPI), running on     4 processors

     MPI processes distributed on     1 nodes
     3237 MiB available memory on the printing compute node when the environment starts

     Reading input from scf.in

     Current dimensions of program PWSCF are:
     Max number of different atomic species (ntypx) = 10
     Max number of k-points (npk) =  40000
     Max angular momentum in pseudopotentials (lmaxx) =  4
     Message from routine setup:
     using ibrav=0 with symmetry is DISCOURAGED, use correct ibrav instead

     R & G space division:  proc/nbgrp/npool/nimage =       4
     Subspace diagonalization in iterative solution of the eigenvalue problem:
     a serial algorithm will be used


     Parallelization info
     --------------------
     sticks:   dense  smooth     PW     G-vecs:    dense   smooth      PW
     Min         321     123     37                74689    17124    2889
     Max         322     129     38                74718    17125    2906
     Sum        1285     499    151               298799    68499   11607

     Using Slab Decomposition



     bravais-lattice index     =            0
     lattice parameter (alat)  =       5.4022  a.u.
     unit-cell volume          =    1092.1863 (a.u.)^3
     number of atoms/cell      =            5
     number of atomic types    =            2
     number of electrons       =        11.00
     number of Kohn-Sham states=           12
     kinetic-energy cutoff     =      60.0000  Ry
     charge density cutoff     =     640.0000  Ry
     scf convergence threshold =      1.0E-09
     mixing beta               =       0.7000
     number of iterations used =            8  plain     mixing
     Exchange-correlation= PBE
                           (   1   4   3   4   0   0   0)

     celldm(1)=   5.402158  celldm(2)=   0.000000  celldm(3)=   0.000000
     celldm(4)=   0.000000  celldm(5)=   0.000000  celldm(6)=   0.000000

     crystal axes: (cart. coord. in units of alat)
               a(1) = (   1.000000   0.000000   0.000000 )  
               a(2) = (   0.500000   0.866025   0.000000 )  
               a(3) = (   0.000000   0.000000   7.999526 )  

     reciprocal axes: (cart. coord. in units 2 pi/alat)
               b(1) = (  1.000000 -0.577350  0.000000 )  
               b(2) = (  0.000000  1.154701  0.000000 )  
               b(3) = (  0.000000  0.000000  0.125007 )  


     PseudoPot. # 1 for Al read from file:
     ../pseudo/Al.pbe-n-rrkjus_psl.1.0.0.UPF
     MD5 check sum: bbe9f3f15d9b3b5ab9a58e4859ebdbfe
     Pseudo is Ultrasoft + core correction, Zval =  3.0
     Generated using &quot;atomic&quot; code by A. Dal Corso  v.6.3
     Using radial grid of 1135 points,  6 beta functions with: 
                l(1) =   0
                l(2) =   0
                l(3) =   1
                l(4) =   1
                l(5) =   2
                l(6) =   2
     Q(r) pseudized with 0 coefficients 


     PseudoPot. # 2 for H  read from file:
     ../pseudo/H.pbe-rrkjus_psl.1.0.0.UPF
     MD5 check sum: 3f4114867bd07edc7f1424d066fc1888
     Pseudo is Ultrasoft, Zval =  1.0
     Generated using &quot;atomic&quot; code by A. Dal Corso  v.6.3MaX
     Using radial grid of  929 points,  2 beta functions with: 
                l(1) =   0
                l(2) =   0
     Q(r) pseudized with 0 coefficients 


     atomic species   valence    mass     pseudopotential
     Al                3.00    26.98154     Al( 1.00)
     H                 1.00     1.00794     H ( 1.00)

     12 Sym. Ops., with inversion, found



   Cartesian axes

     site n.     atom                  positions (alat units)
         1        Al     tau(   1) = (   1.0000000   0.5773503   3.1832663  )
         2        Al     tau(   2) = (   0.0000000   0.0000000   3.9997629  )
         3        Al     tau(   3) = (   0.5000000   0.2886751   4.8162595  )
         4        H      tau(   4) = (   1.0000000   0.5773503   2.6235712  )
         5        H      tau(   5) = (   0.5000000   0.2886751   5.3759547  )

     number of k points=     7  Marzari-Vanderbilt smearing, width (Ry)=  0.0100
                       cart. coord. in units 2pi/alat
        k(    1) = (   0.0000000   0.0000000   0.0000000), wk =   0.0555556
        k(    2) = (   0.0000000   0.1924501   0.0000000), wk =   0.3333333
        k(    3) = (   0.0000000   0.3849002   0.0000000), wk =   0.3333333
        k(    4) = (   0.0000000  -0.5773503   0.0000000), wk =   0.1666667
        k(    5) = (   0.1666667   0.2886751   0.0000000), wk =   0.3333333
        k(    6) = (   0.1666667  -0.6735753   0.0000000), wk =   0.6666667
        k(    7) = (   0.3333333  -0.5773503   0.0000000), wk =   0.1111111

     Dense  grid:   298799 G-vectors     FFT dimensions: (  45,  45, 360)

     Smooth grid:    68499 G-vectors     FFT dimensions: (  27,  27, 216)

     Estimated max dynamical RAM per process >     283.58 MB

     Estimated total dynamical RAM >       1.11 GB

     Initial potential from superposition of free atoms

     starting charge      10.9931, renormalised to      11.0000

     negative rho (up, down):  1.996E-05 0.000E+00
     Starting wfcs are   14 randomized atomic wfcs

     total cpu time spent up to now is        1.8 secs

     per-process dynamical memory:    49.6 Mb

     Self-consistent Calculation

     iteration #  1     ecut=    60.00 Ry     beta= 0.70
     Davidson diagonalization with overlap
     ethr =  1.00E-02,  avg # of iterations =  6.7

     negative rho (up, down):  4.685E-07 0.000E+00

     total cpu time spent up to now is        4.2 secs

     total energy              =     -17.28134998 Ry
     estimated scf accuracy    <       0.18997081 Ry

     iteration #  2     ecut=    60.00 Ry     beta= 0.70
     Davidson diagonalization with overlap
     ethr =  1.73E-03,  avg # of iterations =  3.0

     negative rho (up, down):  2.001E-06 0.000E+00

     total cpu time spent up to now is        6.1 secs

     total energy              =     -17.07285895 Ry
     estimated scf accuracy    <       1.78972812 Ry

     iteration #  3     ecut=    60.00 Ry     beta= 0.70
     Davidson diagonalization with overlap
     ethr =  1.73E-03,  avg # of iterations =  3.3

     negative rho (up, down):  2.761E-07 0.000E+00

     total cpu time spent up to now is        8.1 secs

     total energy              =     -17.33738337 Ry
     estimated scf accuracy    <       0.11887627 Ry

     iteration #  4     ecut=    60.00 Ry     beta= 0.70
     Davidson diagonalization with overlap
     ethr =  1.08E-03,  avg # of iterations =  1.1

     negative rho (up, down):  1.138E-06 0.000E+00

     total cpu time spent up to now is        9.8 secs

     total energy              =     -17.34817301 Ry
     estimated scf accuracy    <       0.00986989 Ry

     iteration #  5     ecut=    60.00 Ry     beta= 0.70
     Davidson diagonalization with overlap
     ethr =  8.97E-05,  avg # of iterations =  4.4

     negative rho (up, down):  2.895E-06 0.000E+00

     total cpu time spent up to now is       11.8 secs

     total energy              =     -17.34889353 Ry
     estimated scf accuracy    <       0.00121659 Ry

     iteration #  6     ecut=    60.00 Ry     beta= 0.70
     Davidson diagonalization with overlap
     ethr =  1.11E-05,  avg # of iterations =  6.1
     Minimization algorithm failed to find Fermi energy: reverting to bisection
     Possible cause: smearing is larger than the electronic band-gap.

     negative rho (up, down):  3.129E-06 0.000E+00

     total cpu time spent up to now is       13.8 secs

     total energy              =     -17.34915423 Ry
     estimated scf accuracy    <       0.00002973 Ry

     iteration #  7     ecut=    60.00 Ry     beta= 0.70
     Davidson diagonalization with overlap
     ethr =  2.70E-07,  avg # of iterations =  3.1
     Minimization algorithm failed to find Fermi energy: reverting to bisection
     Possible cause: smearing is larger than the electronic band-gap.

     negative rho (up, down):  2.977E-06 0.000E+00

     total cpu time spent up to now is       15.7 secs

     total energy              =     -17.34915879 Ry
     estimated scf accuracy    <       0.00000946 Ry

     iteration #  8     ecut=    60.00 Ry     beta= 0.70
     Davidson diagonalization with overlap
     ethr =  8.60E-08,  avg # of iterations =  1.0
     Minimization algorithm failed to find Fermi energy: reverting to bisection
     Possible cause: smearing is larger than the electronic band-gap.

     negative rho (up, down):  2.988E-06 0.000E+00

     total cpu time spent up to now is       17.4 secs

     total energy              =     -17.34915965 Ry
     estimated scf accuracy    <       0.00000023 Ry

     iteration #  9     ecut=    60.00 Ry     beta= 0.70
     Davidson diagonalization with overlap
     ethr =  2.12E-09,  avg # of iterations =  3.3
     Minimization algorithm failed to find Fermi energy: reverting to bisection
     Possible cause: smearing is larger than the electronic band-gap.

     negative rho (up, down):  2.978E-06 0.000E+00

     total cpu time spent up to now is       19.4 secs

     total energy              =     -17.34915980 Ry
     estimated scf accuracy    <          9.6E-09 Ry

     iteration # 10     ecut=    60.00 Ry     beta= 0.70
     Davidson diagonalization with overlap
     ethr =  8.70E-11,  avg # of iterations =  2.6
     Minimization algorithm failed to find Fermi energy: reverting to bisection
     Possible cause: smearing is larger than the electronic band-gap.

     negative rho (up, down):  2.981E-06 0.000E+00

     total cpu time spent up to now is       21.2 secs

     End of self-consistent calculation

          k = 0.0000 0.0000 0.0000 (  8639 PWs)   bands (ev):

   -12.0996 -10.5069  -8.4257  -6.2195  -3.4375  -0.0230   3.4046   4.3214
     4.5881   5.7691   6.1560   7.9988

          k = 0.0000 0.1925 0.0000 (  8619 PWs)   bands (ev):

   -11.4337  -9.8550  -7.8097  -5.6754  -2.9460   0.4040   3.8049   4.2197
     4.9295   5.0996   5.5382   6.4083

          k = 0.0000 0.3849 0.0000 (  8528 PWs)   bands (ev):

    -9.4565  -7.9330  -6.0542  -4.2284  -2.2680  -1.3758   0.4046   1.3576
     3.2735   4.8891   5.1682   5.9564

          k = 0.0000-0.5774 0.0000 (  8530 PWs)   bands (ev):

    -6.3163  -6.1837  -4.9984  -4.9080  -3.9001  -2.8960  -0.6467   0.0276
     2.6143   3.4605   4.5973   6.2084

          k = 0.1667 0.2887 0.0000 (  8535 PWs)   bands (ev):

   -10.1120  -8.5669  -6.6178  -4.6591  -2.1452   0.5808   1.6481   1.9912
     2.9588   3.4607   5.0552   5.3932

          k = 0.1667-0.6736 0.0000 (  8581 PWs)   bands (ev):

    -7.5123  -6.0885  -4.5733  -3.7654  -3.2695  -2.0754  -0.4980   0.3494
     0.7457   2.1732   3.3401   4.4343

          k = 0.3333-0.5774 0.0000 (  8568 PWs)   bands (ev):

    -4.5303  -4.5303  -4.1640  -3.6292  -3.6292  -3.0053  -1.8796  -1.8796
     0.6349   1.6662   1.6662   3.1983

     the Fermi energy is    -1.9532 ev

!    total energy              =     -17.34915980 Ry
     estimated scf accuracy    <          6.5E-10 Ry
     smearing contrib. (-TS)   =       0.00098997 Ry
     internal energy E=F+TS    =     -17.35014977 Ry

     The total energy is F=E-TS. E is the sum of the following terms:
     one-electron contribution =    -160.52137560 Ry
     hartree contribution      =      82.12077444 Ry
     xc contribution           =      -9.05871472 Ry
     ewald contribution        =      70.10916611 Ry

     convergence has been achieved in  10 iterations

     negative rho (up, down):  2.981E-06 0.000E+00

     Forces acting on atoms (cartesian axes, Ry/au):

     atom    1 type  1   force =    -0.00000000    0.00000000   -0.00025821
     atom    2 type  1   force =     0.00000000    0.00000000    0.00000000
     atom    3 type  1   force =     0.00000000    0.00000000    0.00025821
     atom    4 type  2   force =     0.00000000    0.00000000   -0.00331637
     atom    5 type  2   force =     0.00000000    0.00000000    0.00331637

     Total force =     0.004704     Total SCF correction =     0.000039


     Computing stress (Cartesian axis) and pressure


     negative rho (up, down):  2.981E-06 0.000E+00
          total   stress  (Ry/bohr**3)                   (kbar)     P=        3.99
   0.00001714   0.00000000   0.00000000            2.52        0.00        0.00
   0.00000000   0.00001714   0.00000000            0.00        2.52        0.00
   0.00000000   0.00000000   0.00004708            0.00        0.00        6.92


     Writing all to output data dir ./tmp/ads.save/ :
     XML data file, charge density, pseudopotentials, collected wavefunctions

     init_run     :      1.46s CPU      1.60s WALL (       1 calls)
     electrons    :     17.42s CPU     19.52s WALL (       1 calls)
     forces       :      0.91s CPU      1.02s WALL (       1 calls)
     stress       :      3.69s CPU      3.98s WALL (       1 calls)

     Called by init_run:
     wfcinit      :      0.31s CPU      0.31s WALL (       1 calls)
     potinit      :      0.28s CPU      0.31s WALL (       1 calls)
     hinit0       :      0.44s CPU      0.45s WALL (       1 calls)

     Called by electrons:
     c_bands      :      7.48s CPU      7.61s WALL (      10 calls)
     sum_band     :      5.14s CPU      6.19s WALL (      10 calls)
     v_of_rho     :      1.18s CPU      1.24s WALL (      11 calls)
     newd         :      3.81s CPU      4.74s WALL (      11 calls)
     mix_rho      :      0.14s CPU      0.15s WALL (      10 calls)

     Called by c_bands:
     init_us_2    :      0.18s CPU      0.18s WALL (     161 calls)
     cegterg      :      7.09s CPU      7.23s WALL (      70 calls)

     Called by *egterg:
     cdiaghg      :      0.06s CPU      0.06s WALL (     313 calls)
     h_psi        :      5.21s CPU      5.34s WALL (     320 calls)
     s_psi        :      0.81s CPU      0.81s WALL (     320 calls)
     g_psi        :      0.01s CPU      0.01s WALL (     243 calls)

     Called by h_psi:
     h_psi:calbec :      0.80s CPU      0.81s WALL (     320 calls)
     vloc_psi     :      3.61s CPU      3.73s WALL (     320 calls)
                                        0.00s GPU  (     320 calls)
     add_vuspsi   :      0.79s CPU      0.79s WALL (     320 calls)

     General routines
     calbec       :      1.56s CPU      1.58s WALL (     509 calls)
     fft          :      1.42s CPU      1.50s WALL (     166 calls)
     ffts         :      0.16s CPU      0.17s WALL (      21 calls)
     fftw         :      3.82s CPU      3.94s WALL (    5394 calls)
     interpolate  :      0.22s CPU      0.23s WALL (      11 calls)

     Parallel routines

     PWSCF        :     23.65s CPU     26.31s WALL


   This run was terminated on:  23:52:48  22Sep2026            

=------------------------------------------------------------------------------=
   JOB DONE.
=------------------------------------------------------------------------------=
