
     Program PWSCF v.7.5 starts on 22Sep2026 at 22:48:15 

     This program is part of the open-source Quantum ESPRESSO suite
     for quantum simulation of materials; please cite
         "P. Giannozzi et al., J. Phys.:Condens. Matter 21 395502 (2009);
         "P. Giannozzi et al., J. Phys.:Condens. Matter 29 465901 (2017);
         "P. Giannozzi et al., J. Chem. Phys. 152 154105 (2020);
          URL http://www.quantum-espresso.org", 
     in publications or presentations arising from this work. More details at
     http://www.quantum-espresso.org/quote

     Parallel version (MPI), running on     4 processors

     MPI processes distributed on     1 nodes
     4250 MiB available memory on the printing compute node when the environment starts

     Reading input from scf.in

     Current dimensions of program PWSCF are:
     Max number of different atomic species (ntypx) = 10
     Max number of k-points (npk) =  40000
     Max angular momentum in pseudopotentials (lmaxx) =  4
     Message from routine setup:
     using ibrav=0 with symmetry is DISCOURAGED, use correct ibrav instead

     R & G space division:  proc/nbgrp/npool/nimage =       4
     Subspace diagonalization in iterative solution of the eigenvalue problem:
     a serial algorithm will be used


     Parallelization info
     --------------------
     sticks:   dense  smooth     PW     G-vecs:    dense   smooth      PW
     Min         450     222     69                14468     5093     851
     Max         451     223     70                14469     5096     854
     Sum        1801     889    277                57873    20377    3407

     Using Slab Decomposition



     bravais-lattice index     =            0
     lattice parameter (alat)  =       5.9670  a.u.
     unit-cell volume          =     212.4576 (a.u.)^3
     number of atoms/cell      =            2
     number of atomic types    =            2
     number of electrons       =         7.00
     number of Kohn-Sham states=           10
     kinetic-energy cutoff     =      80.0000  Ry
     charge density cutoff     =     640.0000  Ry
     scf convergence threshold =      1.0E-10
     mixing beta               =       0.7000
     number of iterations used =            8  plain     mixing
     Exchange-correlation= PBE
                           (   1   4   3   4   0   0   0)

     celldm(1)=   5.967019  celldm(2)=   0.000000  celldm(3)=   0.000000
     celldm(4)=   0.000000  celldm(5)=   0.000000  celldm(6)=   0.000000

     crystal axes: (cart. coord. in units of alat)
               a(1) = (   1.000000   0.000000   0.000000 )  
               a(2) = (   0.000000   1.000000   0.000000 )  
               a(3) = (   0.000000   0.000000   1.000000 )  

     reciprocal axes: (cart. coord. in units 2 pi/alat)
               b(1) = (  1.000000  0.000000  0.000000 )  
               b(2) = (  0.000000  1.000000  0.000000 )  
               b(3) = (  0.000000  0.000000  1.000000 )  


     PseudoPot. # 1 for Al read from file:
     ../../pseudo/Al.pbe-n-rrkjus_psl.1.0.0.UPF
     MD5 check sum: bbe9f3f15d9b3b5ab9a58e4859ebdbfe
     Pseudo is Ultrasoft + core correction, Zval =  3.0
     Generated using &quot;atomic&quot; code by A. Dal Corso  v.6.3
     Using radial grid of 1135 points,  6 beta functions with: 
                l(1) =   0
                l(2) =   0
                l(3) =   1
                l(4) =   1
                l(5) =   2
                l(6) =   2
     Q(r) pseudized with 0 coefficients 


     PseudoPot. # 2 for Si read from file:
     ../../pseudo/Si.pbe-n-rrkjus_psl.1.0.0.UPF
     MD5 check sum: fa25574f73a70a4139f2adfbefec430c
     Pseudo is Ultrasoft + core correction, Zval =  4.0
     Generated using &quot;atomic&quot; code by A. Dal Corso  v.6.3
     Using radial grid of 1141 points,  6 beta functions with: 
                l(1) =   0
                l(2) =   0
                l(3) =   1
                l(4) =   1
                l(5) =   2
                l(6) =   2
     Q(r) pseudized with 0 coefficients 


     atomic species   valence    mass     pseudopotential
     Al                3.00    26.98154     Al( 1.00)
     Si                4.00    28.08500     Si( 1.00)

     48 Sym. Ops., with inversion, found



   Cartesian axes

     site n.     atom                  positions (alat units)
         1        Al     tau(   1) = (   0.0000000   0.0000000   0.0000000  )
         2        Si     tau(   2) = (   0.5000000   0.5000000   0.5000000  )

     number of k points=   286  Marzari-Vanderbilt smearing, width (Ry)=  0.0050

     Number of k-points >= 100: set verbosity='high' to print them.

     Dense  grid:    57873 G-vectors     FFT dimensions: (  50,  50,  50)

     Smooth grid:    20377 G-vectors     FFT dimensions: (  36,  36,  36)

     Estimated max dynamical RAM per process >      85.48 MB

     Estimated total dynamical RAM >     341.90 MB

     Initial potential from superposition of free atoms

     starting charge       6.9972, renormalised to       7.0000
     Starting wfcs are    8 randomized atomic wfcs +    2 random wfcs

     total cpu time spent up to now is        3.2 secs

     per-process dynamical memory:    53.9 Mb

     Self-consistent Calculation

     iteration #  1     ecut=    80.00 Ry     beta= 0.70
     CG style diagonalization
     c_bands:  1 eigenvalues not converged
     c_bands:  1 eigenvalues not converged
     c_bands:  1 eigenvalues not converged
     ethr =  1.00E-10,  avg # of iterations = 46.2

     total cpu time spent up to now is      135.6 secs

     total energy              =     -16.42008057 Ry
     estimated scf accuracy    <       0.01027500 Ry

     iteration #  2     ecut=    80.00 Ry     beta= 0.70
     CG style diagonalization
     ethr =  1.47E-04,  avg # of iterations =  3.0

     total cpu time spent up to now is      144.3 secs

     total energy              =     -16.42052455 Ry
     estimated scf accuracy    <       0.00062386 Ry

     iteration #  3     ecut=    80.00 Ry     beta= 0.70
     CG style diagonalization
     ethr =  8.91E-06,  avg # of iterations =  3.0

     total cpu time spent up to now is      153.1 secs

     total energy              =     -16.42058394 Ry
     estimated scf accuracy    <       0.00002630 Ry

     iteration #  4     ecut=    80.00 Ry     beta= 0.70
     CG style diagonalization
     ethr =  3.76E-07,  avg # of iterations =  3.6

     total cpu time spent up to now is      163.5 secs

     total energy              =     -16.42059836 Ry
     estimated scf accuracy    <       0.00000154 Ry

     iteration #  5     ecut=    80.00 Ry     beta= 0.70
     CG style diagonalization
     ethr =  2.20E-08,  avg # of iterations =  3.4

     total cpu time spent up to now is      173.2 secs

     total energy              =     -16.42059784 Ry
     estimated scf accuracy    <       0.00000275 Ry

     iteration #  6     ecut=    80.00 Ry     beta= 0.70
     CG style diagonalization
     ethr =  2.20E-08,  avg # of iterations =  3.0

     total cpu time spent up to now is      181.9 secs

     total energy              =     -16.42059798 Ry
     estimated scf accuracy    <       0.00000001 Ry

     iteration #  7     ecut=    80.00 Ry     beta= 0.70
     CG style diagonalization
     ethr =  1.81E-10,  avg # of iterations =  3.7

     total cpu time spent up to now is      192.7 secs

     total energy              =     -16.42059800 Ry
     estimated scf accuracy    <          2.4E-10 Ry

     iteration #  8     ecut=    80.00 Ry     beta= 0.70
     CG style diagonalization
     ethr =  3.42E-12,  avg # of iterations =  3.4

     total cpu time spent up to now is      202.6 secs

     End of self-consistent calculation

     Number of k-points >= 100: set verbosity='high' to print the bands.

     the Fermi energy is     8.9535 ev

!    total energy              =     -16.42059800 Ry
     estimated scf accuracy    <          6.3E-11 Ry
     smearing contrib. (-TS)   =       0.00000366 Ry
     internal energy E=F+TS    =     -16.42060166 Ry

     The total energy is F=E-TS. E is the sum of the following terms:
     one-electron contribution =       7.29392420 Ry
     hartree contribution      =       0.14311684 Ry
     xc contribution           =      -8.74475399 Ry
     ewald contribution        =     -15.11288871 Ry

     convergence has been achieved in   8 iterations

     Forces acting on atoms (cartesian axes, Ry/au):

     atom    1 type  1   force =     0.00000000    0.00000000    0.00000000
     atom    2 type  2   force =     0.00000000    0.00000000    0.00000000

     Total force =     0.000000     Total SCF correction =     0.000000


     Computing stress (Cartesian axis) and pressure

          total   stress  (Ry/bohr**3)                   (kbar)     P=        0.76
   0.00000515   0.00000000   0.00000000            0.76        0.00        0.00
   0.00000000   0.00000515   0.00000000            0.00        0.76        0.00
   0.00000000   0.00000000   0.00000515            0.00        0.00        0.76


     Writing all to output data dir ./tmp/alsi-b2.save/ :
     XML data file, charge density, pseudopotentials, collected wavefunctions

     init_run     :      2.72s CPU      2.88s WALL (       1 calls)
     electrons    :    189.17s CPU    199.46s WALL (       1 calls)
     forces       :      1.22s CPU      1.27s WALL (       1 calls)
     stress       :      5.12s CPU      5.28s WALL (       1 calls)

     Called by init_run:
     wfcinit      :      1.98s CPU      2.09s WALL (       1 calls)
     potinit      :      0.16s CPU      0.17s WALL (       1 calls)
     hinit0       :      0.33s CPU      0.34s WALL (       1 calls)

     Called by electrons:
     c_bands      :    180.96s CPU    190.32s WALL (       8 calls)
     sum_band     :      7.31s CPU      7.97s WALL (       8 calls)
     v_of_rho     :      0.16s CPU      0.17s WALL (       9 calls)
     newd         :      0.80s CPU      1.11s WALL (       9 calls)
     mix_rho      :      0.02s CPU      0.02s WALL (       8 calls)

     Called by c_bands:
     init_us_2    :      1.72s CPU      1.78s WALL (    5434 calls)
     ccgdiagg     :    167.14s CPU    175.82s WALL (    2288 calls)
     wfcrot       :     14.64s CPU     15.38s WALL (    2288 calls)

     Called by *cgdiagg:
     h_psi        :    110.69s CPU    116.62s WALL (  180806 calls)
     s_psi        :     31.61s CPU     33.18s WALL (  359324 calls)

     Called by h_psi:
     h_psi:calbec :     22.51s CPU     23.67s WALL (  180806 calls)
     vloc_psi     :     70.46s CPU     74.38s WALL (  180806 calls)
                                        0.00s GPU  (  180806 calls)
     add_vuspsi   :     16.51s CPU     17.30s WALL (  180806 calls)
     hs_1psi      :    115.84s CPU    121.85s WALL (  178518 calls)
     s_1psi       :     35.85s CPU     37.65s WALL (  178518 calls)

     General routines
     calbec       :     47.81s CPU     50.16s WALL (  366474 calls)
     fft          :      0.18s CPU      0.19s WALL (     140 calls)
     ffts         :      0.13s CPU      0.13s WALL (      17 calls)
     fftw         :     65.55s CPU     69.22s WALL (  425676 calls)
     interpolate  :      0.13s CPU      0.13s WALL (       9 calls)

     Parallel routines

     PWSCF        :   3m18.64s CPU   3m29.37s WALL


   This run was terminated on:  22:51:44  22Sep2026            

=------------------------------------------------------------------------------=
   JOB DONE.
=------------------------------------------------------------------------------=
