
     Program PWSCF v.7.5 starts on 23Sep2026 at 15:17:33 

     This program is part of the open-source Quantum ESPRESSO suite
     for quantum simulation of materials; please cite
         "P. Giannozzi et al., J. Phys.:Condens. Matter 21 395502 (2009);
         "P. Giannozzi et al., J. Phys.:Condens. Matter 29 465901 (2017);
         "P. Giannozzi et al., J. Chem. Phys. 152 154105 (2020);
          URL http://www.quantum-espresso.org", 
     in publications or presentations arising from this work. More details at
     http://www.quantum-espresso.org/quote

     Parallel version (MPI), running on     4 processors

     MPI processes distributed on     1 nodes
     2212 MiB available memory on the printing compute node when the environment starts
 
     Reading input from al.bands.in

     Current dimensions of program PWSCF are:
     Max number of different atomic species (ntypx) = 10
     Max number of k-points (npk) =  40000
     Max angular momentum in pseudopotentials (lmaxx) =  4

     Atomic positions and unit cell read from directory:
     ./tmp/al.save/
 
     Message from routine setup:
     using ibrav=0 with symmetry is DISCOURAGED, use correct ibrav instead
 
     K-points division:     npool     =       4
     Subspace diagonalization in iterative solution of the eigenvalue problem:
     a serial algorithm will be used

 
     G-vector sticks info
     --------------------
     sticks:   dense  smooth     PW     G-vecs:    dense   smooth      PW
     Sum         313     313     97                 3527     3527     645
 
     Using Slab Decomposition
 


     bravais-lattice index     =            0
     lattice parameter (alat)  =       5.2862  a.u.
     unit-cell volume          =     104.4547 (a.u.)^3
     number of atoms/cell      =            1
     number of atomic types    =            1
     number of electrons       =         3.00
     number of Kohn-Sham states=            6
     kinetic-energy cutoff     =      40.0000  Ry
     charge density cutoff     =     160.0000  Ry
     Exchange-correlation= SLA  PZ   NOGX NOGC
                           (   1   1   0   0   0   0   0)

     celldm(1)=   5.286249  celldm(2)=   0.000000  celldm(3)=   0.000000
     celldm(4)=   0.000000  celldm(5)=   0.000000  celldm(6)=   0.000000

     crystal axes: (cart. coord. in units of alat)
               a(1) = (  -0.707107   0.000000   0.707107 )  
               a(2) = (   0.000000   0.707107   0.707107 )  
               a(3) = (  -0.707107   0.707107   0.000000 )  

     reciprocal axes: (cart. coord. in units 2 pi/alat)
               b(1) = ( -0.707107 -0.707107  0.707107 )  
               b(2) = (  0.707107  0.707107  0.707107 )  
               b(3) = ( -0.707107  0.707107 -0.707107 )  


     PseudoPot. # 1 for Al read from file:
     ./pseudo/Al.pz-vbc.UPF
     MD5 check sum: f06ceae8da0fe5c02c98e3688433298c
     Pseudo is Norm-conserving, Zval =  3.0
     Generated by new atomic code, or converted to UPF format
     Using radial grid of  171 points,  2 beta functions with: 
                l(1) =   0
                l(2) =   1

     atomic species   valence    mass     pseudopotential
     Al                3.00    26.98154     Al( 1.00)

     48 Sym. Ops., with inversion, found


                                    s                        frac. trans.

      isym =  1     identity                                     

 cryst.   s( 1) = (     1          0          0      )
                  (     0          1          0      )
                  (     0          0          1      )

 cart.    s( 1) = (  1.0000000  0.0000000  0.0000000 )
                  (  0.0000000  1.0000000  0.0000000 )
                  (  0.0000000  0.0000000  1.0000000 )


      isym =  2     180 deg rotation - cart. axis [0,0,1]        

 cryst.   s( 2) = (     0          1         -1      )
                  (     1          0         -1      )
                  (     0          0         -1      )

 cart.    s( 2) = ( -1.0000000  0.0000000  0.0000000 )
                  (  0.0000000 -1.0000000  0.0000000 )
                  (  0.0000000  0.0000000  1.0000000 )


      isym =  3     180 deg rotation - cart. axis [0,1,0]        

 cryst.   s( 3) = (    -1          0          0      )
                  (    -1          0          1      )
                  (    -1          1          0      )

 cart.    s( 3) = ( -1.0000000  0.0000000  0.0000000 )
                  (  0.0000000  1.0000000  0.0000000 )
                  (  0.0000000  0.0000000 -1.0000000 )


      isym =  4     180 deg rotation - cart. axis [1,0,0]        

 cryst.   s( 4) = (     0         -1          1      )
                  (     0         -1          0      )
                  (     1         -1          0      )

 cart.    s( 4) = (  1.0000000  0.0000000  0.0000000 )
                  (  0.0000000 -1.0000000  0.0000000 )
                  (  0.0000000  0.0000000 -1.0000000 )


      isym =  5     180 deg rotation - cart. axis [1,1,0]        

 cryst.   s( 5) = (     0         -1          0      )
                  (    -1          0          0      )
                  (     0          0         -1      )

 cart.    s( 5) = (  0.0000000  1.0000000  0.0000000 )
                  (  1.0000000  0.0000000  0.0000000 )
                  (  0.0000000  0.0000000 -1.0000000 )


      isym =  6     180 deg rotation - cart. axis [1,-1,0]       

 cryst.   s( 6) = (    -1          0          1      )
                  (     0         -1          1      )
                  (     0          0          1      )

 cart.    s( 6) = (  0.0000000 -1.0000000  0.0000000 )
                  ( -1.0000000  0.0000000  0.0000000 )
                  (  0.0000000  0.0000000 -1.0000000 )


      isym =  7      90 deg rotation - cart. axis [0,0,-1]       

 cryst.   s( 7) = (     0          1          0      )
                  (     0          1         -1      )
                  (    -1          1          0      )

 cart.    s( 7) = (  0.0000000  1.0000000  0.0000000 )
                  ( -1.0000000  0.0000000  0.0000000 )
                  (  0.0000000  0.0000000  1.0000000 )


      isym =  8      90 deg rotation - cart. axis [0,0,1]        

 cryst.   s( 8) = (     1          0         -1      )
                  (     1          0          0      )
                  (     1         -1          0      )

 cart.    s( 8) = (  0.0000000 -1.0000000  0.0000000 )
                  (  1.0000000  0.0000000  0.0000000 )
                  (  0.0000000  0.0000000  1.0000000 )


      isym =  9     180 deg rotation - cart. axis [1,0,1]        

 cryst.   s( 9) = (    -1          0          0      )
                  (     0          0         -1      )
                  (     0         -1          0      )

 cart.    s( 9) = (  0.0000000  0.0000000  1.0000000 )
                  (  0.0000000 -1.0000000  0.0000000 )
                  (  1.0000000  0.0000000  0.0000000 )


      isym = 10     180 deg rotation - cart. axis [-1,0,1]       

 cryst.   s(10) = (     1          0          0      )
                  (     1         -1          0      )
                  (     1          0         -1      )

 cart.    s(10) = (  0.0000000  0.0000000 -1.0000000 )
                  (  0.0000000 -1.0000000  0.0000000 )
                  ( -1.0000000  0.0000000  0.0000000 )


      isym = 11      90 deg rotation - cart. axis [0,1,0]        

 cryst.   s(11) = (     0          1         -1      )
                  (    -1          1          0      )
                  (     0          1          0      )

 cart.    s(11) = (  0.0000000  0.0000000  1.0000000 )
                  (  0.0000000  1.0000000  0.0000000 )
                  ( -1.0000000  0.0000000  0.0000000 )


      isym = 12      90 deg rotation - cart. axis [0,-1,0]       

 cryst.   s(12) = (     0         -1          1      )
                  (     0          0          1      )
                  (    -1          0          1      )

 cart.    s(12) = (  0.0000000  0.0000000 -1.0000000 )
                  (  0.0000000  1.0000000  0.0000000 )
                  (  1.0000000  0.0000000  0.0000000 )


      isym = 13     180 deg rotation - cart. axis [0,1,1]        

 cryst.   s(13) = (    -1          1          0      )
                  (     0          1          0      )
                  (     0          1         -1      )

 cart.    s(13) = ( -1.0000000  0.0000000  0.0000000 )
                  (  0.0000000  0.0000000  1.0000000 )
                  (  0.0000000  1.0000000  0.0000000 )


      isym = 14     180 deg rotation - cart. axis [0,1,-1]       

 cryst.   s(14) = (     0          0         -1      )
                  (     0         -1          0      )
                  (    -1          0          0      )

 cart.    s(14) = ( -1.0000000  0.0000000  0.0000000 )
                  (  0.0000000  0.0000000 -1.0000000 )
                  (  0.0000000 -1.0000000  0.0000000 )


      isym = 15      90 deg rotation - cart. axis [-1,0,0]       

 cryst.   s(15) = (     0          0          1      )
                  (    -1          0          1      )
                  (     0         -1          1      )

 cart.    s(15) = (  1.0000000  0.0000000  0.0000000 )
                  (  0.0000000  0.0000000  1.0000000 )
                  (  0.0000000 -1.0000000  0.0000000 )


      isym = 16      90 deg rotation - cart. axis [1,0,0]        

 cryst.   s(16) = (     1         -1          0      )
                  (     1          0         -1      )
                  (     1          0          0      )

 cart.    s(16) = (  1.0000000  0.0000000  0.0000000 )
                  (  0.0000000  0.0000000 -1.0000000 )
                  (  0.0000000  1.0000000  0.0000000 )


      isym = 17     120 deg rotation - cart. axis [-1,-1,-1]     

 cryst.   s(17) = (    -1          0          1      )
                  (    -1          1          0      )
                  (    -1          0          0      )

 cart.    s(17) = (  0.0000000  1.0000000  0.0000000 )
                  (  0.0000000  0.0000000  1.0000000 )
                  (  1.0000000  0.0000000  0.0000000 )


      isym = 18     120 deg rotation - cart. axis [-1,1,1]       

 cryst.   s(18) = (     0          1          0      )
                  (     0          0          1      )
                  (     1          0          0      )

 cart.    s(18) = (  0.0000000 -1.0000000  0.0000000 )
                  (  0.0000000  0.0000000  1.0000000 )
                  ( -1.0000000  0.0000000  0.0000000 )


      isym = 19     120 deg rotation - cart. axis [1,1,-1]       

 cryst.   s(19) = (     1          0         -1      )
                  (     0          0         -1      )
                  (     0          1         -1      )

 cart.    s(19) = (  0.0000000  1.0000000  0.0000000 )
                  (  0.0000000  0.0000000 -1.0000000 )
                  ( -1.0000000  0.0000000  0.0000000 )


      isym = 20     120 deg rotation - cart. axis [1,-1,1]       

 cryst.   s(20) = (     0         -1          0      )
                  (     1         -1          0      )
                  (     0         -1          1      )

 cart.    s(20) = (  0.0000000 -1.0000000  0.0000000 )
                  (  0.0000000  0.0000000 -1.0000000 )
                  (  1.0000000  0.0000000  0.0000000 )


      isym = 21     120 deg rotation - cart. axis [1,1,1]        

 cryst.   s(21) = (     0          0         -1      )
                  (     0          1         -1      )
                  (     1          0         -1      )

 cart.    s(21) = (  0.0000000  0.0000000  1.0000000 )
                  (  1.0000000  0.0000000  0.0000000 )
                  (  0.0000000  1.0000000  0.0000000 )


      isym = 22     120 deg rotation - cart. axis [-1,1,-1]      

 cryst.   s(22) = (    -1          1          0      )
                  (    -1          0          0      )
                  (    -1          0          1      )

 cart.    s(22) = (  0.0000000  0.0000000  1.0000000 )
                  ( -1.0000000  0.0000000  0.0000000 )
                  (  0.0000000 -1.0000000  0.0000000 )


      isym = 23     120 deg rotation - cart. axis [1,-1,-1]      

 cryst.   s(23) = (     0          0          1      )
                  (     1          0          0      )
                  (     0          1          0      )

 cart.    s(23) = (  0.0000000  0.0000000 -1.0000000 )
                  ( -1.0000000  0.0000000  0.0000000 )
                  (  0.0000000  1.0000000  0.0000000 )


      isym = 24     120 deg rotation - cart. axis [-1,-1,1]      

 cryst.   s(24) = (     1         -1          0      )
                  (     0         -1          1      )
                  (     0         -1          0      )

 cart.    s(24) = (  0.0000000  0.0000000 -1.0000000 )
                  (  1.0000000  0.0000000  0.0000000 )
                  (  0.0000000 -1.0000000  0.0000000 )


      isym = 25     inversion                                    

 cryst.   s(25) = (    -1          0          0      )
                  (     0         -1          0      )
                  (     0          0         -1      )

 cart.    s(25) = ( -1.0000000  0.0000000  0.0000000 )
                  (  0.0000000 -1.0000000  0.0000000 )
                  (  0.0000000  0.0000000 -1.0000000 )


      isym = 26     inv. 180 deg rotation - cart. axis [0,0,1]   

 cryst.   s(26) = (     0         -1          1      )
                  (    -1          0          1      )
                  (     0          0          1      )

 cart.    s(26) = (  1.0000000  0.0000000  0.0000000 )
                  (  0.0000000  1.0000000  0.0000000 )
                  (  0.0000000  0.0000000 -1.0000000 )


      isym = 27     inv. 180 deg rotation - cart. axis [0,1,0]   

 cryst.   s(27) = (     1          0          0      )
                  (     1          0         -1      )
                  (     1         -1          0      )

 cart.    s(27) = (  1.0000000  0.0000000  0.0000000 )
                  (  0.0000000 -1.0000000  0.0000000 )
                  (  0.0000000  0.0000000  1.0000000 )


      isym = 28     inv. 180 deg rotation - cart. axis [1,0,0]   

 cryst.   s(28) = (     0          1         -1      )
                  (     0          1          0      )
                  (    -1          1          0      )

 cart.    s(28) = ( -1.0000000  0.0000000  0.0000000 )
                  (  0.0000000  1.0000000  0.0000000 )
                  (  0.0000000  0.0000000  1.0000000 )


      isym = 29     inv. 180 deg rotation - cart. axis [1,1,0]   

 cryst.   s(29) = (     0          1          0      )
                  (     1          0          0      )
                  (     0          0          1      )

 cart.    s(29) = (  0.0000000 -1.0000000  0.0000000 )
                  ( -1.0000000  0.0000000  0.0000000 )
                  (  0.0000000  0.0000000  1.0000000 )


      isym = 30     inv. 180 deg rotation - cart. axis [1,-1,0]  

 cryst.   s(30) = (     1          0         -1      )
                  (     0          1         -1      )
                  (     0          0         -1      )

 cart.    s(30) = (  0.0000000  1.0000000  0.0000000 )
                  (  1.0000000  0.0000000  0.0000000 )
                  (  0.0000000  0.0000000  1.0000000 )


      isym = 31     inv.  90 deg rotation - cart. axis [0,0,-1]  

 cryst.   s(31) = (     0         -1          0      )
                  (     0         -1          1      )
                  (     1         -1          0      )

 cart.    s(31) = (  0.0000000 -1.0000000  0.0000000 )
                  (  1.0000000  0.0000000  0.0000000 )
                  (  0.0000000  0.0000000 -1.0000000 )


      isym = 32     inv.  90 deg rotation - cart. axis [0,0,1]   

 cryst.   s(32) = (    -1          0          1      )
                  (    -1          0          0      )
                  (    -1          1          0      )

 cart.    s(32) = (  0.0000000  1.0000000  0.0000000 )
                  ( -1.0000000  0.0000000  0.0000000 )
                  (  0.0000000  0.0000000 -1.0000000 )


      isym = 33     inv. 180 deg rotation - cart. axis [1,0,1]   

 cryst.   s(33) = (     1          0          0      )
                  (     0          0          1      )
                  (     0          1          0      )

 cart.    s(33) = (  0.0000000  0.0000000 -1.0000000 )
                  (  0.0000000  1.0000000  0.0000000 )
                  ( -1.0000000  0.0000000  0.0000000 )


      isym = 34     inv. 180 deg rotation - cart. axis [-1,0,1]  

 cryst.   s(34) = (    -1          0          0      )
                  (    -1          1          0      )
                  (    -1          0          1      )

 cart.    s(34) = (  0.0000000  0.0000000  1.0000000 )
                  (  0.0000000  1.0000000  0.0000000 )
                  (  1.0000000  0.0000000  0.0000000 )


      isym = 35     inv.  90 deg rotation - cart. axis [0,1,0]   

 cryst.   s(35) = (     0         -1          1      )
                  (     1         -1          0      )
                  (     0         -1          0      )

 cart.    s(35) = (  0.0000000  0.0000000 -1.0000000 )
                  (  0.0000000 -1.0000000  0.0000000 )
                  (  1.0000000  0.0000000  0.0000000 )


      isym = 36     inv.  90 deg rotation - cart. axis [0,-1,0]  

 cryst.   s(36) = (     0          1         -1      )
                  (     0          0         -1      )
                  (     1          0         -1      )

 cart.    s(36) = (  0.0000000  0.0000000  1.0000000 )
                  (  0.0000000 -1.0000000  0.0000000 )
                  ( -1.0000000  0.0000000  0.0000000 )


      isym = 37     inv. 180 deg rotation - cart. axis [0,1,1]   

 cryst.   s(37) = (     1         -1          0      )
                  (     0         -1          0      )
                  (     0         -1          1      )

 cart.    s(37) = (  1.0000000  0.0000000  0.0000000 )
                  (  0.0000000  0.0000000 -1.0000000 )
                  (  0.0000000 -1.0000000  0.0000000 )


      isym = 38     inv. 180 deg rotation - cart. axis [0,1,-1]  

 cryst.   s(38) = (     0          0          1      )
                  (     0          1          0      )
                  (     1          0          0      )

 cart.    s(38) = (  1.0000000  0.0000000  0.0000000 )
                  (  0.0000000  0.0000000  1.0000000 )
                  (  0.0000000  1.0000000  0.0000000 )


      isym = 39     inv.  90 deg rotation - cart. axis [-1,0,0]  

 cryst.   s(39) = (     0          0         -1      )
                  (     1          0         -1      )
                  (     0          1         -1      )

 cart.    s(39) = ( -1.0000000  0.0000000  0.0000000 )
                  (  0.0000000  0.0000000 -1.0000000 )
                  (  0.0000000  1.0000000  0.0000000 )


      isym = 40     inv.  90 deg rotation - cart. axis [1,0,0]   

 cryst.   s(40) = (    -1          1          0      )
                  (    -1          0          1      )
                  (    -1          0          0      )

 cart.    s(40) = ( -1.0000000  0.0000000  0.0000000 )
                  (  0.0000000  0.0000000  1.0000000 )
                  (  0.0000000 -1.0000000  0.0000000 )


      isym = 41     inv. 120 deg rotation - cart. axis [-1,-1,-1]

 cryst.   s(41) = (     1          0         -1      )
                  (     1         -1          0      )
                  (     1          0          0      )

 cart.    s(41) = (  0.0000000 -1.0000000  0.0000000 )
                  (  0.0000000  0.0000000 -1.0000000 )
                  ( -1.0000000  0.0000000  0.0000000 )


      isym = 42     inv. 120 deg rotation - cart. axis [-1,1,1]  

 cryst.   s(42) = (     0         -1          0      )
                  (     0          0         -1      )
                  (    -1          0          0      )

 cart.    s(42) = (  0.0000000  1.0000000  0.0000000 )
                  (  0.0000000  0.0000000 -1.0000000 )
                  (  1.0000000  0.0000000  0.0000000 )


      isym = 43     inv. 120 deg rotation - cart. axis [1,1,-1]  

 cryst.   s(43) = (    -1          0          1      )
                  (     0          0          1      )
                  (     0         -1          1      )

 cart.    s(43) = (  0.0000000 -1.0000000  0.0000000 )
                  (  0.0000000  0.0000000  1.0000000 )
                  (  1.0000000  0.0000000  0.0000000 )


      isym = 44     inv. 120 deg rotation - cart. axis [1,-1,1]  

 cryst.   s(44) = (     0          1          0      )
                  (    -1          1          0      )
                  (     0          1         -1      )

 cart.    s(44) = (  0.0000000  1.0000000  0.0000000 )
                  (  0.0000000  0.0000000  1.0000000 )
                  ( -1.0000000  0.0000000  0.0000000 )


      isym = 45     inv. 120 deg rotation - cart. axis [1,1,1]   

 cryst.   s(45) = (     0          0          1      )
                  (     0         -1          1      )
                  (    -1          0          1      )

 cart.    s(45) = (  0.0000000  0.0000000 -1.0000000 )
                  ( -1.0000000  0.0000000  0.0000000 )
                  (  0.0000000 -1.0000000  0.0000000 )


      isym = 46     inv. 120 deg rotation - cart. axis [-1,1,-1] 

 cryst.   s(46) = (     1         -1          0      )
                  (     1          0          0      )
                  (     1          0         -1      )

 cart.    s(46) = (  0.0000000  0.0000000 -1.0000000 )
                  (  1.0000000  0.0000000  0.0000000 )
                  (  0.0000000  1.0000000  0.0000000 )


      isym = 47     inv. 120 deg rotation - cart. axis [1,-1,-1] 

 cryst.   s(47) = (     0          0         -1      )
                  (    -1          0          0      )
                  (     0         -1          0      )

 cart.    s(47) = (  0.0000000  0.0000000  1.0000000 )
                  (  1.0000000  0.0000000  0.0000000 )
                  (  0.0000000 -1.0000000  0.0000000 )


      isym = 48     inv. 120 deg rotation - cart. axis [-1,-1,1] 

 cryst.   s(48) = (    -1          1          0      )
                  (     0          1         -1      )
                  (     0          1          0      )

 cart.    s(48) = (  0.0000000  0.0000000  1.0000000 )
                  ( -1.0000000  0.0000000  0.0000000 )
                  (  0.0000000  1.0000000  0.0000000 )


   Cartesian axes

     site n.     atom                  positions (alat units)
         1        Al     tau(   1) = (   0.0000000   0.0000000   0.0000000  )

   Crystallographic axes

     site n.     atom                  positions (cryst. coord.)
         1        Al     tau(   1) = (  0.0000000  0.0000000  0.0000000  )

     number of k points=   166  Marzari-Vanderbilt smearing, width (Ry)=  0.0200
                       cart. coord. in units 2pi/alat
        k(    1) = (   0.0000000   0.0000000   0.0000000), wk =   0.0120482
        k(    2) = (  -0.0176777   0.0000000   0.0000000), wk =   0.0120482
        k(    3) = (  -0.0353553   0.0000000   0.0000000), wk =   0.0120482
        k(    4) = (  -0.0530330   0.0000000   0.0000000), wk =   0.0120482
        k(    5) = (  -0.0707107   0.0000000   0.0000000), wk =   0.0120482
        k(    6) = (  -0.0883883   0.0000000   0.0000000), wk =   0.0120482
        k(    7) = (  -0.1060660   0.0000000   0.0000000), wk =   0.0120482
        k(    8) = (  -0.1237437   0.0000000   0.0000000), wk =   0.0120482
        k(    9) = (  -0.1414214   0.0000000   0.0000000), wk =   0.0120482
        k(   10) = (  -0.1590990   0.0000000   0.0000000), wk =   0.0120482
        k(   11) = (  -0.1767767   0.0000000   0.0000000), wk =   0.0120482
        k(   12) = (  -0.1944544   0.0000000   0.0000000), wk =   0.0120482
        k(   13) = (  -0.2121320   0.0000000   0.0000000), wk =   0.0120482
        k(   14) = (  -0.2298097   0.0000000   0.0000000), wk =   0.0120482
        k(   15) = (  -0.2474874   0.0000000   0.0000000), wk =   0.0120482
        k(   16) = (  -0.2651650   0.0000000   0.0000000), wk =   0.0120482
        k(   17) = (  -0.2828427   0.0000000   0.0000000), wk =   0.0120482
        k(   18) = (  -0.3005204   0.0000000   0.0000000), wk =   0.0120482
        k(   19) = (  -0.3181981   0.0000000   0.0000000), wk =   0.0120482
        k(   20) = (  -0.3358757   0.0000000   0.0000000), wk =   0.0120482
        k(   21) = (  -0.3535534   0.0000000   0.0000000), wk =   0.0120482
        k(   22) = (  -0.3712311   0.0000000   0.0000000), wk =   0.0120482
        k(   23) = (  -0.3889087   0.0000000   0.0000000), wk =   0.0120482
        k(   24) = (  -0.4065864   0.0000000   0.0000000), wk =   0.0120482
        k(   25) = (  -0.4242641   0.0000000   0.0000000), wk =   0.0120482
        k(   26) = (  -0.4419417   0.0000000   0.0000000), wk =   0.0120482
        k(   27) = (  -0.4596194   0.0000000   0.0000000), wk =   0.0120482
        k(   28) = (  -0.4772971   0.0000000   0.0000000), wk =   0.0120482
        k(   29) = (  -0.4949747   0.0000000   0.0000000), wk =   0.0120482
        k(   30) = (  -0.5126524   0.0000000   0.0000000), wk =   0.0120482
        k(   31) = (  -0.5303301   0.0000000   0.0000000), wk =   0.0120482
        k(   32) = (  -0.5480078   0.0000000   0.0000000), wk =   0.0120482
        k(   33) = (  -0.5656854   0.0000000   0.0000000), wk =   0.0120482
        k(   34) = (  -0.5833631   0.0000000   0.0000000), wk =   0.0120482
        k(   35) = (  -0.6010408   0.0000000   0.0000000), wk =   0.0120482
        k(   36) = (  -0.6187184   0.0000000   0.0000000), wk =   0.0120482
        k(   37) = (  -0.6363961   0.0000000   0.0000000), wk =   0.0120482
        k(   38) = (  -0.6540738   0.0000000   0.0000000), wk =   0.0120482
        k(   39) = (  -0.6717514   0.0000000   0.0000000), wk =   0.0120482
        k(   40) = (  -0.6894291   0.0000000   0.0000000), wk =   0.0120482
        k(   41) = (  -0.7071068   0.0000000   0.0000000), wk =   0.0120482
        k(   42) = (  -0.7071068   0.0176777   0.0000000), wk =   0.0120482
        k(   43) = (  -0.7071068   0.0353553  -0.0000000), wk =   0.0120482
        k(   44) = (  -0.7071068   0.0530330   0.0000000), wk =   0.0120482
        k(   45) = (  -0.7071068   0.0707107   0.0000000), wk =   0.0120482
        k(   46) = (  -0.7071068   0.0883883   0.0000000), wk =   0.0120482
        k(   47) = (  -0.7071068   0.1060660   0.0000000), wk =   0.0120482
        k(   48) = (  -0.7071068   0.1237437   0.0000000), wk =   0.0120482
        k(   49) = (  -0.7071068   0.1414214   0.0000000), wk =   0.0120482
        k(   50) = (  -0.7071068   0.1590990  -0.0000000), wk =   0.0120482
        k(   51) = (  -0.7071068   0.1767767   0.0000000), wk =   0.0120482
        k(   52) = (  -0.7071068   0.1944544   0.0000000), wk =   0.0120482
        k(   53) = (  -0.7071068   0.2121320  -0.0000000), wk =   0.0120482
        k(   54) = (  -0.7071068   0.2298097   0.0000000), wk =   0.0120482
        k(   55) = (  -0.7071068   0.2474874  -0.0000000), wk =   0.0120482
        k(   56) = (  -0.7071068   0.2651650   0.0000000), wk =   0.0120482
        k(   57) = (  -0.7071068   0.2828427   0.0000000), wk =   0.0120482
        k(   58) = (  -0.7071068   0.3005204   0.0000000), wk =   0.0120482
        k(   59) = (  -0.7071068   0.3181981   0.0000000), wk =   0.0120482
        k(   60) = (  -0.7071068   0.3358757   0.0000000), wk =   0.0120482
        k(   61) = (  -0.7071068   0.3535534   0.0000000), wk =   0.0120482
        k(   62) = (  -0.6944793   0.3535534   0.0126275), wk =   0.0120482
        k(   63) = (  -0.6818532   0.3535534   0.0252536), wk =   0.0120482
        k(   64) = (  -0.6692257   0.3535534   0.0378811), wk =   0.0120482
        k(   65) = (  -0.6565996   0.3535534   0.0505072), wk =   0.0120482
        k(   66) = (  -0.6439720   0.3535534   0.0631347), wk =   0.0120482
        k(   67) = (  -0.6313459   0.3535534   0.0757608), wk =   0.0120482
        k(   68) = (  -0.6187184   0.3535534   0.0883883), wk =   0.0120482
        k(   69) = (  -0.6060909   0.3535534   0.1010159), wk =   0.0120482
        k(   70) = (  -0.5934648   0.3535534   0.1136420), wk =   0.0120482
        k(   71) = (  -0.5808373   0.3535534   0.1262695), wk =   0.0120482
        k(   72) = (  -0.5682112   0.3535534   0.1388956), wk =   0.0120482
        k(   73) = (  -0.5555837   0.3535534   0.1515231), wk =   0.0120482
        k(   74) = (  -0.5429576   0.3535534   0.1641492), wk =   0.0120482
        k(   75) = (  -0.5303301   0.3535534   0.1767767), wk =   0.0120482
        k(   76) = (  -0.5177026   0.3535534   0.1894042), wk =   0.0120482
        k(   77) = (  -0.5050765   0.3535534   0.2020303), wk =   0.0120482
        k(   78) = (  -0.4924490   0.3535534   0.2146578), wk =   0.0120482
        k(   79) = (  -0.4798229   0.3535534   0.2272839), wk =   0.0120482
        k(   80) = (  -0.4671953   0.3535534   0.2399114), wk =   0.0120482
        k(   81) = (  -0.4545693   0.3535534   0.2525375), wk =   0.0120482
        k(   82) = (  -0.4419417   0.3535534   0.2651650), wk =   0.0120482
        k(   83) = (  -0.4293142   0.3535534   0.2777926), wk =   0.0120482
        k(   84) = (  -0.4166881   0.3535534   0.2904187), wk =   0.0120482
        k(   85) = (  -0.4040606   0.3535534   0.3030462), wk =   0.0120482
        k(   86) = (  -0.3914345   0.3535534   0.3156723), wk =   0.0120482
        k(   87) = (  -0.3788070   0.3535534   0.3282998), wk =   0.0120482
        k(   88) = (  -0.3661809   0.3535534   0.3409259), wk =   0.0120482
        k(   89) = (  -0.3535534   0.3535534   0.3535534), wk =   0.0120482
        k(   90) = (  -0.3434517   0.3434517   0.3434517), wk =   0.0120482
        k(   91) = (  -0.3333506   0.3333506   0.3333506), wk =   0.0120482
        k(   92) = (  -0.3232489   0.3232489   0.3232489), wk =   0.0120482
        k(   93) = (  -0.3131472   0.3131472   0.3131472), wk =   0.0120482
        k(   94) = (  -0.3030455   0.3030455   0.3030455), wk =   0.0120482
        k(   95) = (  -0.2929444   0.2929444   0.2929444), wk =   0.0120482
        k(   96) = (  -0.2828427   0.2828427   0.2828427), wk =   0.0120482
        k(   97) = (  -0.2727410   0.2727410   0.2727410), wk =   0.0120482
        k(   98) = (  -0.2626400   0.2626400   0.2626400), wk =   0.0120482
        k(   99) = (  -0.2525382   0.2525382   0.2525382), wk =   0.0120482
        k(  100) = (  -0.2424365   0.2424365   0.2424365), wk =   0.0120482
        k(  101) = (  -0.2323348   0.2323348   0.2323348), wk =   0.0120482
        k(  102) = (  -0.2222338   0.2222338   0.2222338), wk =   0.0120482
        k(  103) = (  -0.2121320   0.2121320   0.2121320), wk =   0.0120482
        k(  104) = (  -0.2020303   0.2020303   0.2020303), wk =   0.0120482
        k(  105) = (  -0.1919293   0.1919293   0.1919293), wk =   0.0120482
        k(  106) = (  -0.1818276   0.1818276   0.1818276), wk =   0.0120482
        k(  107) = (  -0.1717258   0.1717258   0.1717258), wk =   0.0120482
        k(  108) = (  -0.1616241   0.1616241   0.1616241), wk =   0.0120482
        k(  109) = (  -0.1515231   0.1515231   0.1515231), wk =   0.0120482
        k(  110) = (  -0.1414214   0.1414214   0.1414214), wk =   0.0120482
        k(  111) = (  -0.1313196   0.1313196   0.1313196), wk =   0.0120482
        k(  112) = (  -0.1212186   0.1212186   0.1212186), wk =   0.0120482
        k(  113) = (  -0.1111169   0.1111169   0.1111169), wk =   0.0120482
        k(  114) = (  -0.1010152   0.1010152   0.1010152), wk =   0.0120482
        k(  115) = (  -0.0909134   0.0909134   0.0909134), wk =   0.0120482
        k(  116) = (  -0.0808124   0.0808124   0.0808124), wk =   0.0120482
        k(  117) = (  -0.0707107   0.0707107   0.0707107), wk =   0.0120482
        k(  118) = (  -0.0606090   0.0606090   0.0606090), wk =   0.0120482
        k(  119) = (  -0.0505079   0.0505079   0.0505079), wk =   0.0120482
        k(  120) = (  -0.0404062   0.0404062   0.0404062), wk =   0.0120482
        k(  121) = (  -0.0303045   0.0303045   0.0303045), wk =   0.0120482
        k(  122) = (  -0.0202027   0.0202027   0.0202027), wk =   0.0120482
        k(  123) = (  -0.0101017   0.0101017   0.0101017), wk =   0.0120482
        k(  124) = (   0.0000000   0.0000000   0.0000000), wk =   0.0120482
        k(  125) = (  -0.0126268   0.0126268   0.0000007), wk =   0.0120482
        k(  126) = (  -0.0252536   0.0252536   0.0000000), wk =   0.0120482
        k(  127) = (  -0.0378804   0.0378804   0.0000007), wk =   0.0120482
        k(  128) = (  -0.0505079   0.0505079  -0.0000007), wk =   0.0120482
        k(  129) = (  -0.0631347   0.0631347   0.0000000), wk =   0.0120482
        k(  130) = (  -0.0757615   0.0757615  -0.0000007), wk =   0.0120482
        k(  131) = (  -0.0883883   0.0883883   0.0000000), wk =   0.0120482
        k(  132) = (  -0.1010152   0.1010152   0.0000007), wk =   0.0120482
        k(  133) = (  -0.1136420   0.1136420   0.0000000), wk =   0.0120482
        k(  134) = (  -0.1262688   0.1262688   0.0000007), wk =   0.0120482
        k(  135) = (  -0.1388963   0.1388963  -0.0000007), wk =   0.0120482
        k(  136) = (  -0.1515231   0.1515231   0.0000000), wk =   0.0120482
        k(  137) = (  -0.1641499   0.1641499  -0.0000007), wk =   0.0120482
        k(  138) = (  -0.1767767   0.1767767   0.0000000), wk =   0.0120482
        k(  139) = (  -0.1894035   0.1894035   0.0000007), wk =   0.0120482
        k(  140) = (  -0.2020303   0.2020303   0.0000000), wk =   0.0120482
        k(  141) = (  -0.2146571   0.2146571   0.0000007), wk =   0.0120482
        k(  142) = (  -0.2272846   0.2272846  -0.0000007), wk =   0.0120482
        k(  143) = (  -0.2399114   0.2399114   0.0000000), wk =   0.0120482
        k(  144) = (  -0.2525382   0.2525382  -0.0000007), wk =   0.0120482
        k(  145) = (  -0.2651650   0.2651650   0.0000000), wk =   0.0120482
        k(  146) = (  -0.2777918   0.2777918   0.0000007), wk =   0.0120482
        k(  147) = (  -0.2904187   0.2904187   0.0000000), wk =   0.0120482
        k(  148) = (  -0.3030455   0.3030455   0.0000007), wk =   0.0120482
        k(  149) = (  -0.3156730   0.3156730  -0.0000007), wk =   0.0120482
        k(  150) = (  -0.3282998   0.3282998   0.0000000), wk =   0.0120482
        k(  151) = (  -0.3409266   0.3409266  -0.0000007), wk =   0.0120482
        k(  152) = (  -0.3535534   0.3535534   0.0000000), wk =   0.0120482
        k(  153) = (  -0.3661802   0.3661802   0.0000007), wk =   0.0120482
        k(  154) = (  -0.3788070   0.3788070   0.0000000), wk =   0.0120482
        k(  155) = (  -0.3914338   0.3914338   0.0000007), wk =   0.0120482
        k(  156) = (  -0.4040613   0.4040613  -0.0000007), wk =   0.0120482
        k(  157) = (  -0.4166881   0.4166881   0.0000000), wk =   0.0120482
        k(  158) = (  -0.4293149   0.4293149  -0.0000007), wk =   0.0120482
        k(  159) = (  -0.4419417   0.4419417   0.0000000), wk =   0.0120482
        k(  160) = (  -0.4545685   0.4545685   0.0000007), wk =   0.0120482
        k(  161) = (  -0.4671953   0.4671953   0.0000000), wk =   0.0120482
        k(  162) = (  -0.4798222   0.4798222   0.0000007), wk =   0.0120482
        k(  163) = (  -0.4924497   0.4924497  -0.0000007), wk =   0.0120482
        k(  164) = (  -0.5050765   0.5050765   0.0000000), wk =   0.0120482
        k(  165) = (  -0.5177033   0.5177033  -0.0000007), wk =   0.0120482
        k(  166) = (  -0.5303301   0.5303301   0.0000000), wk =   0.0120482

                       cryst. coord.
        k(    1) = (   0.0000000   0.0000000   0.0000000), wk =   0.0120482
        k(    2) = (   0.0125000   0.0000000   0.0125000), wk =   0.0120482
        k(    3) = (   0.0250000   0.0000000   0.0250000), wk =   0.0120482
        k(    4) = (   0.0375000   0.0000000   0.0375000), wk =   0.0120482
        k(    5) = (   0.0500000   0.0000000   0.0500000), wk =   0.0120482
        k(    6) = (   0.0625000   0.0000000   0.0625000), wk =   0.0120482
        k(    7) = (   0.0750000   0.0000000   0.0750000), wk =   0.0120482
        k(    8) = (   0.0875000   0.0000000   0.0875000), wk =   0.0120482
        k(    9) = (   0.1000000   0.0000000   0.1000000), wk =   0.0120482
        k(   10) = (   0.1125000   0.0000000   0.1125000), wk =   0.0120482
        k(   11) = (   0.1250000   0.0000000   0.1250000), wk =   0.0120482
        k(   12) = (   0.1375000   0.0000000   0.1375000), wk =   0.0120482
        k(   13) = (   0.1500000   0.0000000   0.1500000), wk =   0.0120482
        k(   14) = (   0.1625000   0.0000000   0.1625000), wk =   0.0120482
        k(   15) = (   0.1750000   0.0000000   0.1750000), wk =   0.0120482
        k(   16) = (   0.1875000   0.0000000   0.1875000), wk =   0.0120482
        k(   17) = (   0.2000000   0.0000000   0.2000000), wk =   0.0120482
        k(   18) = (   0.2125000   0.0000000   0.2125000), wk =   0.0120482
        k(   19) = (   0.2250000   0.0000000   0.2250000), wk =   0.0120482
        k(   20) = (   0.2375000   0.0000000   0.2375000), wk =   0.0120482
        k(   21) = (   0.2500000   0.0000000   0.2500000), wk =   0.0120482
        k(   22) = (   0.2625000   0.0000000   0.2625000), wk =   0.0120482
        k(   23) = (   0.2750000   0.0000000   0.2750000), wk =   0.0120482
        k(   24) = (   0.2875000   0.0000000   0.2875000), wk =   0.0120482
        k(   25) = (   0.3000000   0.0000000   0.3000000), wk =   0.0120482
        k(   26) = (   0.3125000   0.0000000   0.3125000), wk =   0.0120482
        k(   27) = (   0.3250000   0.0000000   0.3250000), wk =   0.0120482
        k(   28) = (   0.3375000   0.0000000   0.3375000), wk =   0.0120482
        k(   29) = (   0.3500000   0.0000000   0.3500000), wk =   0.0120482
        k(   30) = (   0.3625000   0.0000000   0.3625000), wk =   0.0120482
        k(   31) = (   0.3750000   0.0000000   0.3750000), wk =   0.0120482
        k(   32) = (   0.3875000   0.0000000   0.3875000), wk =   0.0120482
        k(   33) = (   0.4000000   0.0000000   0.4000000), wk =   0.0120482
        k(   34) = (   0.4125000   0.0000000   0.4125000), wk =   0.0120482
        k(   35) = (   0.4250000   0.0000000   0.4250000), wk =   0.0120482
        k(   36) = (   0.4375000   0.0000000   0.4375000), wk =   0.0120482
        k(   37) = (   0.4500000   0.0000000   0.4500000), wk =   0.0120482
        k(   38) = (   0.4625000   0.0000000   0.4625000), wk =   0.0120482
        k(   39) = (   0.4750000   0.0000000   0.4750000), wk =   0.0120482
        k(   40) = (   0.4875000   0.0000000   0.4875000), wk =   0.0120482
        k(   41) = (   0.5000000   0.0000000   0.5000000), wk =   0.0120482
        k(   42) = (   0.5000000   0.0125000   0.5125000), wk =   0.0120482
        k(   43) = (   0.5000000   0.0250000   0.5250000), wk =   0.0120482
        k(   44) = (   0.5000000   0.0375000   0.5375000), wk =   0.0120482
        k(   45) = (   0.5000000   0.0500000   0.5500000), wk =   0.0120482
        k(   46) = (   0.5000000   0.0625000   0.5625000), wk =   0.0120482
        k(   47) = (   0.5000000   0.0750000   0.5750000), wk =   0.0120482
        k(   48) = (   0.5000000   0.0875000   0.5875000), wk =   0.0120482
        k(   49) = (   0.5000000   0.1000000   0.6000000), wk =   0.0120482
        k(   50) = (   0.5000000   0.1125000   0.6125000), wk =   0.0120482
        k(   51) = (   0.5000000   0.1250000   0.6250000), wk =   0.0120482
        k(   52) = (   0.5000000   0.1375000   0.6375000), wk =   0.0120482
        k(   53) = (   0.5000000   0.1500000   0.6500000), wk =   0.0120482
        k(   54) = (   0.5000000   0.1625000   0.6625000), wk =   0.0120482
        k(   55) = (   0.5000000   0.1750000   0.6750000), wk =   0.0120482
        k(   56) = (   0.5000000   0.1875000   0.6875000), wk =   0.0120482
        k(   57) = (   0.5000000   0.2000000   0.7000000), wk =   0.0120482
        k(   58) = (   0.5000000   0.2125000   0.7125000), wk =   0.0120482
        k(   59) = (   0.5000000   0.2250000   0.7250000), wk =   0.0120482
        k(   60) = (   0.5000000   0.2375000   0.7375000), wk =   0.0120482
        k(   61) = (   0.5000000   0.2500000   0.7500000), wk =   0.0120482
        k(   62) = (   0.5000000   0.2589290   0.7410710), wk =   0.0120482
        k(   63) = (   0.5000000   0.2678570   0.7321430), wk =   0.0120482
        k(   64) = (   0.5000000   0.2767860   0.7232140), wk =   0.0120482
        k(   65) = (   0.5000000   0.2857140   0.7142860), wk =   0.0120482
        k(   66) = (   0.5000000   0.2946430   0.7053570), wk =   0.0120482
        k(   67) = (   0.5000000   0.3035710   0.6964290), wk =   0.0120482
        k(   68) = (   0.5000000   0.3125000   0.6875000), wk =   0.0120482
        k(   69) = (   0.5000000   0.3214290   0.6785710), wk =   0.0120482
        k(   70) = (   0.5000000   0.3303570   0.6696430), wk =   0.0120482
        k(   71) = (   0.5000000   0.3392860   0.6607140), wk =   0.0120482
        k(   72) = (   0.5000000   0.3482140   0.6517860), wk =   0.0120482
        k(   73) = (   0.5000000   0.3571430   0.6428570), wk =   0.0120482
        k(   74) = (   0.5000000   0.3660710   0.6339290), wk =   0.0120482
        k(   75) = (   0.5000000   0.3750000   0.6250000), wk =   0.0120482
        k(   76) = (   0.5000000   0.3839290   0.6160710), wk =   0.0120482
        k(   77) = (   0.5000000   0.3928570   0.6071430), wk =   0.0120482
        k(   78) = (   0.5000000   0.4017860   0.5982140), wk =   0.0120482
        k(   79) = (   0.5000000   0.4107140   0.5892860), wk =   0.0120482
        k(   80) = (   0.5000000   0.4196430   0.5803570), wk =   0.0120482
        k(   81) = (   0.5000000   0.4285710   0.5714290), wk =   0.0120482
        k(   82) = (   0.5000000   0.4375000   0.5625000), wk =   0.0120482
        k(   83) = (   0.5000000   0.4464290   0.5535710), wk =   0.0120482
        k(   84) = (   0.5000000   0.4553570   0.5446430), wk =   0.0120482
        k(   85) = (   0.5000000   0.4642860   0.5357140), wk =   0.0120482
        k(   86) = (   0.5000000   0.4732140   0.5267860), wk =   0.0120482
        k(   87) = (   0.5000000   0.4821430   0.5178570), wk =   0.0120482
        k(   88) = (   0.5000000   0.4910710   0.5089290), wk =   0.0120482
        k(   89) = (   0.5000000   0.5000000   0.5000000), wk =   0.0120482
        k(   90) = (   0.4857140   0.4857140   0.4857140), wk =   0.0120482
        k(   91) = (   0.4714290   0.4714290   0.4714290), wk =   0.0120482
        k(   92) = (   0.4571430   0.4571430   0.4571430), wk =   0.0120482
        k(   93) = (   0.4428570   0.4428570   0.4428570), wk =   0.0120482
        k(   94) = (   0.4285710   0.4285710   0.4285710), wk =   0.0120482
        k(   95) = (   0.4142860   0.4142860   0.4142860), wk =   0.0120482
        k(   96) = (   0.4000000   0.4000000   0.4000000), wk =   0.0120482
        k(   97) = (   0.3857140   0.3857140   0.3857140), wk =   0.0120482
        k(   98) = (   0.3714290   0.3714290   0.3714290), wk =   0.0120482
        k(   99) = (   0.3571430   0.3571430   0.3571430), wk =   0.0120482
        k(  100) = (   0.3428570   0.3428570   0.3428570), wk =   0.0120482
        k(  101) = (   0.3285710   0.3285710   0.3285710), wk =   0.0120482
        k(  102) = (   0.3142860   0.3142860   0.3142860), wk =   0.0120482
        k(  103) = (   0.3000000   0.3000000   0.3000000), wk =   0.0120482
        k(  104) = (   0.2857140   0.2857140   0.2857140), wk =   0.0120482
        k(  105) = (   0.2714290   0.2714290   0.2714290), wk =   0.0120482
        k(  106) = (   0.2571430   0.2571430   0.2571430), wk =   0.0120482
        k(  107) = (   0.2428570   0.2428570   0.2428570), wk =   0.0120482
        k(  108) = (   0.2285710   0.2285710   0.2285710), wk =   0.0120482
        k(  109) = (   0.2142860   0.2142860   0.2142860), wk =   0.0120482
        k(  110) = (   0.2000000   0.2000000   0.2000000), wk =   0.0120482
        k(  111) = (   0.1857140   0.1857140   0.1857140), wk =   0.0120482
        k(  112) = (   0.1714290   0.1714290   0.1714290), wk =   0.0120482
        k(  113) = (   0.1571430   0.1571430   0.1571430), wk =   0.0120482
        k(  114) = (   0.1428570   0.1428570   0.1428570), wk =   0.0120482
        k(  115) = (   0.1285710   0.1285710   0.1285710), wk =   0.0120482
        k(  116) = (   0.1142860   0.1142860   0.1142860), wk =   0.0120482
        k(  117) = (   0.1000000   0.1000000   0.1000000), wk =   0.0120482
        k(  118) = (   0.0857140   0.0857140   0.0857140), wk =   0.0120482
        k(  119) = (   0.0714290   0.0714290   0.0714290), wk =   0.0120482
        k(  120) = (   0.0571430   0.0571430   0.0571430), wk =   0.0120482
        k(  121) = (   0.0428570   0.0428570   0.0428570), wk =   0.0120482
        k(  122) = (   0.0285710   0.0285710   0.0285710), wk =   0.0120482
        k(  123) = (   0.0142860   0.0142860   0.0142860), wk =   0.0120482
        k(  124) = (   0.0000000   0.0000000   0.0000000), wk =   0.0120482
        k(  125) = (   0.0089290   0.0089290   0.0178570), wk =   0.0120482
        k(  126) = (   0.0178570   0.0178570   0.0357140), wk =   0.0120482
        k(  127) = (   0.0267860   0.0267860   0.0535710), wk =   0.0120482
        k(  128) = (   0.0357140   0.0357140   0.0714290), wk =   0.0120482
        k(  129) = (   0.0446430   0.0446430   0.0892860), wk =   0.0120482
        k(  130) = (   0.0535710   0.0535710   0.1071430), wk =   0.0120482
        k(  131) = (   0.0625000   0.0625000   0.1250000), wk =   0.0120482
        k(  132) = (   0.0714290   0.0714290   0.1428570), wk =   0.0120482
        k(  133) = (   0.0803570   0.0803570   0.1607140), wk =   0.0120482
        k(  134) = (   0.0892860   0.0892860   0.1785710), wk =   0.0120482
        k(  135) = (   0.0982140   0.0982140   0.1964290), wk =   0.0120482
        k(  136) = (   0.1071430   0.1071430   0.2142860), wk =   0.0120482
        k(  137) = (   0.1160710   0.1160710   0.2321430), wk =   0.0120482
        k(  138) = (   0.1250000   0.1250000   0.2500000), wk =   0.0120482
        k(  139) = (   0.1339290   0.1339290   0.2678570), wk =   0.0120482
        k(  140) = (   0.1428570   0.1428570   0.2857140), wk =   0.0120482
        k(  141) = (   0.1517860   0.1517860   0.3035710), wk =   0.0120482
        k(  142) = (   0.1607140   0.1607140   0.3214290), wk =   0.0120482
        k(  143) = (   0.1696430   0.1696430   0.3392860), wk =   0.0120482
        k(  144) = (   0.1785710   0.1785710   0.3571430), wk =   0.0120482
        k(  145) = (   0.1875000   0.1875000   0.3750000), wk =   0.0120482
        k(  146) = (   0.1964290   0.1964290   0.3928570), wk =   0.0120482
        k(  147) = (   0.2053570   0.2053570   0.4107140), wk =   0.0120482
        k(  148) = (   0.2142860   0.2142860   0.4285710), wk =   0.0120482
        k(  149) = (   0.2232140   0.2232140   0.4464290), wk =   0.0120482
        k(  150) = (   0.2321430   0.2321430   0.4642860), wk =   0.0120482
        k(  151) = (   0.2410710   0.2410710   0.4821430), wk =   0.0120482
        k(  152) = (   0.2500000   0.2500000   0.5000000), wk =   0.0120482
        k(  153) = (   0.2589290   0.2589290   0.5178570), wk =   0.0120482
        k(  154) = (   0.2678570   0.2678570   0.5357140), wk =   0.0120482
        k(  155) = (   0.2767860   0.2767860   0.5535710), wk =   0.0120482
        k(  156) = (   0.2857140   0.2857140   0.5714290), wk =   0.0120482
        k(  157) = (   0.2946430   0.2946430   0.5892860), wk =   0.0120482
        k(  158) = (   0.3035710   0.3035710   0.6071430), wk =   0.0120482
        k(  159) = (   0.3125000   0.3125000   0.6250000), wk =   0.0120482
        k(  160) = (   0.3214290   0.3214290   0.6428570), wk =   0.0120482
        k(  161) = (   0.3303570   0.3303570   0.6607140), wk =   0.0120482
        k(  162) = (   0.3392860   0.3392860   0.6785710), wk =   0.0120482
        k(  163) = (   0.3482140   0.3482140   0.6964290), wk =   0.0120482
        k(  164) = (   0.3571430   0.3571430   0.7142860), wk =   0.0120482
        k(  165) = (   0.3660710   0.3660710   0.7321430), wk =   0.0120482
        k(  166) = (   0.3750000   0.3750000   0.7500000), wk =   0.0120482

     Dense  grid:     3527 G-vectors     FFT dimensions: (  24,  24,  24)

     Dynamical RAM for                 wfc:       0.04 MB

     Dynamical RAM for     wfc (w. buffer):       0.04 MB

     Dynamical RAM for           str. fact:       0.05 MB

     Dynamical RAM for           local pot:       0.00 MB

     Dynamical RAM for          nlocal pot:       0.03 MB

     Dynamical RAM for                qrad:       0.09 MB

     Dynamical RAM for          rho,v,vnew:       0.48 MB

     Dynamical RAM for           G-vectors:       0.23 MB

     Dynamical RAM for          h,s,v(r/c):       0.01 MB

     Dynamical RAM for          <psi|beta>:       0.00 MB

     Dynamical RAM for                 psi:       0.08 MB

     Dynamical RAM for                hpsi:       0.08 MB

     Dynamical RAM for      wfcinit/wfcrot:       0.08 MB

     Estimated static dynamical RAM per process >       1.55 MB

     Estimated max dynamical RAM per process >       1.72 MB

     Estimated total dynamical RAM >       6.88 MB

     The potential is recalculated from file :
     ./tmp/al.save/charge-density

     Starting wfcs are    4 randomized atomic wfcs +    2 random wfcs

     Band Structure Calculation
     Davidson diagonalization with overlap

     Computing kpt #:     1  of    42 on this pool
     total cpu time spent up to now is        0.2 secs

     Computing kpt #:     2  of    42 on this pool
     total cpu time spent up to now is        0.3 secs

     Computing kpt #:     3  of    42 on this pool
     total cpu time spent up to now is        0.3 secs

     Computing kpt #:     4  of    42 on this pool
     total cpu time spent up to now is        0.4 secs

     Computing kpt #:     5  of    42 on this pool
     total cpu time spent up to now is        0.5 secs

     Computing kpt #:     6  of    42 on this pool
     total cpu time spent up to now is        0.5 secs

     Computing kpt #:     7  of    42 on this pool
     total cpu time spent up to now is        0.6 secs

     Computing kpt #:     8  of    42 on this pool
     total cpu time spent up to now is        0.6 secs

     Computing kpt #:     9  of    42 on this pool
     total cpu time spent up to now is        0.7 secs

     Computing kpt #:    10  of    42 on this pool
     total cpu time spent up to now is        0.7 secs

     Computing kpt #:    11  of    42 on this pool
     total cpu time spent up to now is        0.8 secs

     Computing kpt #:    12  of    42 on this pool
     total cpu time spent up to now is        0.9 secs

     Computing kpt #:    13  of    42 on this pool
     total cpu time spent up to now is        0.9 secs

     Computing kpt #:    14  of    42 on this pool
     total cpu time spent up to now is        1.0 secs

     Computing kpt #:    15  of    42 on this pool
     total cpu time spent up to now is        1.1 secs

     Computing kpt #:    16  of    42 on this pool
     total cpu time spent up to now is        1.1 secs

     Computing kpt #:    17  of    42 on this pool
     total cpu time spent up to now is        1.2 secs

     Computing kpt #:    18  of    42 on this pool
     total cpu time spent up to now is        1.2 secs

     Computing kpt #:    19  of    42 on this pool
     total cpu time spent up to now is        1.3 secs

     Computing kpt #:    20  of    42 on this pool
     total cpu time spent up to now is        1.3 secs

     Computing kpt #:    21  of    42 on this pool
     total cpu time spent up to now is        1.4 secs

     Computing kpt #:    22  of    42 on this pool
     total cpu time spent up to now is        1.4 secs

     Computing kpt #:    23  of    42 on this pool
     total cpu time spent up to now is        1.5 secs

     Computing kpt #:    24  of    42 on this pool
     total cpu time spent up to now is        1.5 secs

     Computing kpt #:    25  of    42 on this pool
     total cpu time spent up to now is        1.6 secs

     Computing kpt #:    26  of    42 on this pool
     total cpu time spent up to now is        1.6 secs

     Computing kpt #:    27  of    42 on this pool
     total cpu time spent up to now is        1.7 secs

     Computing kpt #:    28  of    42 on this pool
     total cpu time spent up to now is        1.7 secs

     Computing kpt #:    29  of    42 on this pool
     total cpu time spent up to now is        1.8 secs

     Computing kpt #:    30  of    42 on this pool
     total cpu time spent up to now is        1.8 secs

     Computing kpt #:    31  of    42 on this pool
     total cpu time spent up to now is        1.9 secs

     Computing kpt #:    32  of    42 on this pool
     total cpu time spent up to now is        2.0 secs

     Computing kpt #:    33  of    42 on this pool
     total cpu time spent up to now is        2.0 secs

     Computing kpt #:    34  of    42 on this pool
     total cpu time spent up to now is        2.1 secs

     Computing kpt #:    35  of    42 on this pool
     total cpu time spent up to now is        2.2 secs

     Computing kpt #:    36  of    42 on this pool
     total cpu time spent up to now is        2.3 secs

     Computing kpt #:    37  of    42 on this pool
     total cpu time spent up to now is        2.3 secs

     Computing kpt #:    38  of    42 on this pool
     total cpu time spent up to now is        2.4 secs

     Computing kpt #:    39  of    42 on this pool
     total cpu time spent up to now is        2.5 secs

     Computing kpt #:    40  of    42 on this pool
     total cpu time spent up to now is        2.5 secs

     Computing kpt #:    41  of    42 on this pool
     total cpu time spent up to now is        2.6 secs

     Computing kpt #:    42  of    42 on this pool
     total cpu time spent up to now is        2.7 secs

     ethr =  1.00E-13,  avg # of iterations = 41.5

     total cpu time spent up to now is        2.7 secs

     End of band structure calculation

          k = 0.0000 0.0000 0.0000 (   459 PWs)   bands (ev):

    -3.1666  21.3263  21.3263  21.3263  22.7463  22.7463

          k =-0.0177 0.0000 0.0000 (   459 PWs)   bands (ev):

    -3.1606  21.2297  21.2297  21.2744  22.7332  22.8518

          k =-0.0354 0.0000 0.0000 (   459 PWs)   bands (ev):

    -3.1426  20.9967  20.9967  21.1282  22.6943  23.1119

          k =-0.0530 0.0000 0.0000 (   451 PWs)   bands (ev):

    -3.1127  20.7037  20.7037  20.9090  22.6308  23.4499

          k =-0.0707 0.0000 0.0000 (   443 PWs)   bands (ev):

    -3.0708  20.3887  20.3887  20.6400  22.5443  23.8276

          k =-0.0884 0.0000 0.0000 (   443 PWs)   bands (ev):

    -3.0170  20.0676  20.0676  20.3397  22.4369  24.2289

          k =-0.1061 0.0000 0.0000 (   443 PWs)   bands (ev):

    -2.9513  19.7474  19.7474  20.0214  22.3111  24.6463

          k =-0.1237 0.0000 0.0000 (   443 PWs)   bands (ev):

    -2.8737  19.4316  19.4316  19.6940  22.1694  25.0760

          k =-0.1414 0.0000 0.0000 (   443 PWs)   bands (ev):

    -2.7843  19.1223  19.1223  19.3634  22.0143  24.7850

          k =-0.1591 0.0000 0.0000 (   443 PWs)   bands (ev):

    -2.6830  18.8206  18.8206  19.0336  21.8483  24.1043

          k =-0.1768 0.0000 0.0000 (   451 PWs)   bands (ev):

    -2.5700  18.5272  18.5272  18.7073  21.6734  23.4208

          k =-0.1945 0.0000 0.0000 (   451 PWs)   bands (ev):

    -2.4452  18.2425  18.2425  18.3866  21.4917  22.7376

          k =-0.2121 0.0000 0.0000 (   451 PWs)   bands (ev):

    -2.3087  17.9670  17.9670  18.0729  21.3050  22.0572

          k =-0.2298 0.0000 0.0000 (   451 PWs)   bands (ev):

    -2.1606  17.7008  17.7008  17.7672  21.1133  21.3825

          k =-0.2475 0.0000 0.0000 (   451 PWs)   bands (ev):

    -2.0008  17.4440  17.4440  17.4702  20.7032  20.9297

          k =-0.2652 0.0000 0.0000 (   447 PWs)   bands (ev):

    -1.8295  17.1825  17.1969  17.1969  20.0402  20.7354

          k =-0.2828 0.0000 0.0000 (   443 PWs)   bands (ev):

    -1.6467  16.9046  16.9594  16.9594  19.3816  20.5443

          k =-0.3005 0.0000 0.0000 (   443 PWs)   bands (ev):

    -1.4525  16.6369  16.7316  16.7316  18.7299  20.3551

          k =-0.3182 0.0000 0.0000 (   455 PWs)   bands (ev):

    -1.2471  16.3795  16.5135  16.5135  18.0857  20.1688

          k =-0.3359 0.0000 0.0000 (   456 PWs)   bands (ev):

    -1.0303  16.1328  16.3052  16.3052  17.4494  19.9861

          k =-0.3536 0.0000 0.0000 (   456 PWs)   bands (ev):

    -0.8023  15.8969  16.1068  16.1068  16.8211  19.8078

          k =-0.3712 0.0000 0.0000 (   456 PWs)   bands (ev):

    -0.5632  15.6720  15.9181  15.9181  16.2013  19.6346

          k =-0.3889 0.0000 0.0000 (   444 PWs)   bands (ev):

    -0.3131  15.4582  15.5900  15.7392  15.7392  19.4674

          k =-0.4066 0.0000 0.0000 (   444 PWs)   bands (ev):

    -0.0521  14.9874  15.2556  15.5702  15.5702  19.3061

          k =-0.4243 0.0000 0.0000 (   444 PWs)   bands (ev):

     0.2197  14.3936  15.0642  15.4109  15.4109  19.1516

          k =-0.4419 0.0000 0.0000 (   444 PWs)   bands (ev):

     0.5022  13.8088  14.8842  15.2613  15.2613  19.0043

          k =-0.4596 0.0000 0.0000 (   444 PWs)   bands (ev):

     0.7952  13.2331  14.7156  15.1215  15.1215  18.8646

          k =-0.4773 0.0000 0.0000 (   444 PWs)   bands (ev):

     1.0987  12.6667  14.5585  14.9915  14.9915  18.7330

          k =-0.4950 0.0000 0.0000 (   444 PWs)   bands (ev):

     1.4124  12.1096  14.4128  14.8711  14.8711  18.6098

          k =-0.5127 0.0000 0.0000 (   444 PWs)   bands (ev):

     1.7361  11.5621  14.2787  14.7605  14.7605  18.4953

          k =-0.5303 0.0000 0.0000 (   448 PWs)   bands (ev):

     2.0696  11.0244  14.1562  14.6595  14.6595  18.3898

          k =-0.5480 0.0000 0.0000 (   448 PWs)   bands (ev):

     2.4126  10.4968  14.0453  14.5683  14.5683  18.2936

          k =-0.5657 0.0000 0.0000 (   452 PWs)   bands (ev):

     2.7646   9.9796  13.9460  14.4866  14.4866  18.2069

          k =-0.5834 0.0000 0.0000 (   452 PWs)   bands (ev):

     3.1250   9.4736  13.8583  14.4147  14.4147  18.1299

          k =-0.6010 0.0000 0.0000 (   452 PWs)   bands (ev):

     3.4928   8.9796  13.7823  14.3523  14.3523  18.0628

          k =-0.6187 0.0000 0.0000 (   452 PWs)   bands (ev):

     3.8664   8.4994  13.7180  14.2996  14.2996  18.0058

          k =-0.6364 0.0000 0.0000 (   452 PWs)   bands (ev):

     4.2428   8.0358  13.6653  14.2564  14.2564  17.9589

          k =-0.6541 0.0000 0.0000 (   452 PWs)   bands (ev):

     4.6156   7.5951  13.6244  14.2229  14.2229  17.9224

          k =-0.6718 0.0000 0.0000 (   452 PWs)   bands (ev):

     4.9698   7.1925  13.5951  14.1989  14.1989  17.8963

          k =-0.6894 0.0000 0.0000 (   444 PWs)   bands (ev):

     5.2639   6.8693  13.5776  14.1846  14.1846  17.8807

          k =-0.7071 0.0000 0.0000 (   444 PWs)   bands (ev):

     5.3930   6.7305  13.5717  14.1798  14.1798  17.8755

          k =-0.7071 0.0177 0.0000 (   444 PWs)   bands (ev):

     5.3982   6.7362  13.3555  14.1367  14.4070  17.9267

          k =-0.7071 0.0354-0.0000 (   448 PWs)   bands (ev):

     5.4138   6.7532  12.9878  14.0142  14.8079  18.0735

          k =-0.7071 0.0530 0.0000 (   448 PWs)   bands (ev):

     5.4399   6.7816  12.6034  13.8283  15.2476  18.3002

          k =-0.7071 0.0707 0.0000 (   454 PWs)   bands (ev):

     5.4764   6.8211  12.2219  13.5970  15.7065  18.5884

          k =-0.7071 0.0884 0.0000 (   454 PWs)   bands (ev):

     5.5234   6.8719  11.8480  13.3357  16.1798  18.9230

          k =-0.7071 0.1061 0.0000 (   454 PWs)   bands (ev):

     5.5808   6.9337  11.4834  13.0558  16.6660  19.2925

          k =-0.7071 0.1237 0.0000 (   454 PWs)   bands (ev):

     5.6486   7.0065  11.1288  12.7654  17.1641  19.6886

          k =-0.7071 0.1414 0.0000 (   450 PWs)   bands (ev):

     5.7270   7.0899  10.7845  12.4705  17.6738  20.1055

          k =-0.7071 0.1591-0.0000 (   450 PWs)   bands (ev):

     5.8158   7.1837  10.4508  12.1748  18.1949  20.5392

          k =-0.7071 0.1768 0.0000 (   452 PWs)   bands (ev):

     5.9150   7.2876  10.1277  11.8817  18.7272  20.9863

          k =-0.7071 0.1945 0.0000 (   448 PWs)   bands (ev):

     6.0248   7.4011   9.8154  11.5936  19.2705  21.4444

          k =-0.7071 0.2121-0.0000 (   444 PWs)   bands (ev):

     6.1451   7.5235   9.5138  11.3124  19.8249  21.9110

          k =-0.7071 0.2298 0.0000 (   444 PWs)   bands (ev):

     6.2760   7.6538   9.2229  11.0402  20.3900  22.3837

          k =-0.7071 0.2475-0.0000 (   444 PWs)   bands (ev):

     6.4173   7.7906   8.9429  10.7792  20.9659  22.8595

          k =-0.7071 0.2652 0.0000 (   444 PWs)   bands (ev):

     6.5693   7.9316   8.6736  10.5323  21.5524  23.3342

          k =-0.7071 0.2828 0.0000 (   454 PWs)   bands (ev):

     6.7318   8.0731   8.4150  10.3035  22.1493  23.8007

          k =-0.7071 0.3005 0.0000 (   450 PWs)   bands (ev):

     6.9049   8.1672   8.2089  10.0996  22.7567  24.2468

          k =-0.7071 0.3182 0.0000 (   446 PWs)   bands (ev):

     7.0886   7.9301   8.3283   9.9315  23.3742  24.6471

          k =-0.7071 0.3359 0.0000 (   444 PWs)   bands (ev):

     7.2830   7.7037   8.4142   9.8162  24.0018  24.9496

          k =-0.7071 0.3536 0.0000 (   444 PWs)   bands (ev):

     7.4880   7.4880   8.4463   9.7744  24.6391  24.6391

          k =-0.6945 0.3536 0.0126 (   444 PWs)   bands (ev):

     7.4026   7.4492   8.5429   9.8228  24.5107  24.6130

          k =-0.6819 0.3536 0.0253 (   446 PWs)   bands (ev):

     7.2076   7.3416   8.7714   9.9594  24.2852  24.5381

          k =-0.6692 0.3536 0.0379 (   448 PWs)   bands (ev):

     6.9741   7.1846   9.0609  10.1648  24.0491  24.4233

          k =-0.6566 0.3536 0.0505 (   450 PWs)   bands (ev):

     6.7311   6.9972   9.3820  10.4200  23.8168  24.2793

          k =-0.6440 0.3536 0.0631 (   448 PWs)   bands (ev):

     6.4894   6.7931   9.7242  10.7111  23.5918  24.1156

          k =-0.6313 0.3536 0.0758 (   444 PWs)   bands (ev):

     6.2536   6.5817  10.0829  11.0287  23.3753  23.9397

          k =-0.6187 0.3536 0.0884 (   446 PWs)   bands (ev):

     6.0256   6.3687  10.4558  11.3671  23.1678  23.7574

          k =-0.6061 0.3536 0.1010 (   440 PWs)   bands (ev):

     5.8067   6.1579  10.8419  11.7224  22.9696  23.5726

          k =-0.5935 0.3536 0.1136 (   442 PWs)   bands (ev):

     5.5975   5.9518  11.2402  12.0918  22.7808  23.3883

          k =-0.5808 0.3536 0.1263 (   442 PWs)   bands (ev):

     5.3984   5.7521  11.6505  12.4736  22.6014  23.2065

          k =-0.5682 0.3536 0.1389 (   440 PWs)   bands (ev):

     5.2097   5.5600  12.0723  12.8664  22.4313  23.0288

          k =-0.5556 0.3536 0.1515 (   440 PWs)   bands (ev):

     5.0314   5.3765  12.5053  13.2690  22.2705  22.8562

          k =-0.5430 0.3536 0.1641 (   442 PWs)   bands (ev):

     4.8638   5.2022  12.9491  13.6806  22.1189  22.6893

          k =-0.5303 0.3536 0.1768 (   442 PWs)   bands (ev):

     4.7069   5.0376  13.4035  14.1003  21.9762  22.5286

          k =-0.5177 0.3536 0.1894 (   444 PWs)   bands (ev):

     4.5607   4.8831  13.8681  14.5273  21.8424  22.3742

          k =-0.5051 0.3536 0.2020 (   448 PWs)   bands (ev):

     4.4252   4.7392  14.3425  14.9608  21.7171  22.2261

          k =-0.4924 0.3536 0.2147 (   446 PWs)   bands (ev):

     4.3006   4.6060  14.8260  15.4000  21.6000  22.0838

          k =-0.4798 0.3536 0.2273 (   446 PWs)   bands (ev):

     4.1868   4.4837  15.3180  15.8440  21.4904  21.9465

          k =-0.4672 0.3536 0.2399 (   446 PWs)   bands (ev):

     4.0838   4.3726  15.8175  16.2916  21.3876  21.8128

          k =-0.4546 0.3536 0.2525 (   448 PWs)   bands (ev):

     3.9917   4.2728  16.3231  16.7414  21.2903  21.6809

          k =-0.4419 0.3536 0.2652 (   446 PWs)   bands (ev):

     3.9103   4.1845  16.8332  17.1919  21.1967  21.5477

          k =-0.4293 0.3536 0.2778 (   446 PWs)   bands (ev):

     3.8399   4.1078  17.3451  17.6409  21.1040  21.4092

          k =-0.4167 0.3536 0.2904 (   448 PWs)   bands (ev):

     3.7802   4.0427  17.8550  18.0857  21.0075  21.2596

          k =-0.4041 0.3536 0.3030 (   448 PWs)   bands (ev):

     3.7314   3.9893  18.3576  18.5228  20.9001  21.0918

          k =-0.3914 0.3536 0.3157 (   448 PWs)   bands (ev):

     3.6935   3.9477  18.8448  18.9476  20.7703  20.8974

          k =-0.3788 0.3536 0.3283 (   448 PWs)   bands (ev):

     3.6664   3.9180  19.3055  19.3544  20.6027  20.6681

          k =-0.3662 0.3536 0.3409 (   444 PWs)   bands (ev):

     3.6501   3.9002  19.7246  19.7362  20.3794  20.3986

          k =-0.3536 0.3536 0.3536 (   434 PWs)   bands (ev):

     3.6447   3.8944  20.0684  20.0684  20.1048  20.1048

          k =-0.3435 0.3435 0.3435 (   437 PWs)   bands (ev):

     3.3708   4.1779  19.9757  19.9757  20.2072  20.2072

          k =-0.3334 0.3334 0.3334 (   437 PWs)   bands (ev):

     3.0114   4.5664  19.8766  19.8766  20.3351  20.3351

          k =-0.3232 0.3232 0.3232 (   449 PWs)   bands (ev):

     2.6554   4.9708  19.7866  19.7866  20.4732  20.4732

          k =-0.3131 0.3131 0.3131 (   449 PWs)   bands (ev):

     2.3077   5.3863  19.7061  19.7061  20.6211  20.6211

          k =-0.3030 0.3030 0.3030 (   449 PWs)   bands (ev):

     1.9694   5.8119  19.6351  19.6351  20.7786  20.7786

          k =-0.2929 0.2929 0.2929 (   443 PWs)   bands (ev):

     1.6410   6.2470  19.5736  19.5736  20.9457  20.9457

          k =-0.2828 0.2828 0.2828 (   443 PWs)   bands (ev):

     1.3225   6.6915  19.5217  19.5217  21.1224  21.1224

          k =-0.2727 0.2727 0.2727 (   443 PWs)   bands (ev):

     1.0142   7.1453  19.4792  19.4792  21.3087  21.3087

          k =-0.2626 0.2626 0.2626 (   449 PWs)   bands (ev):

     0.7161   7.6080  19.4462  19.4462  21.5044  21.5044

          k =-0.2525 0.2525 0.2525 (   449 PWs)   bands (ev):

     0.4285   8.0798  19.4227  19.4227  21.7094  21.7094

          k =-0.2424 0.2424 0.2424 (   450 PWs)   bands (ev):

     0.1514   8.5605  19.4086  19.4086  21.9236  21.9236

          k =-0.2323 0.2323 0.2323 (   450 PWs)   bands (ev):

    -0.1152   9.0499  19.4039  19.4039  22.1468  22.1468

          k =-0.2222 0.2222 0.2222 (   450 PWs)   bands (ev):

    -0.3711   9.5479  19.4086  19.4086  22.3787  22.3787

          k =-0.2121 0.2121 0.2121 (   450 PWs)   bands (ev):

    -0.6162  10.0544  19.4227  19.4227  22.6189  22.6189

          k =-0.2020 0.2020 0.2020 (   456 PWs)   bands (ev):

    -0.8505  10.5693  19.4461  19.4461  22.8670  22.8670

          k =-0.1919 0.1919 0.1919 (   456 PWs)   bands (ev):

    -1.0739  11.0924  19.4787  19.4787  23.1102  23.1221

          k =-0.1818 0.1818 0.1818 (   456 PWs)   bands (ev):

    -1.2863  11.6235  19.5207  19.5207  23.1253  23.3831

          k =-0.1717 0.1717 0.1717 (   453 PWs)   bands (ev):

    -1.4876  12.1626  19.5718  19.5718  23.1466  23.6480

          k =-0.1616 0.1616 0.1616 (   453 PWs)   bands (ev):

    -1.6779  12.7094  19.6320  19.6320  23.1735  23.9137

          k =-0.1515 0.1515 0.1515 (   459 PWs)   bands (ev):

    -1.8569  13.2635  19.7013  19.7013  23.2053  24.1746

          k =-0.1414 0.1414 0.1414 (   459 PWs)   bands (ev):

    -2.0247  13.8248  19.7796  19.7796  23.2411  24.4194

          k =-0.1313 0.1313 0.1313 (   459 PWs)   bands (ev):

    -2.1812  14.3929  19.8667  19.8667  23.2798  24.6258

          k =-0.1212 0.1212 0.1212 (   456 PWs)   bands (ev):

    -2.3263  14.9673  19.9624  19.9624  23.3201  24.7514

          k =-0.1111 0.1111 0.1111 (   456 PWs)   bands (ev):

    -2.4600  15.5476  20.0665  20.0665  23.3606  24.7483

          k =-0.1010 0.1010 0.1010 (   456 PWs)   bands (ev):

    -2.5823  16.1330  20.1788  20.1788  23.3993  24.6197

          k =-0.0909 0.0909 0.0909 (   450 PWs)   bands (ev):

    -2.6930  16.7227  20.2987  20.2987  23.4340  24.4164

          k =-0.0808 0.0808 0.0808 (   450 PWs)   bands (ev):

    -2.7921  17.3154  20.4256  20.4256  23.4616  24.1809

          k =-0.0707 0.0707 0.0707 (   444 PWs)   bands (ev):

    -2.8797  17.9096  20.5585  20.5585  23.4780  23.9357

          k =-0.0606 0.0606 0.0606 (   441 PWs)   bands (ev):

    -2.9557  18.5028  20.6960  20.6960  23.4769  23.6927

          k =-0.0505 0.0505 0.0505 (   447 PWs)   bands (ev):

    -3.0201  19.0912  20.8358  20.8358  23.4493  23.4593

          k =-0.0404 0.0404 0.0404 (   447 PWs)   bands (ev):

    -3.0728  19.6690  20.9741  20.9741  23.2423  23.2423

          k =-0.0303 0.0303 0.0303 (   447 PWs)   bands (ev):

    -3.1137  20.2252  21.1047  21.1047  23.0493  23.0493

          k =-0.0202 0.0202 0.0202 (   453 PWs)   bands (ev):

    -3.1431  20.7371  21.2175  21.2175  22.8914  22.8914

          k =-0.0101 0.0101 0.0101 (   459 PWs)   bands (ev):

    -3.1607  21.1491  21.2970  21.2970  22.7846  22.7846

          k = 0.0000 0.0000 0.0000 (   459 PWs)   bands (ev):

    -3.1666  21.3263  21.3263  21.3263  22.7463  22.7463

          k =-0.0126 0.0126 0.0000 (   459 PWs)   bands (ev):

    -3.1605  21.1741  21.2269  21.3322  22.7500  22.8379

          k =-0.0253 0.0253 0.0000 (   455 PWs)   bands (ev):

    -3.1421  20.8138  20.9807  21.3500  22.7610  23.0578

          k =-0.0379 0.0379 0.0000 (   447 PWs)   bands (ev):

    -3.1116  20.3621  20.6602  21.3797  22.7793  23.2659

          k =-0.0505 0.0505-0.0000 (   447 PWs)   bands (ev):

    -3.0688  19.8713  20.3030  21.4212  22.8044  23.4395

          k =-0.0631 0.0631 0.0000 (   443 PWs)   bands (ev):

    -3.0139  19.3638  19.9257  21.4746  22.8361  23.5810

          k =-0.0758 0.0758-0.0000 (   443 PWs)   bands (ev):

    -2.9469  18.8502  19.5363  21.5398  22.8736  23.7017

          k =-0.0884 0.0884 0.0000 (   449 PWs)   bands (ev):

    -2.8678  18.3365  19.1392  21.6168  22.9156  23.8118

          k =-0.1010 0.1010 0.0000 (   449 PWs)   bands (ev):

    -2.7766  17.8262  18.7374  21.7057  22.9603  23.9181

          k =-0.1136 0.1136 0.0000 (   449 PWs)   bands (ev):

    -2.6733  17.3215  18.3327  21.8065  23.0041  24.0253

          k =-0.1263 0.1263 0.0000 (   449 PWs)   bands (ev):

    -2.5579  16.8241  17.9266  21.9190  23.0406  24.1362

          k =-0.1389 0.1389-0.0000 (   449 PWs)   bands (ev):

    -2.4306  16.3348  17.5204  22.0434  23.0571  24.2526

          k =-0.1515 0.1515 0.0000 (   453 PWs)   bands (ev):

    -2.2914  15.8545  17.1151  22.1795  23.0297  24.3757

          k =-0.1641 0.1641-0.0000 (   451 PWs)   bands (ev):

    -2.1403  15.3838  16.7116  22.3274  22.9234  24.2716

          k =-0.1768 0.1768 0.0000 (   451 PWs)   bands (ev):

    -1.9773  14.9230  16.3108  22.4871  22.7163  24.1671

          k =-0.1894 0.1894 0.0000 (   451 PWs)   bands (ev):

    -1.8026  14.4724  15.9132  22.4278  22.6585  24.1618

          k =-0.2020 0.2020 0.0000 (   449 PWs)   bands (ev):

    -1.6162  14.0322  15.5196  22.0936  22.8416  24.2148

          k =-0.2147 0.2147 0.0000 (   449 PWs)   bands (ev):

    -1.4182  13.6027  15.1305  21.7391  23.0364  23.8495

          k =-0.2273 0.2273-0.0000 (   449 PWs)   bands (ev):

    -1.2086  13.1839  14.7464  21.3776  23.2429  23.4862

          k =-0.2399 0.2399 0.0000 (   453 PWs)   bands (ev):

    -0.9875  12.7760  14.3680  21.0163  23.1263  23.4610

          k =-0.2525 0.2525-0.0000 (   453 PWs)   bands (ev):

    -0.7550  12.3791  13.9955  20.6590  22.7708  23.6907

          k =-0.2652 0.2652 0.0000 (   449 PWs)   bands (ev):

    -0.5112  11.9931  13.6296  20.3080  22.4204  23.9320

          k =-0.2778 0.2778 0.0000 (   449 PWs)   bands (ev):

    -0.2561  11.6182  13.2704  19.9646  22.0756  24.1849

          k =-0.2904 0.2904 0.0000 (   449 PWs)   bands (ev):

     0.0101  11.2544  12.9184  19.6296  21.7370  24.4492

          k =-0.3030 0.3030 0.0000 (   449 PWs)   bands (ev):

     0.2873  10.9016  12.5740  19.3037  21.4048  24.7249

          k =-0.3157 0.3157-0.0000 (   441 PWs)   bands (ev):

     0.5756  10.5599  12.2375  18.9871  21.0796  25.0121

          k =-0.3283 0.3283 0.0000 (   441 PWs)   bands (ev):

     0.8747  10.2294  11.9092  18.6803  20.7615  25.3105

          k =-0.3409 0.3409-0.0000 (   441 PWs)   bands (ev):

     1.1844   9.9099  11.5893  18.3834  20.4508  25.6202

          k =-0.3536 0.3536 0.0000 (   443 PWs)   bands (ev):

     1.5049   9.6015  11.2781  18.0965  20.1479  25.9411

          k =-0.3662 0.3662 0.0000 (   437 PWs)   bands (ev):

     1.8358   9.3042  10.9760  17.8198  19.8531  26.2731

          k =-0.3788 0.3788 0.0000 (   437 PWs)   bands (ev):

     2.1771   9.0179  10.6831  17.5532  19.5664  26.6160

          k =-0.3914 0.3914 0.0000 (   441 PWs)   bands (ev):

     2.5285   8.7427  10.3997  17.2968  19.2881  26.9699

          k =-0.4041 0.4041-0.0000 (   441 PWs)   bands (ev):

     2.8900   8.4785  10.1261  17.0506  19.0183  27.3345

          k =-0.4167 0.4167 0.0000 (   441 PWs)   bands (ev):

     3.2614   8.2253   9.8626  16.8147  18.7574  27.7097

          k =-0.4293 0.4293-0.0000 (   447 PWs)   bands (ev):

     3.6424   7.9831   9.6093  16.5890  18.5054  28.0954

          k =-0.4419 0.4419 0.0000 (   443 PWs)   bands (ev):

     4.0327   7.7519   9.3667  16.3736  18.2624  28.4615

          k =-0.4546 0.4546 0.0000 (   443 PWs)   bands (ev):

     4.4320   7.5316   9.1350  16.1684  18.0286  28.4095

          k =-0.4672 0.4672 0.0000 (   443 PWs)   bands (ev):

     4.8398   7.3223   8.9149  15.9734  17.8041  27.7872

          k =-0.4798 0.4798 0.0000 (   443 PWs)   bands (ev):

     5.2554   7.1238   8.7069  15.7886  17.5888  27.1404

          k =-0.4924 0.4924-0.0000 (   444 PWs)   bands (ev):

     5.6775   6.9362   8.5123  15.6140  17.3828  26.4793

          k =-0.5051 0.5051 0.0000 (   444 PWs)   bands (ev):

     6.1036   6.7595   8.3334  15.4495  17.1859  25.8112

          k =-0.5177 0.5177-0.0000 (   440 PWs)   bands (ev):

     6.5283   6.5935   8.1756  15.2952  16.9981  25.1411

          k =-0.5303 0.5303 0.0000 (   440 PWs)   bands (ev):

     6.4384   6.9355   8.0547  15.1509  16.8191  24.4731

     Writing all to output data dir ./tmp/al.save/ :
     XML data file, pseudopotentials, collected wavefunctions
 
     init_run     :      0.01s CPU      0.02s WALL (       1 calls)
     electrons    :      2.56s CPU      2.60s WALL (       1 calls)

     Called by init_run:
     wfcinit      :      0.00s CPU      0.00s WALL (       1 calls)
     wfcinit:atom :      0.00s CPU      0.00s WALL (      42 calls)
     wfcinit:wfcr :      0.06s CPU      0.07s WALL (      42 calls)
     potinit      :      0.00s CPU      0.00s WALL (       1 calls)
     hinit0       :      0.00s CPU      0.01s WALL (       1 calls)

     Called by electrons:
     c_bands      :      2.56s CPU      2.60s WALL (       1 calls)
     v_of_rho     :      0.00s CPU      0.00s WALL (       1 calls)
     v_h          :      0.00s CPU      0.00s WALL (       1 calls)
     v_xc         :      0.00s CPU      0.00s WALL (       1 calls)

     Called by c_bands:
     init_us_2    :      0.00s CPU      0.00s WALL (      42 calls)
     cegterg      :      1.30s CPU      1.33s WALL (      69 calls)

     Called by sum_band:

     Called by *egterg:
     cdiaghg      :      0.04s CPU      0.04s WALL (    1159 calls)
     cegterg:over :      0.06s CPU      0.06s WALL (    1117 calls)
     cegterg:upda :      0.01s CPU      0.01s WALL (    1117 calls)
     cegterg:last :      0.02s CPU      0.02s WALL (     955 calls)
     h_psi        :      1.21s CPU      1.24s WALL (    1228 calls)
     g_psi        :      0.01s CPU      0.01s WALL (    1117 calls)

     Called by h_psi:
     h_psi:calbec :      0.02s CPU      0.02s WALL (    1228 calls)
     vloc_psi     :      1.18s CPU      1.21s WALL (    1228 calls)
                                        0.00s GPU  (    1228 calls)
     add_vuspsi   :      0.01s CPU      0.01s WALL (    1228 calls)

     General routines
     calbec       :      0.01s CPU      0.01s WALL (    1228 calls)
     fft          :      0.00s CPU      0.00s WALL (       3 calls)
     fftw         :      1.08s CPU      1.10s WALL (   11370 calls)
     davcio       :      0.00s CPU      0.00s WALL (      84 calls)
 
     Parallel routines
 
     PWSCF        :      2.61s CPU      2.69s WALL

 
   This run was terminated on:  15:17:35  23Sep2026            

=------------------------------------------------------------------------------=
   JOB DONE.
=------------------------------------------------------------------------------=
