
     Program PWSCF v.7.5 starts on 22Sep2026 at 23:49: 3 

     This program is part of the open-source Quantum ESPRESSO suite
     for quantum simulation of materials; please cite
         "P. Giannozzi et al., J. Phys.:Condens. Matter 21 395502 (2009);
         "P. Giannozzi et al., J. Phys.:Condens. Matter 29 465901 (2017);
         "P. Giannozzi et al., J. Chem. Phys. 152 154105 (2020);
          URL http://www.quantum-espresso.org", 
     in publications or presentations arising from this work. More details at
     http://www.quantum-espresso.org/quote

     Parallel version (MPI), running on     8 processors

     MPI processes distributed on     1 nodes
     2416 MiB available memory on the printing compute node when the environment starts
 
     Reading input from mos2.vc-relax.in

     Current dimensions of program PWSCF are:
     Max number of different atomic species (ntypx) = 10
     Max number of k-points (npk) =  40000
     Max angular momentum in pseudopotentials (lmaxx) =  4
     file Mo.pbe-spn-rrkjus_psl.1.0.0.UPF: wavefunction(s)  4S renormalized
 
     R & G space division:  proc/nbgrp/npool/nimage =       8
     Subspace diagonalization in iterative solution of the eigenvalue problem:
     a serial algorithm will be used

 
     Parallelization info
     --------------------
     sticks:   dense  smooth     PW     G-vecs:    dense   smooth      PW
     Min         148      74     21                30370    10758    1713
     Max         149      76     22                30395    10776    1735
     Sum        1189     595    169               243077    86095   13785
 
     Using Slab Decomposition
 


     bravais-lattice index     =            4
     lattice parameter (alat)  =       6.0093  a.u.
     unit-cell volume          =    1370.5100 (a.u.)^3
     number of atoms/cell      =            3
     number of atomic types    =            2
     number of electrons       =        26.00
     number of Kohn-Sham states=           16
     kinetic-energy cutoff     =      60.0000  Ry
     charge density cutoff     =     480.0000  Ry
     scf convergence threshold =      1.0E-11
     mixing beta               =       0.3000
     number of iterations used =            8  plain     mixing
     energy convergence thresh.=      1.0E-07
     force convergence thresh. =      1.0E-05
     press convergence thresh. =      1.0E-01
     Exchange-correlation= PBE
                           (   1   4   3   4   0   0   0)
     nstep                     =           60


     celldm(1)=   6.009329  celldm(2)=   0.000000  celldm(3)=   7.292453
     celldm(4)=   0.000000  celldm(5)=   0.000000  celldm(6)=   0.000000

     crystal axes: (cart. coord. in units of alat)
               a(1) = (   1.000000   0.000000   0.000000 )  
               a(2) = (  -0.500000   0.866025   0.000000 )  
               a(3) = (   0.000000   0.000000   7.292453 )  

     reciprocal axes: (cart. coord. in units 2 pi/alat)
               b(1) = (  1.000000  0.577350  0.000000 )  
               b(2) = (  0.000000  1.154701  0.000000 )  
               b(3) = (  0.000000  0.000000  0.137128 )  


     PseudoPot. # 1 for Mo read from file:
     ../pseudo/Mo.pbe-spn-rrkjus_psl.1.0.0.UPF
     MD5 check sum: 03f09b12e49601d1a456a78ce8b2d514
     Pseudo is Ultrasoft + core correction, Zval = 14.0
     Generated using &quot;atomic&quot; code by A. Dal Corso  v.6.3
     Using radial grid of 1229 points,  6 beta functions with: 
                l(1) =   0
                l(2) =   0
                l(3) =   1
                l(4) =   1
                l(5) =   2
                l(6) =   2
     Q(r) pseudized with 0 coefficients 


     PseudoPot. # 2 for S  read from file:
     ../pseudo/S.pbe-n-rrkjus_psl.1.0.0.UPF
     MD5 check sum: 9d0fe39aa2a799ea84730884c9b010f4
     Pseudo is Ultrasoft + core correction, Zval =  6.0
     Generated using &quot;atomic&quot; code by A. Dal Corso  v.6.3
     Using radial grid of 1151 points,  6 beta functions with: 
                l(1) =   0
                l(2) =   0
                l(3) =   1
                l(4) =   1
                l(5) =   2
                l(6) =   2
     Q(r) pseudized with 0 coefficients 


     atomic species   valence    mass     pseudopotential
     Mo               14.00    95.95000     Mo( 1.00)
     S                 6.00    32.06000     S ( 1.00)

     12 Sym. Ops. (no inversion) found


                                    s                        frac. trans.

      isym =  1     identity                                     

 cryst.   s( 1) = (     1          0          0      )
                  (     0          1          0      )
                  (     0          0          1      )

 cart.    s( 1) = (  1.0000000  0.0000000  0.0000000 )
                  (  0.0000000  1.0000000  0.0000000 )
                  (  0.0000000  0.0000000  1.0000000 )


      isym =  2     180 deg rotation - cart. axis [0,1,0]        

 cryst.   s( 2) = (    -1          0          0      )
                  (     1          1          0      )
                  (     0          0         -1      )

 cart.    s( 2) = ( -1.0000000  0.0000000  0.0000000 )
                  (  0.0000000  1.0000000  0.0000000 )
                  (  0.0000000  0.0000000 -1.0000000 )


      isym =  3     120 deg rotation - cryst. axis [0,0,1]       

 cryst.   s( 3) = (     0          1          0      )
                  (    -1         -1          0      )
                  (     0          0          1      )

 cart.    s( 3) = ( -0.5000000 -0.8660254  0.0000000 )
                  (  0.8660254 -0.5000000  0.0000000 )
                  (  0.0000000  0.0000000  1.0000000 )


      isym =  4     120 deg rotation - cryst. axis [0,0,-1]      

 cryst.   s( 4) = (    -1         -1          0      )
                  (     1          0          0      )
                  (     0          0          1      )

 cart.    s( 4) = ( -0.5000000  0.8660254  0.0000000 )
                  ( -0.8660254 -0.5000000  0.0000000 )
                  (  0.0000000  0.0000000  1.0000000 )


      isym =  5     180 deg rotation - cryst. axis [1,-1,0]      

 cryst.   s( 5) = (     0         -1          0      )
                  (    -1          0          0      )
                  (     0          0         -1      )

 cart.    s( 5) = (  0.5000000 -0.8660254  0.0000000 )
                  ( -0.8660254 -0.5000000  0.0000000 )
                  (  0.0000000  0.0000000 -1.0000000 )


      isym =  6     180 deg rotation - cryst. axis [2,1,0]       

 cryst.   s( 6) = (     1          1          0      )
                  (     0         -1          0      )
                  (     0          0         -1      )

 cart.    s( 6) = (  0.5000000  0.8660254  0.0000000 )
                  (  0.8660254 -0.5000000  0.0000000 )
                  (  0.0000000  0.0000000 -1.0000000 )


      isym =  7     inv. 180 deg rotation - cart. axis [0,0,1]   

 cryst.   s( 7) = (     1          0          0      )
                  (     0          1          0      )
                  (     0          0         -1      )

 cart.    s( 7) = (  1.0000000  0.0000000  0.0000000 )
                  (  0.0000000  1.0000000  0.0000000 )
                  (  0.0000000  0.0000000 -1.0000000 )


      isym =  8     inv. 180 deg rotation - cart. axis [1,0,0]   

 cryst.   s( 8) = (    -1          0          0      )
                  (     1          1          0      )
                  (     0          0          1      )

 cart.    s( 8) = ( -1.0000000  0.0000000  0.0000000 )
                  (  0.0000000  1.0000000  0.0000000 )
                  (  0.0000000  0.0000000  1.0000000 )


      isym =  9     inv.  60 deg rotation - cryst. axis [0,0,1]  

 cryst.   s( 9) = (    -1         -1          0      )
                  (     1          0          0      )
                  (     0          0         -1      )

 cart.    s( 9) = ( -0.5000000  0.8660254  0.0000000 )
                  ( -0.8660254 -0.5000000  0.0000000 )
                  (  0.0000000  0.0000000 -1.0000000 )


      isym = 10     inv.  60 deg rotation - cryst. axis [0,0,-1] 

 cryst.   s(10) = (     0          1          0      )
                  (    -1         -1          0      )
                  (     0          0         -1      )

 cart.    s(10) = ( -0.5000000 -0.8660254  0.0000000 )
                  (  0.8660254 -0.5000000  0.0000000 )
                  (  0.0000000  0.0000000 -1.0000000 )


      isym = 11     inv. 180 deg rotation - cryst. axis [0,1,0]  

 cryst.   s(11) = (     1          1          0      )
                  (     0         -1          0      )
                  (     0          0          1      )

 cart.    s(11) = (  0.5000000  0.8660254  0.0000000 )
                  (  0.8660254 -0.5000000  0.0000000 )
                  (  0.0000000  0.0000000  1.0000000 )


      isym = 12     inv. 180 deg rotation - cryst. axis [1,1,0]  

 cryst.   s(12) = (     0         -1          0      )
                  (    -1          0          0      )
                  (     0          0          1      )

 cart.    s(12) = (  0.5000000 -0.8660254  0.0000000 )
                  ( -0.8660254 -0.5000000  0.0000000 )
                  (  0.0000000  0.0000000  1.0000000 )


     point group D_3h (-62m)
     there are  6 classes
     the character table:

       E     2C3   3C2   s_h   2S3   3s_v 
A'_1   1.00  1.00  1.00  1.00  1.00  1.00
A'_2   1.00  1.00 -1.00  1.00  1.00 -1.00
E'     2.00 -1.00  0.00  2.00 -1.00  0.00
A''1   1.00  1.00  1.00 -1.00 -1.00 -1.00
A''2   1.00  1.00 -1.00 -1.00 -1.00  1.00
E''    2.00 -1.00  0.00 -2.00  1.00  0.00

     the symmetry operations in each class and the name of the first element:

     E        1
          identity                                               
     2C3      3    4
          120 deg rotation - cryst. axis [0,0,1]                 
     3C2      2    6    5
          180 deg rotation - cart. axis [0,1,0]                  
     s_h      7
          inv. 180 deg rotation - cart. axis [0,0,1]             
     2S3      9   10
          inv.  60 deg rotation - cryst. axis [0,0,1]            
     3s_v     8   11   12
          inv. 180 deg rotation - cart. axis [1,0,0]             

   Cartesian axes

     site n.     atom                  positions (alat units)
         1        Mo     tau(   1) = (   0.0000000   0.0000000   3.6462264  )
         2        S      tau(   2) = (   0.5000000   0.2886751   4.1477987  )
         3        S      tau(   3) = (   0.5000000   0.2886751   3.1446541  )

   Crystallographic axes

     site n.     atom                  positions (cryst. coord.)
         1        Mo     tau(   1) = (  0.0000000  0.0000000  0.5000000  )
         2        S      tau(   2) = (  0.6666667  0.3333333  0.5687796  )
         3        S      tau(   3) = (  0.6666667  0.3333333  0.4312204  )

     number of k points=    19
                       cart. coord. in units 2pi/alat
        k(    1) = (   0.0000000   0.0000000   0.0000000), wk =   0.0138889
        k(    2) = (   0.0000000   0.0962250   0.0000000), wk =   0.0833333
        k(    3) = (   0.0000000   0.1924501   0.0000000), wk =   0.0833333
        k(    4) = (   0.0000000   0.2886751   0.0000000), wk =   0.0833333
        k(    5) = (   0.0000000   0.3849002   0.0000000), wk =   0.0833333
        k(    6) = (   0.0000000   0.4811252   0.0000000), wk =   0.0833333
        k(    7) = (   0.0000000  -0.5773503   0.0000000), wk =   0.0416667
        k(    8) = (   0.0833333   0.1443376   0.0000000), wk =   0.0833333
        k(    9) = (   0.0833333   0.2405626   0.0000000), wk =   0.1666667
        k(   10) = (   0.0833333   0.3367877   0.0000000), wk =   0.1666667
        k(   11) = (   0.0833333   0.4330127   0.0000000), wk =   0.1666667
        k(   12) = (   0.0833333   0.5292377   0.0000000), wk =   0.1666667
        k(   13) = (   0.1666667   0.2886751   0.0000000), wk =   0.0833333
        k(   14) = (   0.1666667   0.3849002   0.0000000), wk =   0.1666667
        k(   15) = (   0.1666667   0.4811252   0.0000000), wk =   0.1666667
        k(   16) = (   0.1666667   0.5773503   0.0000000), wk =   0.0833333
        k(   17) = (   0.2500000   0.4330127   0.0000000), wk =   0.0833333
        k(   18) = (   0.2500000   0.5292377   0.0000000), wk =   0.1666667
        k(   19) = (   0.3333333   0.5773503   0.0000000), wk =   0.0277778

                       cryst. coord.
        k(    1) = (   0.0000000   0.0000000   0.0000000), wk =   0.0138889
        k(    2) = (   0.0000000   0.0833333   0.0000000), wk =   0.0833333
        k(    3) = (   0.0000000   0.1666667   0.0000000), wk =   0.0833333
        k(    4) = (   0.0000000   0.2500000   0.0000000), wk =   0.0833333
        k(    5) = (   0.0000000   0.3333333   0.0000000), wk =   0.0833333
        k(    6) = (   0.0000000   0.4166667   0.0000000), wk =   0.0833333
        k(    7) = (   0.0000000  -0.5000000   0.0000000), wk =   0.0416667
        k(    8) = (   0.0833333   0.0833333   0.0000000), wk =   0.0833333
        k(    9) = (   0.0833333   0.1666667   0.0000000), wk =   0.1666667
        k(   10) = (   0.0833333   0.2500000   0.0000000), wk =   0.1666667
        k(   11) = (   0.0833333   0.3333333   0.0000000), wk =   0.1666667
        k(   12) = (   0.0833333   0.4166667   0.0000000), wk =   0.1666667
        k(   13) = (   0.1666667   0.1666667   0.0000000), wk =   0.0833333
        k(   14) = (   0.1666667   0.2500000   0.0000000), wk =   0.1666667
        k(   15) = (   0.1666667   0.3333333   0.0000000), wk =   0.1666667
        k(   16) = (   0.1666667   0.4166667   0.0000000), wk =   0.0833333
        k(   17) = (   0.2500000   0.2500000   0.0000000), wk =   0.0833333
        k(   18) = (   0.2500000   0.3333333   0.0000000), wk =   0.1666667
        k(   19) = (   0.3333333   0.3333333   0.0000000), wk =   0.0277778

     Dense  grid:   243077 G-vectors     FFT dimensions: (  45,  45, 320)

     Smooth grid:    86095 G-vectors     FFT dimensions: (  30,  30, 225)

     Dynamical RAM for                 wfc:       0.33 MB

     Dynamical RAM for     wfc (w. buffer):       6.56 MB

     Dynamical RAM for           str. fact:       0.93 MB

     Dynamical RAM for           local pot:       0.00 MB

     Dynamical RAM for          nlocal pot:       1.11 MB

     Dynamical RAM for                qrad:       7.03 MB

     Dynamical RAM for          rho,v,vnew:       3.24 MB

     Dynamical RAM for               rhoin:       1.08 MB

     Dynamical RAM for            rho*nmix:       7.42 MB

     Dynamical RAM for           G-vectors:       1.82 MB

     Dynamical RAM for          h,s,v(r/c):       0.01 MB

     Dynamical RAM for          <psi|beta>:       0.01 MB

     Dynamical RAM for      wfcinit/wfcrot:       0.66 MB

     Dynamical RAM for           addusdens:      87.13 MB

     Dynamical RAM for          addusforce:      88.29 MB

     Dynamical RAM for         addusstress:      93.15 MB

     Estimated static dynamical RAM per process >      26.25 MB

     Estimated max dynamical RAM per process >     126.82 MB

     Estimated total dynamical RAM >    1014.57 MB

     Initial potential from superposition of free atoms

     starting charge      25.9991, renormalised to      26.0000

     negative rho (up, down):  3.260E-04 0.000E+00
     Starting wfcs are   18 randomized atomic wfcs

     total cpu time spent up to now is        0.9 secs

     Self-consistent Calculation

     iteration #  1     ecut=    60.00 Ry     beta= 0.30
     CG style diagonalization

---- Real-time Memory Report at c_bands before calling an iterative solver
           164 MiB given to the printing process from OS
             0 MiB allocation reported by mallinfo(arena+hblkhd)
          1426 MiB available memory on the node where the printing process lives
------------------
     ethr =  1.00E-09,  avg # of iterations = 28.4

     negative rho (up, down):  3.468E-04 0.000E+00

     total cpu time spent up to now is       10.8 secs

     total energy              =    -181.56629948 Ry
     estimated scf accuracy    <       0.11961929 Ry

     iteration #  2     ecut=    60.00 Ry     beta= 0.30
     CG style diagonalization

---- Real-time Memory Report at c_bands before calling an iterative solver
           186 MiB given to the printing process from OS
             0 MiB allocation reported by mallinfo(arena+hblkhd)
          1530 MiB available memory on the node where the printing process lives
------------------
     ethr =  4.60E-04,  avg # of iterations =  3.6

     negative rho (up, down):  3.592E-04 0.000E+00

     total cpu time spent up to now is       12.5 secs

     total energy              =    -181.57292522 Ry
     estimated scf accuracy    <       0.03602771 Ry

     iteration #  3     ecut=    60.00 Ry     beta= 0.30
     CG style diagonalization

---- Real-time Memory Report at c_bands before calling an iterative solver
           186 MiB given to the printing process from OS
             0 MiB allocation reported by mallinfo(arena+hblkhd)
          1523 MiB available memory on the node where the printing process lives
------------------
     ethr =  1.39E-04,  avg # of iterations =  3.3

     negative rho (up, down):  3.690E-04 0.000E+00

     total cpu time spent up to now is       14.2 secs

     total energy              =    -181.57735041 Ry
     estimated scf accuracy    <       0.01047983 Ry

     iteration #  4     ecut=    60.00 Ry     beta= 0.30
     CG style diagonalization

---- Real-time Memory Report at c_bands before calling an iterative solver
           187 MiB given to the printing process from OS
             0 MiB allocation reported by mallinfo(arena+hblkhd)
          1516 MiB available memory on the node where the printing process lives
------------------
     ethr =  4.03E-05,  avg # of iterations =  3.5

     negative rho (up, down):  3.825E-04 0.000E+00

     total cpu time spent up to now is       16.0 secs

     total energy              =    -181.57802213 Ry
     estimated scf accuracy    <       0.00203706 Ry

     iteration #  5     ecut=    60.00 Ry     beta= 0.30
     CG style diagonalization

---- Real-time Memory Report at c_bands before calling an iterative solver
           187 MiB given to the printing process from OS
             0 MiB allocation reported by mallinfo(arena+hblkhd)
          1620 MiB available memory on the node where the printing process lives
------------------
     ethr =  7.83E-06,  avg # of iterations =  3.9

     negative rho (up, down):  3.813E-04 0.000E+00

     total cpu time spent up to now is       17.9 secs

     total energy              =    -181.57828623 Ry
     estimated scf accuracy    <       0.00160069 Ry

     iteration #  6     ecut=    60.00 Ry     beta= 0.30
     CG style diagonalization

---- Real-time Memory Report at c_bands before calling an iterative solver
           187 MiB given to the printing process from OS
             0 MiB allocation reported by mallinfo(arena+hblkhd)
          1542 MiB available memory on the node where the printing process lives
------------------
     ethr =  6.16E-06,  avg # of iterations =  3.2

     negative rho (up, down):  3.803E-04 0.000E+00

     total cpu time spent up to now is       19.6 secs

     total energy              =    -181.57841838 Ry
     estimated scf accuracy    <       0.00007055 Ry

     iteration #  7     ecut=    60.00 Ry     beta= 0.30
     CG style diagonalization

---- Real-time Memory Report at c_bands before calling an iterative solver
           188 MiB given to the printing process from OS
             0 MiB allocation reported by mallinfo(arena+hblkhd)
          1513 MiB available memory on the node where the printing process lives
------------------
     ethr =  2.71E-07,  avg # of iterations =  4.7

     negative rho (up, down):  3.807E-04 0.000E+00

     total cpu time spent up to now is       21.7 secs

     total energy              =    -181.57846792 Ry
     estimated scf accuracy    <       0.00016741 Ry

     iteration #  8     ecut=    60.00 Ry     beta= 0.30
     CG style diagonalization

---- Real-time Memory Report at c_bands before calling an iterative solver
           188 MiB given to the printing process from OS
             0 MiB allocation reported by mallinfo(arena+hblkhd)
          1523 MiB available memory on the node where the printing process lives
------------------
     ethr =  2.71E-07,  avg # of iterations =  3.1

     negative rho (up, down):  3.813E-04 0.000E+00

     total cpu time spent up to now is       23.4 secs

     total energy              =    -181.57846571 Ry
     estimated scf accuracy    <       0.00004658 Ry

     iteration #  9     ecut=    60.00 Ry     beta= 0.30
     CG style diagonalization

---- Real-time Memory Report at c_bands before calling an iterative solver
           188 MiB given to the printing process from OS
             0 MiB allocation reported by mallinfo(arena+hblkhd)
          1514 MiB available memory on the node where the printing process lives
------------------
     ethr =  1.79E-07,  avg # of iterations =  3.3

     negative rho (up, down):  3.818E-04 0.000E+00

     total cpu time spent up to now is       25.0 secs

     total energy              =    -181.57846711 Ry
     estimated scf accuracy    <       0.00000722 Ry

     iteration # 10     ecut=    60.00 Ry     beta= 0.30
     CG style diagonalization

---- Real-time Memory Report at c_bands before calling an iterative solver
           189 MiB given to the printing process from OS
             0 MiB allocation reported by mallinfo(arena+hblkhd)
          1538 MiB available memory on the node where the printing process lives
------------------
     ethr =  2.78E-08,  avg # of iterations =  4.2

     negative rho (up, down):  3.822E-04 0.000E+00

     total cpu time spent up to now is       27.0 secs

     total energy              =    -181.57846960 Ry
     estimated scf accuracy    <       0.00000090 Ry

     iteration # 11     ecut=    60.00 Ry     beta= 0.30
     CG style diagonalization

---- Real-time Memory Report at c_bands before calling an iterative solver
           189 MiB given to the printing process from OS
             0 MiB allocation reported by mallinfo(arena+hblkhd)
          1527 MiB available memory on the node where the printing process lives
------------------
     ethr =  3.45E-09,  avg # of iterations =  3.4

     negative rho (up, down):  3.824E-04 0.000E+00

     total cpu time spent up to now is       28.8 secs

     total energy              =    -181.57846958 Ry
     estimated scf accuracy    <       0.00000031 Ry

     iteration # 12     ecut=    60.00 Ry     beta= 0.30
     CG style diagonalization

---- Real-time Memory Report at c_bands before calling an iterative solver
           189 MiB given to the printing process from OS
             0 MiB allocation reported by mallinfo(arena+hblkhd)
          1524 MiB available memory on the node where the printing process lives
------------------
     ethr =  1.21E-09,  avg # of iterations =  4.0

     negative rho (up, down):  3.827E-04 0.000E+00

     total cpu time spent up to now is       30.7 secs

     total energy              =    -181.57846966 Ry
     estimated scf accuracy    <       0.00000016 Ry

     iteration # 13     ecut=    60.00 Ry     beta= 0.30
     CG style diagonalization

---- Real-time Memory Report at c_bands before calling an iterative solver
           189 MiB given to the printing process from OS
             0 MiB allocation reported by mallinfo(arena+hblkhd)
          1506 MiB available memory on the node where the printing process lives
------------------
     ethr =  6.02E-10,  avg # of iterations =  3.3

     negative rho (up, down):  3.829E-04 0.000E+00

     total cpu time spent up to now is       32.4 secs

     total energy              =    -181.57846968 Ry
     estimated scf accuracy    <          2.7E-09 Ry

     iteration # 14     ecut=    60.00 Ry     beta= 0.30
     CG style diagonalization

---- Real-time Memory Report at c_bands before calling an iterative solver
           189 MiB given to the printing process from OS
             0 MiB allocation reported by mallinfo(arena+hblkhd)
          1507 MiB available memory on the node where the printing process lives
------------------
     ethr =  1.03E-11,  avg # of iterations =  5.6

     negative rho (up, down):  3.830E-04 0.000E+00

     total cpu time spent up to now is       34.8 secs

     total energy              =    -181.57846969 Ry
     estimated scf accuracy    <          3.7E-09 Ry

     iteration # 15     ecut=    60.00 Ry     beta= 0.30
     CG style diagonalization

---- Real-time Memory Report at c_bands before calling an iterative solver
           189 MiB given to the printing process from OS
             0 MiB allocation reported by mallinfo(arena+hblkhd)
          1516 MiB available memory on the node where the printing process lives
------------------
     ethr =  1.03E-11,  avg # of iterations =  3.0

     negative rho (up, down):  3.831E-04 0.000E+00

     total cpu time spent up to now is       36.4 secs

     total energy              =    -181.57846969 Ry
     estimated scf accuracy    <          4.1E-09 Ry

     iteration # 16     ecut=    60.00 Ry     beta= 0.30
     CG style diagonalization

---- Real-time Memory Report at c_bands before calling an iterative solver
           189 MiB given to the printing process from OS
             0 MiB allocation reported by mallinfo(arena+hblkhd)
          1520 MiB available memory on the node where the printing process lives
------------------
     ethr =  1.03E-11,  avg # of iterations =  3.6

     negative rho (up, down):  3.832E-04 0.000E+00

     total cpu time spent up to now is       38.2 secs

     total energy              =    -181.57846969 Ry
     estimated scf accuracy    <          1.6E-10 Ry

     iteration # 17     ecut=    60.00 Ry     beta= 0.30
     CG style diagonalization

---- Real-time Memory Report at c_bands before calling an iterative solver
           189 MiB given to the printing process from OS
             0 MiB allocation reported by mallinfo(arena+hblkhd)
          1503 MiB available memory on the node where the printing process lives
------------------
     ethr =  6.05E-13,  avg # of iterations =  4.1

     negative rho (up, down):  3.832E-04 0.000E+00

     total cpu time spent up to now is       40.2 secs

     total energy              =    -181.57846969 Ry
     estimated scf accuracy    <          2.2E-11 Ry

     iteration # 18     ecut=    60.00 Ry     beta= 0.30
     CG style diagonalization

---- Real-time Memory Report at c_bands before calling an iterative solver
           189 MiB given to the printing process from OS
             0 MiB allocation reported by mallinfo(arena+hblkhd)
          1520 MiB available memory on the node where the printing process lives
------------------
     ethr =  1.00E-13,  avg # of iterations =  3.9

     negative rho (up, down):  3.833E-04 0.000E+00

     total cpu time spent up to now is       42.1 secs

     End of self-consistent calculation

          k = 0.0000 0.0000 0.0000 ( 10831 PWs)   bands (ev):

   -62.5213 -36.6559 -36.4405 -36.4405 -15.6170 -14.4183  -7.1516  -4.0522
    -4.0522  -3.4832  -2.9852  -2.9852  -1.7457   1.1264   1.1264   1.2950

     occupation numbers 
     1.0000   1.0000   1.0000   1.0000   1.0000   1.0000   1.0000   1.0000
     1.0000   1.0000   1.0000   1.0000   1.0000   0.0000   0.0000   0.0000

          k = 0.0000 0.0962 0.0000 ( 10837 PWs)   bands (ev):

   -62.5189 -36.6510 -36.4656 -36.4462 -15.5155 -14.3729  -7.0320  -4.2874
    -3.9468  -3.8722  -3.1486  -2.7637  -1.7864   0.9879   1.0126   1.1844

     occupation numbers 
     1.0000   1.0000   1.0000   1.0000   1.0000   1.0000   1.0000   1.0000
     1.0000   1.0000   1.0000   1.0000   1.0000   0.0000   0.0000   0.0000

          k = 0.0000 0.1925 0.0000 ( 10801 PWs)   bands (ev):

   -62.5120 -36.6377 -36.5337 -36.4619 -15.2262 -14.2437  -6.7270  -4.8367
    -4.4841  -3.6541  -3.5332  -2.7327  -1.9869   0.5686   0.9227   0.9293

     occupation numbers 
     1.0000   1.0000   1.0000   1.0000   1.0000   1.0000   1.0000   1.0000
     1.0000   1.0000   1.0000   1.0000   1.0000   0.0000   0.0000   0.0000

          k = 0.0000 0.2887 0.0000 ( 10783 PWs)   bands (ev):

   -62.5027 -36.6257 -36.6195 -36.4832 -14.7968 -14.0532  -6.4859  -5.3402
    -5.1345  -3.9640  -3.2486  -3.0094  -2.3754   0.4400   0.6841   1.2272

     occupation numbers 
     1.0000   1.0000   1.0000   1.0000   1.0000   1.0000   1.0000   1.0000
     1.0000   1.0000   1.0000   1.0000   1.0000   0.0000   0.0000   0.0000

          k = 0.0000 0.3849 0.0000 ( 10771 PWs)   bands (ev):

   -62.4933 -36.7163 -36.6012 -36.5044 -14.3128 -13.8429  -6.7301  -5.7532
    -5.4645  -4.3265  -3.3189  -2.8525  -2.5946   0.5723   0.6289   1.6946

     occupation numbers 
     1.0000   1.0000   1.0000   1.0000   1.0000   1.0000   1.0000   1.0000
     1.0000   1.0000   1.0000   1.0000   1.0000   0.0000   0.0000   0.0000

          k = 0.0000 0.4811 0.0000 ( 10728 PWs)   bands (ev):

   -62.4864 -36.7818 -36.5878 -36.5198 -13.9081 -13.6730  -7.1385  -6.2130
    -5.5470  -4.5619  -3.5102  -2.5877  -2.4222   0.6056   0.9387   2.0450

     occupation numbers 
     1.0000   1.0000   1.0000   1.0000   1.0000   1.0000   1.0000   1.0000
     1.0000   1.0000   1.0000   1.0000   1.0000   0.0000   0.0000   0.0000

          k = 0.0000-0.5774 0.0000 ( 10724 PWs)   bands (ev):

   -62.4839 -36.8057 -36.5829 -36.5255 -13.7451 -13.6067  -7.3147  -6.3843
    -5.6118  -4.6429  -3.5710  -2.5006  -2.2625   0.6504   1.1159   2.1604

     occupation numbers 
     1.0000   1.0000   1.0000   1.0000   1.0000   1.0000   1.0000   1.0000
     1.0000   1.0000   1.0000   1.0000   1.0000   0.0000   0.0000   0.0000

          k = 0.0833 0.1443 0.0000 ( 10801 PWs)   bands (ev):

   -62.5141 -36.6419 -36.5109 -36.4582 -15.3200 -14.2855  -6.8163  -4.6716
    -4.2767  -3.7569  -3.5355  -2.6071  -1.9072   0.6691   0.8431   0.9892

     occupation numbers 
     1.0000   1.0000   1.0000   1.0000   1.0000   1.0000   1.0000   1.0000
     1.0000   1.0000   1.0000   1.0000   1.0000   0.0000   0.0000   0.0000

          k = 0.0833 0.2406 0.0000 ( 10784 PWs)   bands (ev):

   -62.5061 -36.6262 -36.5877 -36.4799 -14.9596 -14.1246  -6.5114  -5.1820
    -4.8026  -4.0940  -3.4617  -2.6643  -2.2101   0.3728   0.7823   0.9101

     occupation numbers 
     1.0000   1.0000   1.0000   1.0000   1.0000   1.0000   1.0000   1.0000
     1.0000   1.0000   1.0000   1.0000   1.0000   0.0000   0.0000   0.0000

          k = 0.0833 0.3368 0.0000 ( 10788 PWs)   bands (ev):

   -62.4968 -36.6750 -36.6079 -36.5051 -14.4994 -13.9211  -6.5128  -5.4476
    -5.4143  -4.4668  -3.2572  -2.9732  -2.4532   0.3311   0.7545   1.2875

     occupation numbers 
     1.0000   1.0000   1.0000   1.0000   1.0000   1.0000   1.0000   1.0000
     1.0000   1.0000   1.0000   1.0000   1.0000   0.0000   0.0000   0.0000

          k = 0.0833 0.4330 0.0000 ( 10738 PWs)   bands (ev):

   -62.4886 -36.7497 -36.5921 -36.5269 -14.0467 -13.7254  -6.8827  -6.0455
    -5.4478  -4.6325  -3.3123  -3.1749  -2.3211   0.5075   0.8887   1.7469

     occupation numbers 
     1.0000   1.0000   1.0000   1.0000   1.0000   1.0000   1.0000   1.0000
     1.0000   1.0000   1.0000   1.0000   1.0000   0.0000   0.0000   0.0000

          k = 0.0833 0.5292 0.0000 ( 10708 PWs)   bands (ev):

   -62.4839 -36.7924 -36.5829 -36.5394 -13.7528 -13.6021  -7.1730  -6.3973
    -5.5551  -4.6829  -3.5228  -3.0624  -2.0892   0.6432   1.1182   2.1242

     occupation numbers 
     1.0000   1.0000   1.0000   1.0000   1.0000   1.0000   1.0000   1.0000
     1.0000   1.0000   1.0000   1.0000   1.0000   0.0000   0.0000   0.0000

          k = 0.1667 0.2887 0.0000 ( 10789 PWs)   bands (ev):

   -62.4980 -36.6539 -36.6104 -36.5115 -14.5659 -13.9483  -6.4072  -5.3707
    -5.1991  -4.7384  -3.4811  -2.7105  -2.3918   0.2127   0.8113   1.0068

     occupation numbers 
     1.0000   1.0000   1.0000   1.0000   1.0000   1.0000   1.0000   1.0000
     1.0000   1.0000   1.0000   1.0000   1.0000   0.0000   0.0000   0.0000

          k = 0.1667 0.3849 0.0000 ( 10761 PWs)   bands (ev):

   -62.4899 -36.7161 -36.5946 -36.5463 -14.1276 -13.7523  -6.6088  -5.8860
    -5.2932  -4.8629  -3.7861  -3.0198  -2.3152   0.3663   0.9413   1.3082

     occupation numbers 
     1.0000   1.0000   1.0000   1.0000   1.0000   1.0000   1.0000   1.0000
     1.0000   1.0000   1.0000   1.0000   1.0000   0.0000   0.0000   0.0000

          k = 0.1667 0.4811 0.0000 ( 10717 PWs)   bands (ev):

   -62.4839 -36.7600 -36.5829 -36.5730 -13.7679 -13.5929  -6.8384  -6.4192
    -5.3829  -4.7819  -3.9249  -3.3935  -2.0683   0.5647   1.1650   1.6144

     occupation numbers 
     1.0000   1.0000   1.0000   1.0000   1.0000   1.0000   1.0000   1.0000
     1.0000   1.0000   1.0000   1.0000   1.0000   0.0000   0.0000   0.0000

          k = 0.1667 0.5774 0.0000 ( 10718 PWs)   bands (ev):

   -62.4818 -36.7758 -36.5829 -36.5787 -13.6256 -13.5304  -6.9278  -6.6136
    -5.4901  -4.7077  -3.9285  -3.5747  -1.8978   0.5411   1.3811   1.7443

     occupation numbers 
     1.0000   1.0000   1.0000   1.0000   1.0000   1.0000   1.0000   1.0000
     1.0000   1.0000   1.0000   1.0000   1.0000   0.0000   0.0000   0.0000

          k = 0.2500 0.4330 0.0000 ( 10751 PWs)   bands (ev):

   -62.4840 -36.7384 -36.5952 -36.5830 -13.7754 -13.5882  -6.6333  -6.4281
    -5.1737  -4.8376  -4.4699  -3.3149  -2.0879   0.5120   1.1952   1.3714

     occupation numbers 
     1.0000   1.0000   1.0000   1.0000   1.0000   1.0000   1.0000   1.0000
     1.0000   1.0000   1.0000   1.0000   1.0000   0.0000   0.0000   0.0000

          k = 0.2500 0.5292 0.0000 ( 10703 PWs)   bands (ev):

   -62.4805 -36.7427 -36.6319 -36.5763 -13.5565 -13.4839  -6.7685  -6.5326
    -5.3658  -4.7784  -4.6513  -3.6498  -1.7879   0.3410   1.3950   1.5941

     occupation numbers 
     1.0000   1.0000   1.0000   1.0000   1.0000   1.0000   1.0000   1.0000
     1.0000   1.0000   1.0000   1.0000   1.0000   0.0000   0.0000   0.0000

          k = 0.3333 0.5774 0.0000 ( 10692 PWs)   bands (ev):

   -62.4792 -36.7143 -36.6756 -36.5738 -13.4778 -13.4411  -6.9077  -6.1530
    -5.6187  -5.1094  -4.5053  -3.8374  -1.6068   0.1336   1.2940   1.8182

     occupation numbers 
     1.0000   1.0000   1.0000   1.0000   1.0000   1.0000   1.0000   1.0000
     1.0000   1.0000   1.0000   1.0000   1.0000   0.0000   0.0000   0.0000

     highest occupied, lowest unoccupied level (ev):    -1.6068    0.1336

!    total energy              =    -181.57846969 Ry
     estimated scf accuracy    <          5.4E-13 Ry

     The total energy is the sum of the following terms:
     one-electron contribution =   -1373.66748567 Ry
     hartree contribution      =     686.43392811 Ry
     xc contribution           =     -29.64686623 Ry
     ewald contribution        =     535.30195411 Ry

     convergence has been achieved in  18 iterations

     negative rho (up, down):  3.833E-04 0.000E+00

     Forces acting on atoms (cartesian axes, Ry/au):

     atom    1 type  1   force =     0.00000000    0.00000000    0.00000000
     atom    2 type  2   force =     0.00000000    0.00000000   -0.02029335
     atom    3 type  2   force =    -0.00000000   -0.00000000    0.02029335
     The non-local contrib.  to forces
     atom    1 type  1   force =     0.00000000   -0.00000000    0.00000000
     atom    2 type  2   force =     0.00000000   -0.00000000   -0.28164707
     atom    3 type  2   force =    -0.00000000    0.00000000    0.28164707
     The ionic contribution  to forces
     atom    1 type  1   force =     0.00000000   -0.00000000   -0.00000000
     atom    2 type  2   force =    -0.00000000    0.00000000   37.28604749
     atom    3 type  2   force =    -0.00000000    0.00000000  -37.28604749
     The local contribution  to forces
     atom    1 type  1   force =    -0.00000000    0.00000000   -0.00000000
     atom    2 type  2   force =    -0.00000000    0.00000000  -37.02757469
     atom    3 type  2   force =    -0.00000000    0.00000000   37.02757469
     The core correction contribution to forces
     atom    1 type  1   force =     0.00000000   -0.00000000    0.00000000
     atom    2 type  2   force =     0.00000000   -0.00000000    0.00287988
     atom    3 type  2   force =     0.00000000   -0.00000000   -0.00287988
     The Hubbard contrib.    to forces
     atom    1 type  1   force =     0.00000000    0.00000000    0.00000000
     atom    2 type  2   force =     0.00000000    0.00000000    0.00000000
     atom    3 type  2   force =     0.00000000    0.00000000    0.00000000
     The SCF correction term to forces
     atom    1 type  1   force =    -0.00000000   -0.00000000    0.00000000
     atom    2 type  2   force =    -0.00000000    0.00000000    0.00000103
     atom    3 type  2   force =    -0.00000000    0.00000000   -0.00000103

     Total force =     0.028699     Total SCF correction =     0.000001


     Computing stress (Cartesian axis) and pressure


     negative rho (up, down):  3.833E-04 0.000E+00
          total   stress  (Ry/bohr**3)                   (kbar)     P=       -7.11
  -0.00002518   0.00000000   0.00000000           -3.70        0.00        0.00
   0.00000000  -0.00002518  -0.00000000            0.00       -3.70       -0.00
   0.00000000  -0.00000000  -0.00009458            0.00       -0.00      -13.91

     kinetic stress (kbar)   4874.99      0.00      0.00
                                0.00   4874.99      0.00
                                0.00      0.00   4901.81

     local   stress (kbar)-146534.67      0.00      0.00
                                0.00-146534.67      0.00
                                0.00      0.00 143463.97

     nonloc. stress (kbar)   2229.79      0.00      0.00
                                0.00   2229.79      0.00
                                0.00      0.00   2222.73

     hartree stress (kbar)  71880.64      0.00     -0.00
                                0.00  71880.64     -0.00
                               -0.00     -0.00 -70082.20

     exc-cor stress (kbar)   -412.94     -0.00      0.00
                               -0.00   -412.94      0.00
                                0.00      0.00   -413.98

     corecor stress (kbar)   -548.68      0.00     -0.00
                                0.00   -548.68     -0.00
                               -0.00     -0.00   -549.09

     ewald   stress (kbar)  68507.17     -0.00     -0.00
                               -0.00  68507.17     -0.00
                               -0.00     -0.00 -79557.17

     hubbard stress (kbar)      0.00      0.00      0.00
                                0.00      0.00      0.00
                                0.00      0.00      0.00

     DFT-D   stress (kbar)      0.00      0.00      0.00
                                0.00      0.00      0.00
                                0.00      0.00      0.00

     XDM     stress (kbar)      0.00      0.00      0.00
                                0.00      0.00      0.00
                                0.00      0.00      0.00

     dft-nl  stress (kbar)      0.00      0.00      0.00
                                0.00      0.00      0.00
                                0.00      0.00      0.00

     TS-vdW  stress (kbar)      0.00      0.00      0.00
                                0.00      0.00      0.00
                                0.00      0.00      0.00

     MDB     stress (kbar)      0.00      0.00      0.00
                                0.00      0.00      0.00
                                0.00      0.00      0.00

     3D-RISM stress (kbar)      0.00      0.00      0.00
                                0.00      0.00      0.00
                                0.00      0.00      0.00


     BFGS Geometry Optimization
     Energy error            =      8.7E-04 Ry
     Gradient error          =      2.0E-02 Ry/Bohr
     Cell gradient error     =      3.7E+00 kbar

     number of scf cycles    =   1
     number of bfgs steps    =   0

     enthalpy           new  =    -181.5784696880 Ry

     new trust radius        =       0.0202933514 bohr
ibrav =      4
 celldm(1) =      6.00554556
 celldm(3) =      7.29704711
Input lattice vectors:
     0.99937039     0.00000000     0.00000000
    -0.49968520     0.86548015     0.00000000
     0.00000000     0.00000000     7.29245283
New lattice vectors in INITIAL alat:
     0.99937039     0.00000000     0.00000000
    -0.49968520     0.86548015     0.00000000
     0.00000000     0.00000000     7.29245283
New lattice vectors in NEW alat (for information only):
     1.00000000     0.00000000     0.00000000
    -0.50000000     0.86602540     0.00000000
     0.00000000     0.00000000     7.29704711
Discrepancy in bohr =     0.000000    0.000000    0.000000
     new conv_thr            =            1.0E-11 Ry

     new unit-cell volume =   1368.78482 a.u.^3 (   202.83298 Ang^3 )
     density =      1.31045 g/cm^3

CELL_PARAMETERS (alat=  6.00932908)
   0.999370392   0.000000000   0.000000000
  -0.499685196   0.865480148   0.000000000
   0.000000000   0.000000000   7.292452830

ATOMIC_POSITIONS (crystal)
Mo               0.0000000000        0.0000000000        0.5000000000
S                0.6666666667        0.3333333333        0.5683165684
S                0.6666666667        0.3333333333        0.4316834316



     Writing config-only to output data dir ./tmp/mos2.save/ :
     XML data file
     NEW-OLD atomic charge density approx. for the potential
     New effective cutoffs (rho, wfc):  480.36   60.07

     negative rho (up, down):  3.836E-04 0.000E+00

     total cpu time spent up to now is       44.4 secs

     Self-consistent Calculation

     iteration #  1     ecut=    60.00 Ry     beta= 0.30
     CG style diagonalization

---- Real-time Memory Report at c_bands before calling an iterative solver
           200 MiB given to the printing process from OS
             0 MiB allocation reported by mallinfo(arena+hblkhd)
          1551 MiB available memory on the node where the printing process lives
------------------
     ethr =  1.00E-06,  avg # of iterations =  5.6

     negative rho (up, down):  3.833E-04 0.000E+00

     total cpu time spent up to now is       47.0 secs

     total energy              =    -181.57915074 Ry
     estimated scf accuracy    <       0.00004534 Ry

     iteration #  2     ecut=    60.00 Ry     beta= 0.30
     CG style diagonalization

---- Real-time Memory Report at c_bands before calling an iterative solver
           200 MiB given to the printing process from OS
             0 MiB allocation reported by mallinfo(arena+hblkhd)
          1584 MiB available memory on the node where the printing process lives
------------------
     ethr =  1.74E-07,  avg # of iterations =  4.1

     negative rho (up, down):  3.831E-04 0.000E+00

     total cpu time spent up to now is       48.9 secs

     total energy              =    -181.57916592 Ry
     estimated scf accuracy    <       0.00001864 Ry

     iteration #  3     ecut=    60.00 Ry     beta= 0.30
     CG style diagonalization

---- Real-time Memory Report at c_bands before calling an iterative solver
           200 MiB given to the printing process from OS
             0 MiB allocation reported by mallinfo(arena+hblkhd)
          1554 MiB available memory on the node where the printing process lives
------------------
     ethr =  7.17E-08,  avg # of iterations =  3.2

     negative rho (up, down):  3.828E-04 0.000E+00

     total cpu time spent up to now is       50.6 secs

     total energy              =    -181.57916773 Ry
     estimated scf accuracy    <       0.00000349 Ry

     iteration #  4     ecut=    60.00 Ry     beta= 0.30
     CG style diagonalization

---- Real-time Memory Report at c_bands before calling an iterative solver
           200 MiB given to the printing process from OS
             0 MiB allocation reported by mallinfo(arena+hblkhd)
          1490 MiB available memory on the node where the printing process lives
------------------
     ethr =  1.34E-08,  avg # of iterations =  4.0

     negative rho (up, down):  3.827E-04 0.000E+00

     total cpu time spent up to now is       52.5 secs

     total energy              =    -181.57916834 Ry
     estimated scf accuracy    <       0.00000099 Ry

     iteration #  5     ecut=    60.00 Ry     beta= 0.30
     CG style diagonalization

---- Real-time Memory Report at c_bands before calling an iterative solver
           200 MiB given to the printing process from OS
             0 MiB allocation reported by mallinfo(arena+hblkhd)
          1507 MiB available memory on the node where the printing process lives
------------------
     ethr =  3.81E-09,  avg # of iterations =  3.2

     negative rho (up, down):  3.827E-04 0.000E+00

     total cpu time spent up to now is       54.2 secs

     total energy              =    -181.57916844 Ry
     estimated scf accuracy    <       0.00000014 Ry

     iteration #  6     ecut=    60.00 Ry     beta= 0.30
     CG style diagonalization

---- Real-time Memory Report at c_bands before calling an iterative solver
           200 MiB given to the printing process from OS
             0 MiB allocation reported by mallinfo(arena+hblkhd)
          1490 MiB available memory on the node where the printing process lives
------------------
     ethr =  5.55E-10,  avg # of iterations =  4.3

     negative rho (up, down):  3.827E-04 0.000E+00

     total cpu time spent up to now is       56.2 secs

     total energy              =    -181.57916849 Ry
     estimated scf accuracy    <       0.00000003 Ry

     iteration #  7     ecut=    60.00 Ry     beta= 0.30
     CG style diagonalization

---- Real-time Memory Report at c_bands before calling an iterative solver
           200 MiB given to the printing process from OS
             0 MiB allocation reported by mallinfo(arena+hblkhd)
          1454 MiB available memory on the node where the printing process lives
------------------
     ethr =  1.32E-10,  avg # of iterations =  3.1

     negative rho (up, down):  3.826E-04 0.000E+00

     total cpu time spent up to now is       57.9 secs

     total energy              =    -181.57916849 Ry
     estimated scf accuracy    <       0.00000002 Ry

     iteration #  8     ecut=    60.00 Ry     beta= 0.30
     CG style diagonalization

---- Real-time Memory Report at c_bands before calling an iterative solver
           200 MiB given to the printing process from OS
             0 MiB allocation reported by mallinfo(arena+hblkhd)
          1493 MiB available memory on the node where the printing process lives
------------------
     ethr =  7.02E-11,  avg # of iterations =  3.6

     negative rho (up, down):  3.826E-04 0.000E+00

     total cpu time spent up to now is       59.7 secs

     total energy              =    -181.57916849 Ry
     estimated scf accuracy    <          5.5E-09 Ry

     iteration #  9     ecut=    60.00 Ry     beta= 0.30
     CG style diagonalization

---- Real-time Memory Report at c_bands before calling an iterative solver
           200 MiB given to the printing process from OS
             0 MiB allocation reported by mallinfo(arena+hblkhd)
          1499 MiB available memory on the node where the printing process lives
------------------
     ethr =  2.12E-11,  avg # of iterations =  3.5

     negative rho (up, down):  3.826E-04 0.000E+00

     total cpu time spent up to now is       61.4 secs

     total energy              =    -181.57916849 Ry
     estimated scf accuracy    <          5.4E-10 Ry

     iteration # 10     ecut=    60.00 Ry     beta= 0.30
     CG style diagonalization

---- Real-time Memory Report at c_bands before calling an iterative solver
           200 MiB given to the printing process from OS
             0 MiB allocation reported by mallinfo(arena+hblkhd)
          1496 MiB available memory on the node where the printing process lives
------------------
     ethr =  2.09E-12,  avg # of iterations =  4.9

     negative rho (up, down):  3.826E-04 0.000E+00

     total cpu time spent up to now is       63.7 secs

     total energy              =    -181.57916849 Ry
     estimated scf accuracy    <          5.6E-10 Ry

     iteration # 11     ecut=    60.00 Ry     beta= 0.30
     CG style diagonalization

---- Real-time Memory Report at c_bands before calling an iterative solver
           200 MiB given to the printing process from OS
             0 MiB allocation reported by mallinfo(arena+hblkhd)
          1485 MiB available memory on the node where the printing process lives
------------------
     ethr =  2.09E-12,  avg # of iterations =  3.6

     negative rho (up, down):  3.826E-04 0.000E+00

     total cpu time spent up to now is       65.5 secs

     total energy              =    -181.57916849 Ry
     estimated scf accuracy    <          1.4E-10 Ry

     iteration # 12     ecut=    60.00 Ry     beta= 0.30
     CG style diagonalization

---- Real-time Memory Report at c_bands before calling an iterative solver
           200 MiB given to the printing process from OS
             0 MiB allocation reported by mallinfo(arena+hblkhd)
          1487 MiB available memory on the node where the printing process lives
------------------
     ethr =  5.43E-13,  avg # of iterations =  3.3

     negative rho (up, down):  3.826E-04 0.000E+00

     total cpu time spent up to now is       67.2 secs

     total energy              =    -181.57916849 Ry
     estimated scf accuracy    <          1.8E-11 Ry

     iteration # 13     ecut=    60.00 Ry     beta= 0.30
     CG style diagonalization

---- Real-time Memory Report at c_bands before calling an iterative solver
           200 MiB given to the printing process from OS
             0 MiB allocation reported by mallinfo(arena+hblkhd)
          1499 MiB available memory on the node where the printing process lives
------------------
     ethr =  1.00E-13,  avg # of iterations =  3.9

     negative rho (up, down):  3.826E-04 0.000E+00

     total cpu time spent up to now is       69.1 secs

     total energy              =    -181.57916849 Ry
     estimated scf accuracy    <          1.5E-11 Ry

     iteration # 14     ecut=    60.00 Ry     beta= 0.30
     CG style diagonalization

---- Real-time Memory Report at c_bands before calling an iterative solver
           200 MiB given to the printing process from OS
             0 MiB allocation reported by mallinfo(arena+hblkhd)
          1501 MiB available memory on the node where the printing process lives
------------------
     ethr =  1.00E-13,  avg # of iterations =  3.0

     negative rho (up, down):  3.826E-04 0.000E+00

     total cpu time spent up to now is       70.7 secs

     End of self-consistent calculation

          k = 0.0000 0.0000 0.0000 ( 10831 PWs)   bands (ev):

   -62.5135 -36.6527 -36.4370 -36.4370 -15.6573 -14.4226  -7.1869  -4.1112
    -4.1112  -3.4619  -3.0288  -3.0288  -1.7136   1.1382   1.1382   1.3317

     occupation numbers 
     1.0000   1.0000   1.0000   1.0000   1.0000   1.0000   1.0000   1.0000
     1.0000   1.0000   1.0000   1.0000   1.0000   0.0000   0.0000   0.0000

          k = 0.0000 0.0963 0.0000 ( 10837 PWs)   bands (ev):

   -62.5110 -36.6477 -36.4625 -36.4429 -15.5551 -14.3781  -7.0678  -4.3448
    -4.0048  -3.8798  -3.1927  -2.7758  -1.7574   1.0008   1.0493   1.2192

     occupation numbers 
     1.0000   1.0000   1.0000   1.0000   1.0000   1.0000   1.0000   1.0000
     1.0000   1.0000   1.0000   1.0000   1.0000   0.0000   0.0000   0.0000

          k = 0.0000 0.1926 0.0000 ( 10801 PWs)   bands (ev):

   -62.5040 -36.6342 -36.5316 -36.4587 -15.2642 -14.2515  -6.7656  -4.8872
    -4.5051  -3.7092  -3.5785  -2.7255  -1.9673   0.6059   0.9390   0.9589

     occupation numbers 
     1.0000   1.0000   1.0000   1.0000   1.0000   1.0000   1.0000   1.0000
     1.0000   1.0000   1.0000   1.0000   1.0000   0.0000   0.0000   0.0000

          k = 0.0000 0.2889 0.0000 ( 10783 PWs)   bands (ev):

   -62.4945 -36.6249 -36.6156 -36.4802 -14.8327 -14.0650  -6.5341  -5.3728
    -5.1595  -4.0107  -3.2979  -2.9924  -2.3690   0.4765   0.7062   1.2505

     occupation numbers 
     1.0000   1.0000   1.0000   1.0000   1.0000   1.0000   1.0000   1.0000
     1.0000   1.0000   1.0000   1.0000   1.0000   0.0000   0.0000   0.0000

          k = 0.0000 0.3851 0.0000 ( 10771 PWs)   bands (ev):

   -62.4851 -36.7168 -36.5970 -36.5017 -14.3470 -13.8594  -6.7794  -5.7758
    -5.4864  -4.3744  -3.2992  -2.8931  -2.5973   0.5847   0.6595   1.7254

     occupation numbers 
     1.0000   1.0000   1.0000   1.0000   1.0000   1.0000   1.0000   1.0000
     1.0000   1.0000   1.0000   1.0000   1.0000   0.0000   0.0000   0.0000

          k = 0.0000 0.4814 0.0000 ( 10728 PWs)   bands (ev):

   -62.4781 -36.7832 -36.5833 -36.5174 -13.9415 -13.6936  -7.1776  -6.2314
    -5.5742  -4.6105  -3.4905  -2.6193  -2.4247   0.6086   0.9593   2.0791

     occupation numbers 
     1.0000   1.0000   1.0000   1.0000   1.0000   1.0000   1.0000   1.0000
     1.0000   1.0000   1.0000   1.0000   1.0000   0.0000   0.0000   0.0000

          k = 0.0000-0.5777 0.0000 ( 10724 PWs)   bands (ev):

   -62.4756 -36.8074 -36.5783 -36.5231 -13.7785 -13.6289  -7.3489  -6.4007
    -5.6428  -4.6919  -3.5515  -2.5282  -2.2625   0.6493   1.1302   2.1945

     occupation numbers 
     1.0000   1.0000   1.0000   1.0000   1.0000   1.0000   1.0000   1.0000
     1.0000   1.0000   1.0000   1.0000   1.0000   0.0000   0.0000   0.0000

          k = 0.0834 0.1444 0.0000 ( 10801 PWs)   bands (ev):

   -62.5062 -36.6385 -36.5085 -36.4550 -15.3584 -14.2924  -6.8537  -4.7250
    -4.2939  -3.8127  -3.5784  -2.6071  -1.8845   0.7065   0.8569   1.0201

     occupation numbers 
     1.0000   1.0000   1.0000   1.0000   1.0000   1.0000   1.0000   1.0000
     1.0000   1.0000   1.0000   1.0000   1.0000   0.0000   0.0000   0.0000

          k = 0.0834 0.2407 0.0000 ( 10784 PWs)   bands (ev):

   -62.4980 -36.6224 -36.5864 -36.4770 -14.9962 -14.1348  -6.5550  -5.2232
    -4.8270  -4.1335  -3.5116  -2.6552  -2.2002   0.4096   0.8078   0.9271

     occupation numbers 
     1.0000   1.0000   1.0000   1.0000   1.0000   1.0000   1.0000   1.0000
     1.0000   1.0000   1.0000   1.0000   1.0000   0.0000   0.0000   0.0000

          k = 0.0834 0.3370 0.0000 ( 10788 PWs)   bands (ev):

   -62.4886 -36.6749 -36.6038 -36.5025 -14.5341 -13.9357  -6.5650  -5.4750
    -5.4372  -4.5034  -3.2930  -2.9596  -2.4615   0.3620   0.7738   1.3115

     occupation numbers 
     1.0000   1.0000   1.0000   1.0000   1.0000   1.0000   1.0000   1.0000
     1.0000   1.0000   1.0000   1.0000   1.0000   0.0000   0.0000   0.0000

          k = 0.0834 0.4333 0.0000 ( 10738 PWs)   bands (ev):

   -62.4803 -36.7506 -36.5876 -36.5245 -14.0803 -13.7444  -6.9267  -6.0711
    -5.4713  -4.6697  -3.2963  -3.1985  -2.3371   0.5276   0.9012   1.7789

     occupation numbers 
     1.0000   1.0000   1.0000   1.0000   1.0000   1.0000   1.0000   1.0000
     1.0000   1.0000   1.0000   1.0000   1.0000   0.0000   0.0000   0.0000

          k = 0.0834 0.5296 0.0000 ( 10708 PWs)   bands (ev):

   -62.4755 -36.7939 -36.5783 -36.5372 -13.7860 -13.6240  -7.2080  -6.4207
    -5.5852  -4.7218  -3.5047  -3.0807  -2.1015   0.6482   1.1308   2.1627

     occupation numbers 
     1.0000   1.0000   1.0000   1.0000   1.0000   1.0000   1.0000   1.0000
     1.0000   1.0000   1.0000   1.0000   1.0000   0.0000   0.0000   0.0000

          k = 0.1668 0.2889 0.0000 ( 10789 PWs)   bands (ev):

   -62.4898 -36.6535 -36.6063 -36.5090 -14.6008 -13.9621  -6.4598  -5.3956
    -5.2336  -4.7653  -3.5159  -2.6979  -2.4001   0.2463   0.8304   1.0262

     occupation numbers 
     1.0000   1.0000   1.0000   1.0000   1.0000   1.0000   1.0000   1.0000
     1.0000   1.0000   1.0000   1.0000   1.0000   0.0000   0.0000   0.0000

          k = 0.1668 0.3851 0.0000 ( 10761 PWs)   bands (ev):

   -62.4816 -36.7166 -36.5902 -36.5443 -14.1611 -13.7702  -6.6573  -5.9240
    -5.3127  -4.8837  -3.8115  -3.0051  -2.3329   0.3987   0.9472   1.3354

     occupation numbers 
     1.0000   1.0000   1.0000   1.0000   1.0000   1.0000   1.0000   1.0000
     1.0000   1.0000   1.0000   1.0000   1.0000   0.0000   0.0000   0.0000

          k = 0.1668 0.4814 0.0000 ( 10717 PWs)   bands (ev):

   -62.4755 -36.7611 -36.5783 -36.5712 -13.8008 -13.6142  -6.8761  -6.4563
    -5.4090  -4.8019  -3.9452  -3.3775  -2.0845   0.5800   1.1743   1.6529

     occupation numbers 
     1.0000   1.0000   1.0000   1.0000   1.0000   1.0000   1.0000   1.0000
     1.0000   1.0000   1.0000   1.0000   1.0000   0.0000   0.0000   0.0000

          k = 0.1668 0.5777 0.0000 ( 10718 PWs)   bands (ev):

   -62.4734 -36.7771 -36.5813 -36.5740 -13.6584 -13.5530  -6.9597  -6.6501
    -5.5217  -4.7284  -3.9460  -3.5573  -1.9114   0.5398   1.4013   1.7895

     occupation numbers 
     1.0000   1.0000   1.0000   1.0000   1.0000   1.0000   1.0000   1.0000
     1.0000   1.0000   1.0000   1.0000   1.0000   0.0000   0.0000   0.0000

          k = 0.2502 0.4333 0.0000 ( 10751 PWs)   bands (ev):

   -62.4756 -36.7392 -36.5938 -36.5783 -13.8081 -13.6092  -6.6736  -6.4721
    -5.1933  -4.8487  -4.4948  -3.2992  -2.1054   0.5311   1.2037   1.4081

     occupation numbers 
     1.0000   1.0000   1.0000   1.0000   1.0000   1.0000   1.0000   1.0000
     1.0000   1.0000   1.0000   1.0000   1.0000   0.0000   0.0000   0.0000

          k = 0.2502 0.5296 0.0000 ( 10703 PWs)   bands (ev):

   -62.4721 -36.7437 -36.6309 -36.5715 -13.5890 -13.5067  -6.8144  -6.5639
    -5.3946  -4.7995  -4.6587  -3.6339  -1.8012   0.3330   1.4391   1.6243

     occupation numbers 
     1.0000   1.0000   1.0000   1.0000   1.0000   1.0000   1.0000   1.0000
     1.0000   1.0000   1.0000   1.0000   1.0000   0.0000   0.0000   0.0000

          k = 0.3335 0.5777 0.0000 ( 10692 PWs)   bands (ev):

   -62.4708 -36.7152 -36.6749 -36.5690 -13.5102 -13.4644  -6.9564  -6.1787
    -5.6489  -5.1338  -4.5081  -3.8220  -1.6164   0.1145   1.3397   1.8591

     occupation numbers 
     1.0000   1.0000   1.0000   1.0000   1.0000   1.0000   1.0000   1.0000
     1.0000   1.0000   1.0000   1.0000   1.0000   0.0000   0.0000   0.0000

     highest occupied, lowest unoccupied level (ev):    -1.6164    0.1145

!    total energy              =    -181.57916849 Ry
     estimated scf accuracy    <          2.1E-12 Ry

     The total energy is the sum of the following terms:
     one-electron contribution =   -1378.26789744 Ry
     hartree contribution      =     688.73231369 Ry
     xc contribution           =     -29.66558910 Ry
     ewald contribution        =     537.62200437 Ry

     convergence has been achieved in  14 iterations

     negative rho (up, down):  3.826E-04 0.000E+00

     Forces acting on atoms (cartesian axes, Ry/au):

     atom    1 type  1   force =     0.00000000    0.00000000    0.00000000
     atom    2 type  2   force =     0.00000000    0.00000000   -0.01255847
     atom    3 type  2   force =     0.00000000   -0.00000000    0.01255847
     The non-local contrib.  to forces
     atom    1 type  1   force =     0.00000000   -0.00000000    0.00000000
     atom    2 type  2   force =    -0.00000000   -0.00000000   -0.27825610
     atom    3 type  2   force =     0.00000000   -0.00000000    0.27825610
     The ionic contribution  to forces
     atom    1 type  1   force =     0.00000000   -0.00000000    0.00000000
     atom    2 type  2   force =    -0.00000000    0.00000000   37.34490132
     atom    3 type  2   force =    -0.00000000    0.00000000  -37.34490132
     The local contribution  to forces
     atom    1 type  1   force =     0.00000000    0.00000000   -0.00000000
     atom    2 type  2   force =    -0.00000000    0.00000000  -37.08191948
     atom    3 type  2   force =    -0.00000000    0.00000000   37.08191948
     The core correction contribution to forces
     atom    1 type  1   force =     0.00000000   -0.00000000   -0.00000000
     atom    2 type  2   force =     0.00000000   -0.00000000    0.00271324
     atom    3 type  2   force =     0.00000000   -0.00000000   -0.00271324
     The Hubbard contrib.    to forces
     atom    1 type  1   force =     0.00000000    0.00000000    0.00000000
     atom    2 type  2   force =     0.00000000    0.00000000    0.00000000
     atom    3 type  2   force =     0.00000000    0.00000000    0.00000000
     The SCF correction term to forces
     atom    1 type  1   force =    -0.00000000   -0.00000000    0.00000000
     atom    2 type  2   force =    -0.00000000    0.00000000    0.00000255
     atom    3 type  2   force =    -0.00000000    0.00000000   -0.00000255

     Total force =     0.017760     Total SCF correction =     0.000004


     Computing stress (Cartesian axis) and pressure


     negative rho (up, down):  3.826E-04 0.000E+00
          total   stress  (Ry/bohr**3)                   (kbar)     P=       -4.03
  -0.00001101   0.00000000   0.00000000           -1.62        0.00        0.00
   0.00000000  -0.00001101   0.00000000            0.00       -1.62        0.00
   0.00000000   0.00000000  -0.00006024            0.00        0.00       -8.86

     kinetic stress (kbar)   4882.98      0.00      0.00
                                0.00   4882.98      0.00
                                0.00      0.00   4915.97

     local   stress (kbar)-147242.57      0.00     -0.00
                                0.00-147242.57     -0.00
                               -0.00     -0.00 144193.19

     nonloc. stress (kbar)   2233.27      0.00      0.00
                                0.00   2233.27      0.00
                                0.00      0.00   2225.29

     hartree stress (kbar)  72223.38      0.00     -0.00
                                0.00  72223.38      0.00
                               -0.00      0.00 -70427.80

     exc-cor stress (kbar)   -414.03     -0.00     -0.00
                               -0.00   -414.03     -0.00
                               -0.00     -0.00   -415.09

     corecor stress (kbar)   -549.41      0.00      0.00
                                0.00   -549.41      0.00
                                0.00      0.00   -549.83

     ewald   stress (kbar)  68864.76     -0.00      0.00
                               -0.00  68864.76     -0.00
                                0.00     -0.00 -79950.59

     hubbard stress (kbar)      0.00      0.00      0.00
                                0.00      0.00      0.00
                                0.00      0.00      0.00

     DFT-D   stress (kbar)      0.00      0.00      0.00
                                0.00      0.00      0.00
                                0.00      0.00      0.00

     XDM     stress (kbar)      0.00      0.00      0.00
                                0.00      0.00      0.00
                                0.00      0.00      0.00

     dft-nl  stress (kbar)      0.00      0.00      0.00
                                0.00      0.00      0.00
                                0.00      0.00      0.00

     TS-vdW  stress (kbar)      0.00      0.00      0.00
                                0.00      0.00      0.00
                                0.00      0.00      0.00

     MDB     stress (kbar)      0.00      0.00      0.00
                                0.00      0.00      0.00
                                0.00      0.00      0.00

     3D-RISM stress (kbar)      0.00      0.00      0.00
                                0.00      0.00      0.00
                                0.00      0.00      0.00

     Energy error            =      7.0E-04 Ry
     Gradient error          =      1.3E-02 Ry/Bohr
     Cell gradient error     =      1.6E+00 kbar

     number of scf cycles    =   2
     number of bfgs steps    =   1

     enthalpy           old  =    -181.5784696880 Ry
     enthalpy           new  =    -181.5791684868 Ry

     CASE: enthalpy          _new < enthalpy          _old

     new trust radius        =       0.0223226865 bohr
ibrav =      4
 celldm(1) =      6.00260051
 celldm(3) =      7.30062725
Input lattice vectors:
     0.99888031     0.00000000     0.00000000
    -0.49944016     0.86505573     0.00000000
     0.00000000     0.00000000     7.29245283
New lattice vectors in INITIAL alat:
     0.99888031     0.00000000     0.00000000
    -0.49944016     0.86505573     0.00000000
     0.00000000     0.00000000     7.29245283
New lattice vectors in NEW alat (for information only):
     1.00000000     0.00000000     0.00000000
    -0.50000000     0.86602540     0.00000000
     0.00000000     0.00000000     7.30062725
Discrepancy in bohr =     0.000000    0.000000    0.000000
     new conv_thr            =            1.0E-11 Ry

     new unit-cell volume =   1367.44267 a.u.^3 (   202.63410 Ang^3 )
     density =      1.31174 g/cm^3

CELL_PARAMETERS (alat=  6.00932908)
   0.998880313   0.000000000   0.000000000
  -0.499440156   0.865055726   0.000000000
   0.000000000   0.000000000   7.292452830

ATOMIC_POSITIONS (crystal)
Mo               0.0000000000        0.0000000000        0.5000000000
S                0.6666666667        0.3333333333        0.5678071826
S                0.6666666667        0.3333333333        0.4321928174



     Writing config-only to output data dir ./tmp/mos2.save/ :
     XML data file
     NEW-OLD atomic charge density approx. for the potential
     New effective cutoffs (rho, wfc):  480.75   60.13

     negative rho (up, down):  3.833E-04 0.000E+00

     total cpu time spent up to now is       73.0 secs

     Self-consistent Calculation

     iteration #  1     ecut=    60.00 Ry     beta= 0.30
     CG style diagonalization

---- Real-time Memory Report at c_bands before calling an iterative solver
           205 MiB given to the printing process from OS
             0 MiB allocation reported by mallinfo(arena+hblkhd)
          1578 MiB available memory on the node where the printing process lives
------------------
     ethr =  1.00E-06,  avg # of iterations =  5.8

     negative rho (up, down):  3.830E-04 0.000E+00

     total cpu time spent up to now is       75.6 secs

     total energy              =    -181.57952110 Ry
     estimated scf accuracy    <       0.00005700 Ry

     iteration #  2     ecut=    60.00 Ry     beta= 0.30
     CG style diagonalization

---- Real-time Memory Report at c_bands before calling an iterative solver
           205 MiB given to the printing process from OS
             0 MiB allocation reported by mallinfo(arena+hblkhd)
          1522 MiB available memory on the node where the printing process lives
------------------
     ethr =  2.19E-07,  avg # of iterations =  4.0

     negative rho (up, down):  3.829E-04 0.000E+00

     total cpu time spent up to now is       77.5 secs

     total energy              =    -181.57953836 Ry
     estimated scf accuracy    <       0.00002752 Ry

     iteration #  3     ecut=    60.00 Ry     beta= 0.30
     CG style diagonalization

---- Real-time Memory Report at c_bands before calling an iterative solver
           205 MiB given to the printing process from OS
             0 MiB allocation reported by mallinfo(arena+hblkhd)
          1523 MiB available memory on the node where the printing process lives
------------------
     ethr =  1.06E-07,  avg # of iterations =  3.2

     negative rho (up, down):  3.825E-04 0.000E+00

     total cpu time spent up to now is       79.2 secs

     total energy              =    -181.57954088 Ry
     estimated scf accuracy    <       0.00000434 Ry

     iteration #  4     ecut=    60.00 Ry     beta= 0.30
     CG style diagonalization

---- Real-time Memory Report at c_bands before calling an iterative solver
           205 MiB given to the printing process from OS
             0 MiB allocation reported by mallinfo(arena+hblkhd)
          1509 MiB available memory on the node where the printing process lives
------------------
     ethr =  1.67E-08,  avg # of iterations =  4.2

     negative rho (up, down):  3.825E-04 0.000E+00

     total cpu time spent up to now is       81.2 secs

     total energy              =    -181.57954157 Ry
     estimated scf accuracy    <       0.00000296 Ry

     iteration #  5     ecut=    60.00 Ry     beta= 0.30
     CG style diagonalization

---- Real-time Memory Report at c_bands before calling an iterative solver
           205 MiB given to the printing process from OS
             0 MiB allocation reported by mallinfo(arena+hblkhd)
          1496 MiB available memory on the node where the printing process lives
------------------
     ethr =  1.14E-08,  avg # of iterations =  3.1

     negative rho (up, down):  3.824E-04 0.000E+00

     total cpu time spent up to now is       82.9 secs

     total energy              =    -181.57954188 Ry
     estimated scf accuracy    <       0.00000020 Ry

     iteration #  6     ecut=    60.00 Ry     beta= 0.30
     CG style diagonalization

---- Real-time Memory Report at c_bands before calling an iterative solver
           205 MiB given to the printing process from OS
             0 MiB allocation reported by mallinfo(arena+hblkhd)
          1530 MiB available memory on the node where the printing process lives
------------------
     ethr =  7.63E-10,  avg # of iterations =  4.6

     negative rho (up, down):  3.824E-04 0.000E+00

     total cpu time spent up to now is       85.0 secs

     total energy              =    -181.57954197 Ry
     estimated scf accuracy    <       0.00000014 Ry

     iteration #  7     ecut=    60.00 Ry     beta= 0.30
     CG style diagonalization

---- Real-time Memory Report at c_bands before calling an iterative solver
           205 MiB given to the printing process from OS
             0 MiB allocation reported by mallinfo(arena+hblkhd)
          1600 MiB available memory on the node where the printing process lives
------------------
     ethr =  5.38E-10,  avg # of iterations =  3.0

     negative rho (up, down):  3.824E-04 0.000E+00

     total cpu time spent up to now is       86.6 secs

     total energy              =    -181.57954196 Ry
     estimated scf accuracy    <       0.00000005 Ry

     iteration #  8     ecut=    60.00 Ry     beta= 0.30
     CG style diagonalization

---- Real-time Memory Report at c_bands before calling an iterative solver
           205 MiB given to the printing process from OS
             0 MiB allocation reported by mallinfo(arena+hblkhd)
          1496 MiB available memory on the node where the printing process lives
------------------
     ethr =  1.90E-10,  avg # of iterations =  3.5

     negative rho (up, down):  3.824E-04 0.000E+00

     total cpu time spent up to now is       88.4 secs

     total energy              =    -181.57954197 Ry
     estimated scf accuracy    <          4.4E-09 Ry

     iteration #  9     ecut=    60.00 Ry     beta= 0.30
     CG style diagonalization

---- Real-time Memory Report at c_bands before calling an iterative solver
           205 MiB given to the printing process from OS
             0 MiB allocation reported by mallinfo(arena+hblkhd)
          1482 MiB available memory on the node where the printing process lives
------------------
     ethr =  1.69E-11,  avg # of iterations =  4.0

     negative rho (up, down):  3.824E-04 0.000E+00

     total cpu time spent up to now is       90.3 secs

     total energy              =    -181.57954197 Ry
     estimated scf accuracy    <          3.4E-09 Ry

     iteration # 10     ecut=    60.00 Ry     beta= 0.30
     CG style diagonalization

---- Real-time Memory Report at c_bands before calling an iterative solver
           205 MiB given to the printing process from OS
             0 MiB allocation reported by mallinfo(arena+hblkhd)
          1496 MiB available memory on the node where the printing process lives
------------------
     ethr =  1.29E-11,  avg # of iterations =  3.0

     negative rho (up, down):  3.824E-04 0.000E+00

     total cpu time spent up to now is       91.9 secs

     total energy              =    -181.57954197 Ry
     estimated scf accuracy    <          2.6E-09 Ry

     iteration # 11     ecut=    60.00 Ry     beta= 0.30
     CG style diagonalization

---- Real-time Memory Report at c_bands before calling an iterative solver
           205 MiB given to the printing process from OS
             0 MiB allocation reported by mallinfo(arena+hblkhd)
          1530 MiB available memory on the node where the printing process lives
------------------
     ethr =  1.01E-11,  avg # of iterations =  3.7

     negative rho (up, down):  3.824E-04 0.000E+00

     total cpu time spent up to now is       93.7 secs

     total energy              =    -181.57954197 Ry
     estimated scf accuracy    <          4.5E-10 Ry

     iteration # 12     ecut=    60.00 Ry     beta= 0.30
     CG style diagonalization

---- Real-time Memory Report at c_bands before calling an iterative solver
           205 MiB given to the printing process from OS
             0 MiB allocation reported by mallinfo(arena+hblkhd)
          1497 MiB available memory on the node where the printing process lives
------------------
     ethr =  1.74E-12,  avg # of iterations =  4.1

     negative rho (up, down):  3.824E-04 0.000E+00

     total cpu time spent up to now is       95.7 secs

     total energy              =    -181.57954197 Ry
     estimated scf accuracy    <          2.3E-09 Ry

     iteration # 13     ecut=    60.00 Ry     beta= 0.30
     CG style diagonalization

---- Real-time Memory Report at c_bands before calling an iterative solver
           205 MiB given to the printing process from OS
             0 MiB allocation reported by mallinfo(arena+hblkhd)
          1494 MiB available memory on the node where the printing process lives
------------------
     ethr =  1.74E-12,  avg # of iterations =  3.0

     negative rho (up, down):  3.824E-04 0.000E+00

     total cpu time spent up to now is       97.4 secs

     total energy              =    -181.57954197 Ry
     estimated scf accuracy    <          1.4E-09 Ry

     iteration # 14     ecut=    60.00 Ry     beta= 0.30
     CG style diagonalization

---- Real-time Memory Report at c_bands before calling an iterative solver
           205 MiB given to the printing process from OS
             0 MiB allocation reported by mallinfo(arena+hblkhd)
          1494 MiB available memory on the node where the printing process lives
------------------
     ethr =  1.74E-12,  avg # of iterations =  3.0

     negative rho (up, down):  3.824E-04 0.000E+00

     total cpu time spent up to now is       99.0 secs

     total energy              =    -181.57954197 Ry
     estimated scf accuracy    <          1.3E-09 Ry

     iteration # 15     ecut=    60.00 Ry     beta= 0.30
     CG style diagonalization

---- Real-time Memory Report at c_bands before calling an iterative solver
           205 MiB given to the printing process from OS
             0 MiB allocation reported by mallinfo(arena+hblkhd)
          1592 MiB available memory on the node where the printing process lives
------------------
     ethr =  1.74E-12,  avg # of iterations =  3.0

     negative rho (up, down):  3.824E-04 0.000E+00

     total cpu time spent up to now is      100.6 secs

     total energy              =    -181.57954197 Ry
     estimated scf accuracy    <          1.1E-09 Ry

     iteration # 16     ecut=    60.00 Ry     beta= 0.30
     CG style diagonalization

---- Real-time Memory Report at c_bands before calling an iterative solver
           205 MiB given to the printing process from OS
             0 MiB allocation reported by mallinfo(arena+hblkhd)
          1502 MiB available memory on the node where the printing process lives
------------------
     ethr =  1.74E-12,  avg # of iterations =  3.0

     negative rho (up, down):  3.824E-04 0.000E+00

     total cpu time spent up to now is      102.2 secs

     total energy              =    -181.57954197 Ry
     estimated scf accuracy    <          9.2E-10 Ry

     iteration # 17     ecut=    60.00 Ry     beta= 0.30
     CG style diagonalization

---- Real-time Memory Report at c_bands before calling an iterative solver
           205 MiB given to the printing process from OS
             0 MiB allocation reported by mallinfo(arena+hblkhd)
          1498 MiB available memory on the node where the printing process lives
------------------
     ethr =  1.74E-12,  avg # of iterations =  3.1

     negative rho (up, down):  3.824E-04 0.000E+00

     total cpu time spent up to now is      103.8 secs

     total energy              =    -181.57954197 Ry
     estimated scf accuracy    <          3.4E-10 Ry

     iteration # 18     ecut=    60.00 Ry     beta= 0.30
     CG style diagonalization

---- Real-time Memory Report at c_bands before calling an iterative solver
           205 MiB given to the printing process from OS
             0 MiB allocation reported by mallinfo(arena+hblkhd)
          1492 MiB available memory on the node where the printing process lives
------------------
     ethr =  1.30E-12,  avg # of iterations =  3.8

     negative rho (up, down):  3.824E-04 0.000E+00

     total cpu time spent up to now is      105.7 secs

     total energy              =    -181.57954197 Ry
     estimated scf accuracy    <          4.8E-11 Ry

     iteration # 19     ecut=    60.00 Ry     beta= 0.30
     CG style diagonalization

---- Real-time Memory Report at c_bands before calling an iterative solver
           205 MiB given to the printing process from OS
             0 MiB allocation reported by mallinfo(arena+hblkhd)
          1488 MiB available memory on the node where the printing process lives
------------------
     ethr =  1.84E-13,  avg # of iterations =  3.8

     negative rho (up, down):  3.824E-04 0.000E+00

     total cpu time spent up to now is      107.6 secs

     End of self-consistent calculation

          k = 0.0000 0.0000 0.0000 ( 10831 PWs)   bands (ev):

   -62.5081 -36.6520 -36.4369 -36.4369 -15.7022 -14.4271  -7.2267  -4.1798
    -4.1798  -3.4381  -3.0803  -3.0803  -1.6785   1.1468   1.1468   1.3688

     occupation numbers 
     1.0000   1.0000   1.0000   1.0000   1.0000   1.0000   1.0000   1.0000
     1.0000   1.0000   1.0000   1.0000   1.0000   0.0000   0.0000   0.0000

          k = 0.0000 0.0963 0.0000 ( 10837 PWs)   bands (ev):

   -62.5055 -36.6470 -36.4628 -36.4428 -15.5994 -14.3837  -7.1083  -4.4114
    -4.0725  -3.8912  -3.2446  -2.7892  -1.7257   1.0108   1.0867   1.2540

     occupation numbers 
     1.0000   1.0000   1.0000   1.0000   1.0000   1.0000   1.0000   1.0000
     1.0000   1.0000   1.0000   1.0000   1.0000   0.0000   0.0000   0.0000

          k = 0.0000 0.1927 0.0000 ( 10801 PWs)   bands (ev):

   -62.4985 -36.6332 -36.5328 -36.4588 -15.3069 -14.2601  -6.8094  -4.9455
    -4.5298  -3.7738  -3.6314  -2.7182  -1.9466   0.6447   0.9529   0.9881

     occupation numbers 
     1.0000   1.0000   1.0000   1.0000   1.0000   1.0000   1.0000   1.0000
     1.0000   1.0000   1.0000   1.0000   1.0000   0.0000   0.0000   0.0000

          k = 0.0000 0.2890 0.0000 ( 10783 PWs)   bands (ev):

   -62.4889 -36.6273 -36.6143 -36.4806 -14.8736 -14.0784  -6.5886  -5.4108
    -5.1877  -4.0649  -3.3564  -2.9743  -2.3630   0.5144   0.7270   1.2720

     occupation numbers 
     1.0000   1.0000   1.0000   1.0000   1.0000   1.0000   1.0000   1.0000
     1.0000   1.0000   1.0000   1.0000   1.0000   0.0000   0.0000   0.0000

          k = 0.0000 0.3853 0.0000 ( 10771 PWs)   bands (ev):

   -62.4793 -36.7205 -36.5953 -36.5023 -14.3867 -13.8784  -6.8347  -5.8008
    -5.5123  -4.4295  -3.2778  -2.9420  -2.6019   0.5945   0.6902   1.7552

     occupation numbers 
     1.0000   1.0000   1.0000   1.0000   1.0000   1.0000   1.0000   1.0000
     1.0000   1.0000   1.0000   1.0000   1.0000   0.0000   0.0000   0.0000

          k = 0.0000 0.4817 0.0000 ( 10728 PWs)   bands (ev):

   -62.4722 -36.7878 -36.5814 -36.5182 -13.9809 -13.7174  -7.2210  -6.2513
    -5.6054  -4.6663  -3.4690  -2.6580  -2.4295   0.6072   0.9776   2.1127

     occupation numbers 
     1.0000   1.0000   1.0000   1.0000   1.0000   1.0000   1.0000   1.0000
     1.0000   1.0000   1.0000   1.0000   1.0000   0.0000   0.0000   0.0000

          k = 0.0000-0.5780 0.0000 ( 10724 PWs)   bands (ev):

   -62.4697 -36.8122 -36.5762 -36.5240 -13.8180 -13.6547  -7.3866  -6.4183
    -5.6780  -4.7479  -3.5301  -2.5625  -2.2645   0.6431   1.1405   2.2283

     occupation numbers 
     1.0000   1.0000   1.0000   1.0000   1.0000   1.0000   1.0000   1.0000
     1.0000   1.0000   1.0000   1.0000   1.0000   0.0000   0.0000   0.0000

          k = 0.0834 0.1445 0.0000 ( 10801 PWs)   bands (ev):

   -62.5007 -36.6375 -36.5094 -36.4551 -15.4017 -14.3000  -6.8960  -4.7868
    -4.3148  -3.8780  -3.6287  -2.6078  -1.8602   0.7451   0.8681   1.0508

     occupation numbers 
     1.0000   1.0000   1.0000   1.0000   1.0000   1.0000   1.0000   1.0000
     1.0000   1.0000   1.0000   1.0000   1.0000   0.0000   0.0000   0.0000

          k = 0.0834 0.2408 0.0000 ( 10784 PWs)   bands (ev):

   -62.4924 -36.6212 -36.5883 -36.4773 -15.0378 -14.1464  -6.6046  -5.2709
    -4.8550  -4.1796  -3.5705  -2.6460  -2.1903   0.4478   0.8325   0.9419

     occupation numbers 
     1.0000   1.0000   1.0000   1.0000   1.0000   1.0000   1.0000   1.0000
     1.0000   1.0000   1.0000   1.0000   1.0000   0.0000   0.0000   0.0000

          k = 0.0834 0.3372 0.0000 ( 10788 PWs)   bands (ev):

   -62.4829 -36.6780 -36.6022 -36.5032 -14.5741 -13.9524  -6.6236  -5.5059
    -5.4647  -4.5457  -3.3362  -2.9452  -2.4719   0.3931   0.7918   1.3341

     occupation numbers 
     1.0000   1.0000   1.0000   1.0000   1.0000   1.0000   1.0000   1.0000
     1.0000   1.0000   1.0000   1.0000   1.0000   0.0000   0.0000   0.0000

          k = 0.0834 0.4335 0.0000 ( 10738 PWs)   bands (ev):

   -62.4745 -36.7547 -36.5858 -36.5254 -14.1195 -13.7664  -6.9757  -6.0996
    -5.4987  -4.7124  -3.2788  -3.2277  -2.3572   0.5456   0.9111   1.8102

     occupation numbers 
     1.0000   1.0000   1.0000   1.0000   1.0000   1.0000   1.0000   1.0000
     1.0000   1.0000   1.0000   1.0000   1.0000   0.0000   0.0000   0.0000

          k = 0.0834 0.5298 0.0000 ( 10708 PWs)   bands (ev):

   -62.4696 -36.7986 -36.5763 -36.5383 -13.8253 -13.6494  -7.2466  -6.4464
    -5.6194  -4.7662  -3.4849  -3.1038  -2.1180   0.6486   1.1396   2.2008

     occupation numbers 
     1.0000   1.0000   1.0000   1.0000   1.0000   1.0000   1.0000   1.0000
     1.0000   1.0000   1.0000   1.0000   1.0000   0.0000   0.0000   0.0000

          k = 0.1669 0.2890 0.0000 ( 10789 PWs)   bands (ev):

   -62.4841 -36.6564 -36.6048 -36.5097 -14.6409 -13.9780  -6.5189  -5.4255
    -5.2731  -4.7957  -3.5577  -2.6850  -2.4108   0.2808   0.8478   1.0436

     occupation numbers 
     1.0000   1.0000   1.0000   1.0000   1.0000   1.0000   1.0000   1.0000
     1.0000   1.0000   1.0000   1.0000   1.0000   0.0000   0.0000   0.0000

          k = 0.1669 0.3853 0.0000 ( 10761 PWs)   bands (ev):

   -62.4758 -36.7202 -36.5884 -36.5454 -14.2002 -13.7909  -6.7115  -5.9669
    -5.3363  -4.9071  -3.8416  -2.9896  -2.3552   0.4317   0.9486   1.3618

     occupation numbers 
     1.0000   1.0000   1.0000   1.0000   1.0000   1.0000   1.0000   1.0000
     1.0000   1.0000   1.0000   1.0000   1.0000   0.0000   0.0000   0.0000

          k = 0.1669 0.4817 0.0000 ( 10717 PWs)   bands (ev):

   -62.4697 -36.7654 -36.5763 -36.5727 -13.8398 -13.6388  -6.9179  -6.4977
    -5.4392  -4.8244  -3.9695  -3.3602  -2.1057   0.5917   1.1800   1.6921

     occupation numbers 
     1.0000   1.0000   1.0000   1.0000   1.0000   1.0000   1.0000   1.0000
     1.0000   1.0000   1.0000   1.0000   1.0000   0.0000   0.0000   0.0000

          k = 0.1669 0.5780 0.0000 ( 10718 PWs)   bands (ev):

   -62.4674 -36.7816 -36.5829 -36.5719 -13.6975 -13.5793  -6.9948  -6.6907
    -5.5577  -4.7518  -3.9673  -3.5385  -1.9298   0.5326   1.4186   1.8366

     occupation numbers 
     1.0000   1.0000   1.0000   1.0000   1.0000   1.0000   1.0000   1.0000
     1.0000   1.0000   1.0000   1.0000   1.0000   0.0000   0.0000   0.0000

          k = 0.2503 0.4335 0.0000 ( 10751 PWs)   bands (ev):

   -62.4697 -36.7432 -36.5956 -36.5763 -13.8469 -13.6335  -6.7186  -6.5212
    -5.2168  -4.8612  -4.5236  -3.2825  -2.1278   0.5470   1.2085   1.4455

     occupation numbers 
     1.0000   1.0000   1.0000   1.0000   1.0000   1.0000   1.0000   1.0000
     1.0000   1.0000   1.0000   1.0000   1.0000   0.0000   0.0000   0.0000

          k = 0.2503 0.5298 0.0000 ( 10703 PWs)   bands (ev):

   -62.4661 -36.7478 -36.6331 -36.5693 -13.6279 -13.5333  -6.8651  -6.5986
    -5.4274  -4.8242  -4.6671  -3.6167  -1.8193   0.3181   1.4856   1.6531

     occupation numbers 
     1.0000   1.0000   1.0000   1.0000   1.0000   1.0000   1.0000   1.0000
     1.0000   1.0000   1.0000   1.0000   1.0000   0.0000   0.0000   0.0000

          k = 0.3337 0.5780 0.0000 ( 10692 PWs)   bands (ev):

   -62.4648 -36.7194 -36.6772 -36.5668 -13.5491 -13.4916  -7.0100  -6.2070
    -5.6829  -5.1625  -4.5117  -3.8053  -1.6303   0.0874   1.3882   1.8996

     occupation numbers 
     1.0000   1.0000   1.0000   1.0000   1.0000   1.0000   1.0000   1.0000
     1.0000   1.0000   1.0000   1.0000   1.0000   0.0000   0.0000   0.0000

     highest occupied, lowest unoccupied level (ev):    -1.6303    0.0874

!    total energy              =    -181.57954197 Ry
     estimated scf accuracy    <          3.9E-13 Ry

     The total energy is the sum of the following terms:
     one-electron contribution =   -1382.81622199 Ry
     hartree contribution      =     691.00201328 Ry
     xc contribution           =     -29.68551068 Ry
     ewald contribution        =     539.92017742 Ry

     convergence has been achieved in  19 iterations

     negative rho (up, down):  3.824E-04 0.000E+00

     Forces acting on atoms (cartesian axes, Ry/au):

     atom    1 type  1   force =    -0.00000000   -0.00000000    0.00000000
     atom    2 type  2   force =     0.00000000    0.00000000   -0.00390994
     atom    3 type  2   force =     0.00000000    0.00000000    0.00390994
     The non-local contrib.  to forces
     atom    1 type  1   force =     0.00000000    0.00000000    0.00000000
     atom    2 type  2   force =     0.00000000   -0.00000000   -0.27453035
     atom    3 type  2   force =    -0.00000000   -0.00000000    0.27453035
     The ionic contribution  to forces
     atom    1 type  1   force =     0.00000000   -0.00000000    0.00000000
     atom    2 type  2   force =    -0.00000000    0.00000000   37.39203004
     atom    3 type  2   force =    -0.00000000    0.00000000  -37.39203004
     The local contribution  to forces
     atom    1 type  1   force =     0.00000000    0.00000000   -0.00000000
     atom    2 type  2   force =    -0.00000000    0.00000000  -37.12394317
     atom    3 type  2   force =    -0.00000000    0.00000000   37.12394317
     The core correction contribution to forces
     atom    1 type  1   force =     0.00000000   -0.00000000   -0.00000000
     atom    2 type  2   force =     0.00000000   -0.00000000    0.00253345
     atom    3 type  2   force =     0.00000000   -0.00000000   -0.00253345
     The Hubbard contrib.    to forces
     atom    1 type  1   force =     0.00000000    0.00000000    0.00000000
     atom    2 type  2   force =     0.00000000    0.00000000    0.00000000
     atom    3 type  2   force =     0.00000000    0.00000000    0.00000000
     The SCF correction term to forces
     atom    1 type  1   force =    -0.00000000   -0.00000000   -0.00000000
     atom    2 type  2   force =    -0.00000000    0.00000000    0.00000009
     atom    3 type  2   force =    -0.00000000   -0.00000000   -0.00000009

     Total force =     0.005529     Total SCF correction =     0.000000


     Computing stress (Cartesian axis) and pressure


     negative rho (up, down):  3.824E-04 0.000E+00
          total   stress  (Ry/bohr**3)                   (kbar)     P=       -0.70
   0.00000399   0.00000000  -0.00000000            0.59        0.00       -0.00
   0.00000000   0.00000399   0.00000000            0.00        0.59        0.00
   0.00000000  -0.00000000  -0.00002230            0.00       -0.00       -3.28

     kinetic stress (kbar)   4889.63      0.00      0.00
                                0.00   4889.63      0.00
                                0.00      0.00   4929.65

     local   stress (kbar)-147905.75      0.00      0.00
                                0.00-147905.75     -0.00
                                0.00     -0.00 144878.90

     nonloc. stress (kbar)   2236.20      0.00     -0.00
                                0.00   2236.20      0.00
                                0.00     -0.00   2227.15

     hartree stress (kbar)  72543.34      0.00     -0.00
                                0.00  72543.34      0.00
                               -0.00      0.00 -70750.90

     exc-cor stress (kbar)   -415.03     -0.00      0.00
                               -0.00   -415.03     -0.00
                                0.00     -0.00   -416.12

     corecor stress (kbar)   -550.00      0.00     -0.00
                                0.00   -550.00      0.00
                               -0.00      0.00   -550.43

     ewald   stress (kbar)  69202.20     -0.00     -0.00
                               -0.00  69202.20     -0.00
                               -0.00     -0.00 -80321.52

     hubbard stress (kbar)      0.00      0.00      0.00
                                0.00      0.00      0.00
                                0.00      0.00      0.00

     DFT-D   stress (kbar)      0.00      0.00      0.00
                                0.00      0.00      0.00
                                0.00      0.00      0.00

     XDM     stress (kbar)      0.00      0.00      0.00
                                0.00      0.00      0.00
                                0.00      0.00      0.00

     dft-nl  stress (kbar)      0.00      0.00      0.00
                                0.00      0.00      0.00
                                0.00      0.00      0.00

     TS-vdW  stress (kbar)      0.00      0.00      0.00
                                0.00      0.00      0.00
                                0.00      0.00      0.00

     MDB     stress (kbar)      0.00      0.00      0.00
                                0.00      0.00      0.00
                                0.00      0.00      0.00

     3D-RISM stress (kbar)      0.00      0.00      0.00
                                0.00      0.00      0.00
                                0.00      0.00      0.00

     Energy error            =      3.7E-04 Ry
     Gradient error          =      3.9E-03 Ry/Bohr
     Cell gradient error     =      5.9E-01 kbar

     number of scf cycles    =   3
     number of bfgs steps    =   2

     enthalpy           old  =    -181.5791684868 Ry
     enthalpy           new  =    -181.5795419655 Ry

     CASE: enthalpy          _new < enthalpy          _old

     new trust radius        =       0.0098860828 bohr
ibrav =      4
 celldm(1) =      6.00286317
 celldm(3) =      7.30030781
Input lattice vectors:
     0.99892402     0.00000000     0.00000000
    -0.49946201     0.86509358     0.00000000
     0.00000000     0.00000000     7.29245283
New lattice vectors in INITIAL alat:
     0.99892402     0.00000000     0.00000000
    -0.49946201     0.86509358     0.00000000
     0.00000000     0.00000000     7.29245283
New lattice vectors in NEW alat (for information only):
     1.00000000     0.00000000     0.00000000
    -0.50000000     0.86602540     0.00000000
     0.00000000     0.00000000     7.30030781
Discrepancy in bohr =     0.000000    0.000000    0.000000
     new conv_thr            =            1.0E-11 Ry

     new unit-cell volume =   1367.56235 a.u.^3 (   202.65183 Ang^3 )
     density =      1.31162 g/cm^3

CELL_PARAMETERS (alat=  6.00932908)
   0.998924021   0.000000000   0.000000000
  -0.499462011   0.865093579   0.000000000
   0.000000000   0.000000000   7.292452830

ATOMIC_POSITIONS (crystal)
Mo               0.0000000000        0.0000000000        0.5000000000
S                0.6666666667        0.3333333333        0.5675815901
S                0.6666666667        0.3333333333        0.4324184099



     Writing config-only to output data dir ./tmp/mos2.save/ :
     XML data file
     NEW-OLD atomic charge density approx. for the potential
     New effective cutoffs (rho, wfc):  480.71   60.13

     negative rho (up, down):  3.833E-04 0.000E+00

     total cpu time spent up to now is      109.9 secs

     Self-consistent Calculation

     iteration #  1     ecut=    60.00 Ry     beta= 0.30
     CG style diagonalization

---- Real-time Memory Report at c_bands before calling an iterative solver
           209 MiB given to the printing process from OS
             0 MiB allocation reported by mallinfo(arena+hblkhd)
          1561 MiB available memory on the node where the printing process lives
------------------
     ethr =  1.00E-06,  avg # of iterations =  4.2

     Threshold (ethr) on eigenvalues was too large:
     Diagonalizing with lowered threshold

     CG style diagonalization

---- Real-time Memory Report at c_bands before calling an iterative solver
           209 MiB given to the printing process from OS
             0 MiB allocation reported by mallinfo(arena+hblkhd)
          1547 MiB available memory on the node where the printing process lives
------------------
     ethr =  1.46E-08,  avg # of iterations =  5.6

     negative rho (up, down):  3.832E-04 0.000E+00

     total cpu time spent up to now is      114.2 secs

     total energy              =    -181.57958089 Ry
     estimated scf accuracy    <       0.00001094 Ry

     iteration #  2     ecut=    60.00 Ry     beta= 0.30
     CG style diagonalization

---- Real-time Memory Report at c_bands before calling an iterative solver
           209 MiB given to the printing process from OS
             0 MiB allocation reported by mallinfo(arena+hblkhd)
          1505 MiB available memory on the node where the printing process lives
------------------
     ethr =  4.21E-08,  avg # of iterations =  3.6

     negative rho (up, down):  3.832E-04 0.000E+00

     total cpu time spent up to now is      116.1 secs

     total energy              =    -181.57958244 Ry
     estimated scf accuracy    <       0.00000761 Ry

     iteration #  3     ecut=    60.00 Ry     beta= 0.30
     CG style diagonalization

---- Real-time Memory Report at c_bands before calling an iterative solver
           209 MiB given to the printing process from OS
             0 MiB allocation reported by mallinfo(arena+hblkhd)
          1499 MiB available memory on the node where the printing process lives
------------------
     ethr =  2.93E-08,  avg # of iterations =  3.2

     negative rho (up, down):  3.830E-04 0.000E+00

     total cpu time spent up to now is      117.8 secs

     total energy              =    -181.57958313 Ry
     estimated scf accuracy    <       0.00000088 Ry

     iteration #  4     ecut=    60.00 Ry     beta= 0.30
     CG style diagonalization

---- Real-time Memory Report at c_bands before calling an iterative solver
           209 MiB given to the printing process from OS
             0 MiB allocation reported by mallinfo(arena+hblkhd)
          1521 MiB available memory on the node where the printing process lives
------------------
     ethr =  3.39E-09,  avg # of iterations =  4.2

     negative rho (up, down):  3.830E-04 0.000E+00

     total cpu time spent up to now is      119.8 secs

     total energy              =    -181.57958321 Ry
     estimated scf accuracy    <       0.00000067 Ry

     iteration #  5     ecut=    60.00 Ry     beta= 0.30
     CG style diagonalization

---- Real-time Memory Report at c_bands before calling an iterative solver
           209 MiB given to the printing process from OS
             0 MiB allocation reported by mallinfo(arena+hblkhd)
          1507 MiB available memory on the node where the printing process lives
------------------
     ethr =  2.58E-09,  avg # of iterations =  3.2

     negative rho (up, down):  3.830E-04 0.000E+00

     total cpu time spent up to now is      121.5 secs

     total energy              =    -181.57958331 Ry
     estimated scf accuracy    <       0.00000002 Ry

     iteration #  6     ecut=    60.00 Ry     beta= 0.30
     CG style diagonalization

---- Real-time Memory Report at c_bands before calling an iterative solver
           209 MiB given to the printing process from OS
             0 MiB allocation reported by mallinfo(arena+hblkhd)
          1492 MiB available memory on the node where the printing process lives
------------------
     ethr =  5.81E-11,  avg # of iterations =  4.8

     negative rho (up, down):  3.830E-04 0.000E+00

     total cpu time spent up to now is      123.7 secs

     total energy              =    -181.57958332 Ry
     estimated scf accuracy    <       0.00000004 Ry

     iteration #  7     ecut=    60.00 Ry     beta= 0.30
     CG style diagonalization

---- Real-time Memory Report at c_bands before calling an iterative solver
           209 MiB given to the printing process from OS
             0 MiB allocation reported by mallinfo(arena+hblkhd)
          1505 MiB available memory on the node where the printing process lives
------------------
     ethr =  5.81E-11,  avg # of iterations =  3.2

     negative rho (up, down):  3.830E-04 0.000E+00

     total cpu time spent up to now is      125.3 secs

     total energy              =    -181.57958332 Ry
     estimated scf accuracy    <          8.0E-09 Ry

     iteration #  8     ecut=    60.00 Ry     beta= 0.30
     CG style diagonalization

---- Real-time Memory Report at c_bands before calling an iterative solver
           209 MiB given to the printing process from OS
             0 MiB allocation reported by mallinfo(arena+hblkhd)
          1486 MiB available memory on the node where the printing process lives
------------------
     ethr =  3.06E-11,  avg # of iterations =  3.6

     negative rho (up, down):  3.830E-04 0.000E+00

     total cpu time spent up to now is      127.1 secs

     total energy              =    -181.57958332 Ry
     estimated scf accuracy    <          7.4E-11 Ry

     iteration #  9     ecut=    60.00 Ry     beta= 0.30
     CG style diagonalization

---- Real-time Memory Report at c_bands before calling an iterative solver
           209 MiB given to the printing process from OS
             0 MiB allocation reported by mallinfo(arena+hblkhd)
          1492 MiB available memory on the node where the printing process lives
------------------
     ethr =  2.85E-13,  avg # of iterations =  6.0

     negative rho (up, down):  3.830E-04 0.000E+00

     total cpu time spent up to now is      129.7 secs

     total energy              =    -181.57958332 Ry
     estimated scf accuracy    <          7.6E-10 Ry

     iteration # 10     ecut=    60.00 Ry     beta= 0.30
     CG style diagonalization

---- Real-time Memory Report at c_bands before calling an iterative solver
           209 MiB given to the printing process from OS
             0 MiB allocation reported by mallinfo(arena+hblkhd)
          1494 MiB available memory on the node where the printing process lives
------------------
     ethr =  2.85E-13,  avg # of iterations =  3.1

     negative rho (up, down):  3.830E-04 0.000E+00

     total cpu time spent up to now is      131.3 secs

     total energy              =    -181.57958332 Ry
     estimated scf accuracy    <          5.1E-10 Ry

     iteration # 11     ecut=    60.00 Ry     beta= 0.30
     CG style diagonalization

---- Real-time Memory Report at c_bands before calling an iterative solver
           209 MiB given to the printing process from OS
             0 MiB allocation reported by mallinfo(arena+hblkhd)
          1478 MiB available memory on the node where the printing process lives
------------------
     ethr =  2.85E-13,  avg # of iterations =  4.4

     negative rho (up, down):  3.830E-04 0.000E+00

     total cpu time spent up to now is      133.4 secs

     total energy              =    -181.57958332 Ry
     estimated scf accuracy    <          1.2E-11 Ry

     iteration # 12     ecut=    60.00 Ry     beta= 0.30
     CG style diagonalization

---- Real-time Memory Report at c_bands before calling an iterative solver
           209 MiB given to the printing process from OS
             0 MiB allocation reported by mallinfo(arena+hblkhd)
          1488 MiB available memory on the node where the printing process lives
------------------
     ethr =  1.00E-13,  avg # of iterations =  3.0

     negative rho (up, down):  3.830E-04 0.000E+00

     total cpu time spent up to now is      135.0 secs

     End of self-consistent calculation

          k = 0.0000 0.0000 0.0000 ( 10831 PWs)   bands (ev):

   -62.5094 -36.6548 -36.4409 -36.4409 -15.7220 -14.4292  -7.2444  -4.2134
    -4.2134  -3.4278  -3.1067  -3.1067  -1.6636   1.1456   1.1456   1.3805

     occupation numbers 
     1.0000   1.0000   1.0000   1.0000   1.0000   1.0000   1.0000   1.0000
     1.0000   1.0000   1.0000   1.0000   1.0000   0.0000   0.0000   0.0000

          k = 0.0000 0.0963 0.0000 ( 10837 PWs)   bands (ev):

   -62.5068 -36.6498 -36.4669 -36.4468 -15.6191 -14.3862  -7.1264  -4.4439
    -4.1058  -3.8980  -3.2710  -2.7970  -1.7125   1.0103   1.0991   1.2649

     occupation numbers 
     1.0000   1.0000   1.0000   1.0000   1.0000   1.0000   1.0000   1.0000
     1.0000   1.0000   1.0000   1.0000   1.0000   0.0000   0.0000   0.0000

          k = 0.0000 0.1927 0.0000 ( 10801 PWs)   bands (ev):

   -62.4998 -36.6359 -36.5372 -36.4629 -15.3262 -14.2643  -6.8293  -4.9739
    -4.5419  -3.8060  -3.6579  -2.7168  -1.9386   0.6587   0.9543   0.9966

     occupation numbers 
     1.0000   1.0000   1.0000   1.0000   1.0000   1.0000   1.0000   1.0000
     1.0000   1.0000   1.0000   1.0000   1.0000   0.0000   0.0000   0.0000

          k = 0.0000 0.2890 0.0000 ( 10783 PWs)   bands (ev):

   -62.4902 -36.6320 -36.6169 -36.4848 -14.8926 -14.0849  -6.6135  -5.4298
    -5.2008  -4.0915  -3.3863  -2.9678  -2.3618   0.5284   0.7318   1.2768

     occupation numbers 
     1.0000   1.0000   1.0000   1.0000   1.0000   1.0000   1.0000   1.0000
     1.0000   1.0000   1.0000   1.0000   1.0000   0.0000   0.0000   0.0000

          k = 0.0000 0.3853 0.0000 ( 10771 PWs)   bands (ev):

   -62.4806 -36.7254 -36.5978 -36.5065 -14.4059 -13.8877  -6.8595  -5.8119
    -5.5255  -4.4563  -3.2694  -2.9680  -2.6055   0.5940   0.7004   1.7636

     occupation numbers 
     1.0000   1.0000   1.0000   1.0000   1.0000   1.0000   1.0000   1.0000
     1.0000   1.0000   1.0000   1.0000   1.0000   0.0000   0.0000   0.0000

          k = 0.0000 0.4816 0.0000 ( 10728 PWs)   bands (ev):

   -62.4735 -36.7929 -36.5838 -36.5224 -14.0006 -13.7290  -7.2400  -6.2598
    -5.6203  -4.6932  -3.4602  -2.6796  -2.4337   0.6012   0.9809   2.1230

     occupation numbers 
     1.0000   1.0000   1.0000   1.0000   1.0000   1.0000   1.0000   1.0000
     1.0000   1.0000   1.0000   1.0000   1.0000   0.0000   0.0000   0.0000

          k = 0.0000-0.5780 0.0000 ( 10724 PWs)   bands (ev):

   -62.4709 -36.8175 -36.5787 -36.5282 -13.8381 -13.6673  -7.4028  -6.4256
    -5.6944  -4.7748  -3.5213  -2.5820  -2.2677   0.6346   1.1392   2.2389

     occupation numbers 
     1.0000   1.0000   1.0000   1.0000   1.0000   1.0000   1.0000   1.0000
     1.0000   1.0000   1.0000   1.0000   1.0000   0.0000   0.0000   0.0000

          k = 0.0834 0.1445 0.0000 ( 10801 PWs)   bands (ev):

   -62.5020 -36.6403 -36.5136 -36.4591 -15.4211 -14.3036  -6.9152  -4.8168
    -4.3254  -3.9105  -3.6539  -2.6101  -1.8506   0.7587   0.8683   1.0600

     occupation numbers 
     1.0000   1.0000   1.0000   1.0000   1.0000   1.0000   1.0000   1.0000
     1.0000   1.0000   1.0000   1.0000   1.0000   0.0000   0.0000   0.0000

          k = 0.0834 0.2408 0.0000 ( 10784 PWs)   bands (ev):

   -62.4937 -36.6239 -36.5928 -36.4815 -15.0568 -14.1520  -6.6272  -5.2943
    -4.8683  -4.2023  -3.6003  -2.6438  -2.1874   0.4619   0.8393   0.9437

     occupation numbers 
     1.0000   1.0000   1.0000   1.0000   1.0000   1.0000   1.0000   1.0000
     1.0000   1.0000   1.0000   1.0000   1.0000   0.0000   0.0000   0.0000

          k = 0.0834 0.3372 0.0000 ( 10788 PWs)   bands (ev):

   -62.4841 -36.6829 -36.6048 -36.5073 -14.5931 -13.9606  -6.6501  -5.5201
    -5.4791  -4.5663  -3.3590  -2.9404  -2.4784   0.4036   0.7955   1.3394

     occupation numbers 
     1.0000   1.0000   1.0000   1.0000   1.0000   1.0000   1.0000   1.0000
     1.0000   1.0000   1.0000   1.0000   1.0000   0.0000   0.0000   0.0000

          k = 0.0834 0.4335 0.0000 ( 10738 PWs)   bands (ev):

   -62.4757 -36.7598 -36.5883 -36.5297 -14.1389 -13.7771  -6.9976  -6.1122
    -5.5123  -4.7329  -3.2722  -3.2438  -2.3688   0.5491   0.9105   1.8194

     occupation numbers 
     1.0000   1.0000   1.0000   1.0000   1.0000   1.0000   1.0000   1.0000
     1.0000   1.0000   1.0000   1.0000   1.0000   0.0000   0.0000   0.0000

          k = 0.0834 0.5298 0.0000 ( 10708 PWs)   bands (ev):

   -62.4709 -36.8038 -36.5787 -36.5425 -13.8453 -13.6619  -7.2634  -6.4575
    -5.6356  -4.7875  -3.4770  -3.1173  -2.1283   0.6431   1.1379   2.2129

     occupation numbers 
     1.0000   1.0000   1.0000   1.0000   1.0000   1.0000   1.0000   1.0000
     1.0000   1.0000   1.0000   1.0000   1.0000   0.0000   0.0000   0.0000

          k = 0.1668 0.2890 0.0000 ( 10789 PWs)   bands (ev):

   -62.4854 -36.6611 -36.6074 -36.5139 -14.6599 -13.9858  -6.5457  -5.4411
    -5.2918  -4.8101  -3.5794  -2.6814  -2.4175   0.2932   0.8511   1.0469

     occupation numbers 
     1.0000   1.0000   1.0000   1.0000   1.0000   1.0000   1.0000   1.0000
     1.0000   1.0000   1.0000   1.0000   1.0000   0.0000   0.0000   0.0000

          k = 0.1668 0.3853 0.0000 ( 10761 PWs)   bands (ev):

   -62.4771 -36.7252 -36.5908 -36.5497 -14.2194 -13.8011  -6.7359  -5.9864
    -5.3489  -4.9182  -3.8570  -2.9845  -2.3678   0.4433   0.9435   1.3692

     occupation numbers 
     1.0000   1.0000   1.0000   1.0000   1.0000   1.0000   1.0000   1.0000
     1.0000   1.0000   1.0000   1.0000   1.0000   0.0000   0.0000   0.0000

          k = 0.1668 0.4816 0.0000 ( 10717 PWs)   bands (ev):

   -62.4709 -36.7705 -36.5787 -36.5771 -13.8595 -13.6511  -6.9365  -6.5160
    -5.4541  -4.8353  -3.9825  -3.3538  -2.1181   0.5917   1.1769   1.7056

     occupation numbers 
     1.0000   1.0000   1.0000   1.0000   1.0000   1.0000   1.0000   1.0000
     1.0000   1.0000   1.0000   1.0000   1.0000   0.0000   0.0000   0.0000

          k = 0.1668 0.5780 0.0000 ( 10718 PWs)   bands (ev):

   -62.4687 -36.7868 -36.5873 -36.5743 -13.7176 -13.5923  -7.0102  -6.7085
    -5.5747  -4.7631  -3.9791  -3.5311  -1.9412   0.5235   1.4205   1.8539

     occupation numbers 
     1.0000   1.0000   1.0000   1.0000   1.0000   1.0000   1.0000   1.0000
     1.0000   1.0000   1.0000   1.0000   1.0000   0.0000   0.0000   0.0000

          k = 0.2503 0.4335 0.0000 ( 10751 PWs)   bands (ev):

   -62.4710 -36.7483 -36.6000 -36.5787 -13.8666 -13.6456  -6.7387  -6.5430
    -5.2293  -4.8673  -4.5378  -3.2766  -2.1407   0.5492   1.2051   1.4585

     occupation numbers 
     1.0000   1.0000   1.0000   1.0000   1.0000   1.0000   1.0000   1.0000
     1.0000   1.0000   1.0000   1.0000   1.0000   0.0000   0.0000   0.0000

          k = 0.2503 0.5298 0.0000 ( 10703 PWs)   bands (ev):

   -62.4673 -36.7529 -36.6376 -36.5717 -13.6480 -13.5465  -6.8872  -6.6140
    -5.4431  -4.8368  -4.6716  -3.6101  -1.8305   0.3056   1.5034   1.6603

     occupation numbers 
     1.0000   1.0000   1.0000   1.0000   1.0000   1.0000   1.0000   1.0000
     1.0000   1.0000   1.0000   1.0000   1.0000   0.0000   0.0000   0.0000

          k = 0.3337 0.5780 0.0000 ( 10692 PWs)   bands (ev):

   -62.4660 -36.7246 -36.6817 -36.5692 -13.5693 -13.5052  -7.0333  -6.2197
    -5.6985  -5.1773  -4.5141  -3.7988  -1.6397   0.0693   1.4073   1.9121

     occupation numbers 
     1.0000   1.0000   1.0000   1.0000   1.0000   1.0000   1.0000   1.0000
     1.0000   1.0000   1.0000   1.0000   1.0000   0.0000   0.0000   0.0000

     highest occupied, lowest unoccupied level (ev):    -1.6397    0.0693

!    total energy              =    -181.57958332 Ry
     estimated scf accuracy    <          7.6E-12 Ry

     The total energy is the sum of the following terms:
     one-electron contribution =   -1384.15728264 Ry
     hartree contribution      =     691.66773690 Ry
     xc contribution           =     -29.69319804 Ry
     ewald contribution        =     540.60316046 Ry

     convergence has been achieved in  12 iterations

     negative rho (up, down):  3.830E-04 0.000E+00

     Forces acting on atoms (cartesian axes, Ry/au):

     atom    1 type  1   force =    -0.00000000   -0.00000000    0.00000000
     atom    2 type  2   force =     0.00000000    0.00000000   -0.00018484
     atom    3 type  2   force =    -0.00000000   -0.00000000    0.00018484
     The non-local contrib.  to forces
     atom    1 type  1   force =     0.00000000    0.00000000    0.00000000
     atom    2 type  2   force =     0.00000000    0.00000000   -0.27300111
     atom    3 type  2   force =     0.00000000    0.00000000    0.27300111
     The ionic contribution  to forces
     atom    1 type  1   force =     0.00000000   -0.00000000    0.00000000
     atom    2 type  2   force =    -0.00000000    0.00000000   37.39101424
     atom    3 type  2   force =    -0.00000000    0.00000000  -37.39101424
     The local contribution  to forces
     atom    1 type  1   force =     0.00000000    0.00000000   -0.00000000
     atom    2 type  2   force =    -0.00000000    0.00000000  -37.12065621
     atom    3 type  2   force =    -0.00000000    0.00000000   37.12065621
     The core correction contribution to forces
     atom    1 type  1   force =    -0.00000000   -0.00000000    0.00000000
     atom    2 type  2   force =     0.00000000   -0.00000000    0.00246194
     atom    3 type  2   force =     0.00000000   -0.00000000   -0.00246194
     The Hubbard contrib.    to forces
     atom    1 type  1   force =     0.00000000    0.00000000    0.00000000
     atom    2 type  2   force =     0.00000000    0.00000000    0.00000000
     atom    3 type  2   force =     0.00000000    0.00000000    0.00000000
     The SCF correction term to forces
     atom    1 type  1   force =     0.00000000   -0.00000000   -0.00000000
     atom    2 type  2   force =     0.00000000    0.00000000   -0.00000369
     atom    3 type  2   force =     0.00000000   -0.00000000    0.00000369

     Total force =     0.000261     Total SCF correction =     0.000005


     Computing stress (Cartesian axis) and pressure


     negative rho (up, down):  3.830E-04 0.000E+00
          total   stress  (Ry/bohr**3)                   (kbar)     P=        0.61
   0.00000924   0.00000000   0.00000000            1.36        0.00        0.00
   0.00000000   0.00000924  -0.00000000            0.00        1.36       -0.00
   0.00000000   0.00000000  -0.00000611            0.00        0.00       -0.90

     kinetic stress (kbar)   4889.73      0.00      0.00
                                0.00   4889.73     -0.00
                                0.00     -0.00   4933.10

     local   stress (kbar)-148046.77      0.00      0.00
                                0.00-148046.77      0.00
                                0.00      0.00 145028.41

     nonloc. stress (kbar)   2236.33      0.00      0.00
                                0.00   2236.33      0.00
                                0.00      0.00   2226.75

     hartree stress (kbar)  72609.83      0.00     -0.00
                                0.00  72609.83      0.00
                               -0.00      0.00 -70818.79

     exc-cor stress (kbar)   -415.23     -0.00     -0.00
                               -0.00   -415.23     -0.00
                               -0.00     -0.00   -416.33

     corecor stress (kbar)   -549.97      0.00     -0.00
                                0.00   -549.97      0.00
                               -0.00      0.00   -550.41

     ewald   stress (kbar)  69277.45     -0.00      0.00
                               -0.00  69277.45     -0.00
                                0.00     -0.00 -80403.63

     hubbard stress (kbar)      0.00      0.00      0.00
                                0.00      0.00      0.00
                                0.00      0.00      0.00

     DFT-D   stress (kbar)      0.00      0.00      0.00
                                0.00      0.00      0.00
                                0.00      0.00      0.00

     XDM     stress (kbar)      0.00      0.00      0.00
                                0.00      0.00      0.00
                                0.00      0.00      0.00

     dft-nl  stress (kbar)      0.00      0.00      0.00
                                0.00      0.00      0.00
                                0.00      0.00      0.00

     TS-vdW  stress (kbar)      0.00      0.00      0.00
                                0.00      0.00      0.00
                                0.00      0.00      0.00

     MDB     stress (kbar)      0.00      0.00      0.00
                                0.00      0.00      0.00
                                0.00      0.00      0.00

     3D-RISM stress (kbar)      0.00      0.00      0.00
                                0.00      0.00      0.00
                                0.00      0.00      0.00

     Energy error            =      4.1E-05 Ry
     Gradient error          =      1.8E-04 Ry/Bohr
     Cell gradient error     =      1.4E+00 kbar

     number of scf cycles    =   4
     number of bfgs steps    =   3

     enthalpy           old  =    -181.5795419655 Ry
     enthalpy           new  =    -181.5795833211 Ry

     CASE: enthalpy          _new < enthalpy          _old

     new trust radius        =       0.0018004001 bohr
ibrav =      4
 celldm(1) =      6.00432441
 celldm(3) =      7.29853116
Input lattice vectors:
     0.99916718     0.00000000     0.00000000
    -0.49958359     0.86530416     0.00000000
     0.00000000     0.00000000     7.29245283
New lattice vectors in INITIAL alat:
     0.99916718     0.00000000     0.00000000
    -0.49958359     0.86530416     0.00000000
     0.00000000     0.00000000     7.29245283
New lattice vectors in NEW alat (for information only):
     1.00000000     0.00000000     0.00000000
    -0.50000000     0.86602540     0.00000000
     0.00000000     0.00000000     7.29853116
Discrepancy in bohr =     0.000000    0.000000    0.000000
     new conv_thr            =            1.8E-12 Ry

     new unit-cell volume =   1368.22823 a.u.^3 (   202.75050 Ang^3 )
     density =      1.31098 g/cm^3

CELL_PARAMETERS (alat=  6.00932908)
   0.999167184   0.000000000   0.000000000
  -0.499583592   0.865304164   0.000000000
   0.000000000   0.000000000   7.292452830

ATOMIC_POSITIONS (crystal)
Mo              -0.0000000000       -0.0000000000        0.5000000000
S                0.6666666667        0.3333333333        0.5675563004
S                0.6666666667        0.3333333333        0.4324436996



     Writing config-only to output data dir ./tmp/mos2.save/ :
     XML data file
     NEW-OLD atomic charge density approx. for the potential
     New effective cutoffs (rho, wfc):  480.51   60.10

     negative rho (up, down):  3.837E-04 0.000E+00

     total cpu time spent up to now is      137.3 secs

     Self-consistent Calculation

     iteration #  1     ecut=    60.00 Ry     beta= 0.30
     CG style diagonalization

---- Real-time Memory Report at c_bands before calling an iterative solver
           211 MiB given to the printing process from OS
             0 MiB allocation reported by mallinfo(arena+hblkhd)
          1537 MiB available memory on the node where the printing process lives
------------------
     ethr =  1.00E-06,  avg # of iterations =  2.1

     Threshold (ethr) on eigenvalues was too large:
     Diagonalizing with lowered threshold

     CG style diagonalization

---- Real-time Memory Report at c_bands before calling an iterative solver
           211 MiB given to the printing process from OS
             0 MiB allocation reported by mallinfo(arena+hblkhd)
          1537 MiB available memory on the node where the printing process lives
------------------
     ethr =  1.41E-08,  avg # of iterations =  4.0

     negative rho (up, down):  3.837E-04 0.000E+00

     total cpu time spent up to now is      140.5 secs

     total energy              =    -181.57958915 Ry
     estimated scf accuracy    <       0.00000021 Ry

     iteration #  2     ecut=    60.00 Ry     beta= 0.30
     CG style diagonalization

---- Real-time Memory Report at c_bands before calling an iterative solver
           211 MiB given to the printing process from OS
             0 MiB allocation reported by mallinfo(arena+hblkhd)
          1524 MiB available memory on the node where the printing process lives
------------------
     ethr =  8.08E-10,  avg # of iterations =  4.7

     negative rho (up, down):  3.838E-04 0.000E+00

     total cpu time spent up to now is      142.7 secs

     total energy              =    -181.57958931 Ry
     estimated scf accuracy    <       0.00000038 Ry

     iteration #  3     ecut=    60.00 Ry     beta= 0.30
     CG style diagonalization

---- Real-time Memory Report at c_bands before calling an iterative solver
           211 MiB given to the printing process from OS
             0 MiB allocation reported by mallinfo(arena+hblkhd)
          1513 MiB available memory on the node where the printing process lives
------------------
     ethr =  8.08E-10,  avg # of iterations =  3.2

     negative rho (up, down):  3.838E-04 0.000E+00

     total cpu time spent up to now is      144.4 secs

     total energy              =    -181.57958932 Ry
     estimated scf accuracy    <       0.00000006 Ry

     iteration #  4     ecut=    60.00 Ry     beta= 0.30
     CG style diagonalization

---- Real-time Memory Report at c_bands before calling an iterative solver
           211 MiB given to the printing process from OS
             0 MiB allocation reported by mallinfo(arena+hblkhd)
          1506 MiB available memory on the node where the printing process lives
------------------
     ethr =  2.12E-10,  avg # of iterations =  4.1

     negative rho (up, down):  3.838E-04 0.000E+00

     total cpu time spent up to now is      146.3 secs

     total energy              =    -181.57958933 Ry
     estimated scf accuracy    <       0.00000006 Ry

     iteration #  5     ecut=    60.00 Ry     beta= 0.30
     CG style diagonalization

---- Real-time Memory Report at c_bands before calling an iterative solver
           211 MiB given to the printing process from OS
             0 MiB allocation reported by mallinfo(arena+hblkhd)
          1498 MiB available memory on the node where the printing process lives
------------------
     ethr =  2.12E-10,  avg # of iterations =  3.3

     negative rho (up, down):  3.838E-04 0.000E+00

     total cpu time spent up to now is      148.0 secs

     total energy              =    -181.57958934 Ry
     estimated scf accuracy    <          1.2E-09 Ry

     iteration #  6     ecut=    60.00 Ry     beta= 0.30
     CG style diagonalization

---- Real-time Memory Report at c_bands before calling an iterative solver
           211 MiB given to the printing process from OS
             0 MiB allocation reported by mallinfo(arena+hblkhd)
          1563 MiB available memory on the node where the printing process lives
------------------
     ethr =  4.75E-12,  avg # of iterations =  4.9

     negative rho (up, down):  3.838E-04 0.000E+00

     total cpu time spent up to now is      150.3 secs

     total energy              =    -181.57958934 Ry
     estimated scf accuracy    <          1.5E-10 Ry

     iteration #  7     ecut=    60.00 Ry     beta= 0.30
     CG style diagonalization

---- Real-time Memory Report at c_bands before calling an iterative solver
           211 MiB given to the printing process from OS
             0 MiB allocation reported by mallinfo(arena+hblkhd)
          1493 MiB available memory on the node where the printing process lives
------------------
     ethr =  5.73E-13,  avg # of iterations =  3.6

     negative rho (up, down):  3.838E-04 0.000E+00

     total cpu time spent up to now is      152.1 secs

     total energy              =    -181.57958934 Ry
     estimated scf accuracy    <          1.1E-10 Ry

     iteration #  8     ecut=    60.00 Ry     beta= 0.30
     CG style diagonalization

---- Real-time Memory Report at c_bands before calling an iterative solver
           211 MiB given to the printing process from OS
             0 MiB allocation reported by mallinfo(arena+hblkhd)
          1503 MiB available memory on the node where the printing process lives
------------------
     ethr =  4.15E-13,  avg # of iterations =  3.8

     negative rho (up, down):  3.838E-04 0.000E+00

     total cpu time spent up to now is      154.0 secs

     total energy              =    -181.57958934 Ry
     estimated scf accuracy    <          5.8E-11 Ry

     iteration #  9     ecut=    60.00 Ry     beta= 0.30
     CG style diagonalization

---- Real-time Memory Report at c_bands before calling an iterative solver
           211 MiB given to the printing process from OS
             0 MiB allocation reported by mallinfo(arena+hblkhd)
          1581 MiB available memory on the node where the printing process lives
------------------
     ethr =  2.24E-13,  avg # of iterations =  3.5

     negative rho (up, down):  3.838E-04 0.000E+00

     total cpu time spent up to now is      155.8 secs

     total energy              =    -181.57958934 Ry
     estimated scf accuracy    <          6.4E-12 Ry

     iteration # 10     ecut=    60.00 Ry     beta= 0.30
     CG style diagonalization

---- Real-time Memory Report at c_bands before calling an iterative solver
           211 MiB given to the printing process from OS
             0 MiB allocation reported by mallinfo(arena+hblkhd)
          1487 MiB available memory on the node where the printing process lives
------------------
     ethr =  1.00E-13,  avg # of iterations =  3.0

     negative rho (up, down):  3.838E-04 0.000E+00

     total cpu time spent up to now is      157.4 secs

     End of self-consistent calculation

          k = 0.0000 0.0000 0.0000 ( 10831 PWs)   bands (ev):

   -62.5128 -36.6578 -36.4449 -36.4449 -15.7239 -14.4295  -7.2461  -4.2196
    -4.2196  -3.4271  -3.1128  -3.1128  -1.6625   1.1411   1.1411   1.3774

     occupation numbers 
     1.0000   1.0000   1.0000   1.0000   1.0000   1.0000   1.0000   1.0000
     1.0000   1.0000   1.0000   1.0000   1.0000   0.0000   0.0000   0.0000

          k = 0.0000 0.0963 0.0000 ( 10837 PWs)   bands (ev):

   -62.5102 -36.6528 -36.4708 -36.4508 -15.6210 -14.3867  -7.1283  -4.4498
    -4.1121  -3.8999  -3.2769  -2.8001  -1.7118   1.0060   1.0966   1.2618

     occupation numbers 
     1.0000   1.0000   1.0000   1.0000   1.0000   1.0000   1.0000   1.0000
     1.0000   1.0000   1.0000   1.0000   1.0000   0.0000   0.0000   0.0000

          k = 0.0000 0.1926 0.0000 ( 10801 PWs)   bands (ev):

   -62.5032 -36.6389 -36.5409 -36.4668 -15.3284 -14.2650  -6.8316  -4.9790
    -4.5441  -3.8124  -3.6635  -2.7186  -1.9389   0.6574   0.9503   0.9935

     occupation numbers 
     1.0000   1.0000   1.0000   1.0000   1.0000   1.0000   1.0000   1.0000
     1.0000   1.0000   1.0000   1.0000   1.0000   0.0000   0.0000   0.0000

          k = 0.0000 0.2889 0.0000 ( 10783 PWs)   bands (ev):

   -62.4936 -36.6355 -36.6200 -36.4886 -14.8953 -14.0862  -6.6164  -5.4337
    -5.2026  -4.0967  -3.3929  -2.9686  -2.3629   0.5275   0.7284   1.2730

     occupation numbers 
     1.0000   1.0000   1.0000   1.0000   1.0000   1.0000   1.0000   1.0000
     1.0000   1.0000   1.0000   1.0000   1.0000   0.0000   0.0000   0.0000

          k = 0.0000 0.3852 0.0000 ( 10771 PWs)   bands (ev):

   -62.4840 -36.7288 -36.6009 -36.5104 -14.4092 -13.8895  -6.8623  -5.8131
    -5.5284  -4.4613  -3.2696  -2.9745  -2.6072   0.5898   0.6984   1.7603

     occupation numbers 
     1.0000   1.0000   1.0000   1.0000   1.0000   1.0000   1.0000   1.0000
     1.0000   1.0000   1.0000   1.0000   1.0000   0.0000   0.0000   0.0000

          k = 0.0000 0.4815 0.0000 ( 10728 PWs)   bands (ev):

   -62.4770 -36.7961 -36.5870 -36.5262 -14.0046 -13.7313  -7.2419  -6.2604
    -5.6228  -4.6980  -3.4601  -2.6857  -2.4359   0.5958   0.9770   2.1201

     occupation numbers 
     1.0000   1.0000   1.0000   1.0000   1.0000   1.0000   1.0000   1.0000
     1.0000   1.0000   1.0000   1.0000   1.0000   0.0000   0.0000   0.0000

          k = 0.0000-0.5778 0.0000 ( 10724 PWs)   bands (ev):

   -62.4744 -36.8206 -36.5818 -36.5320 -13.8423 -13.6698  -7.4042  -6.4260
    -5.6968  -4.7795  -3.5211  -2.5879  -2.2699   0.6287   1.1341   2.2362

     occupation numbers 
     1.0000   1.0000   1.0000   1.0000   1.0000   1.0000   1.0000   1.0000
     1.0000   1.0000   1.0000   1.0000   1.0000   0.0000   0.0000   0.0000

          k = 0.0834 0.1445 0.0000 ( 10801 PWs)   bands (ev):

   -62.5054 -36.6433 -36.5175 -36.4631 -15.4232 -14.3043  -6.9174  -4.8221
    -4.3275  -3.9168  -3.6593  -2.6126  -1.8506   0.7570   0.8642   1.0570

     occupation numbers 
     1.0000   1.0000   1.0000   1.0000   1.0000   1.0000   1.0000   1.0000
     1.0000   1.0000   1.0000   1.0000   1.0000   0.0000   0.0000   0.0000

          k = 0.0834 0.2408 0.0000 ( 10784 PWs)   bands (ev):

   -62.4971 -36.6269 -36.5965 -36.4854 -15.0593 -14.1530  -6.6300  -5.2987
    -4.8704  -4.2068  -3.6067  -2.6457  -2.1885   0.4608   0.8362   0.9399

     occupation numbers 
     1.0000   1.0000   1.0000   1.0000   1.0000   1.0000   1.0000   1.0000
     1.0000   1.0000   1.0000   1.0000   1.0000   0.0000   0.0000   0.0000

          k = 0.0834 0.3371 0.0000 ( 10788 PWs)   bands (ev):

   -62.4876 -36.6863 -36.6079 -36.5112 -14.5961 -13.9622  -6.6532  -5.5220
    -5.4824  -4.5700  -3.3644  -2.9416  -2.4809   0.4020   0.7919   1.3359

     occupation numbers 
     1.0000   1.0000   1.0000   1.0000   1.0000   1.0000   1.0000   1.0000
     1.0000   1.0000   1.0000   1.0000   1.0000   0.0000   0.0000   0.0000

          k = 0.0834 0.4334 0.0000 ( 10738 PWs)   bands (ev):

   -62.4792 -36.7631 -36.5914 -36.5335 -14.1426 -13.7793  -7.0000  -6.1135
    -5.5151  -4.7366  -3.2728  -3.2481  -2.3725   0.5458   0.9060   1.8163

     occupation numbers 
     1.0000   1.0000   1.0000   1.0000   1.0000   1.0000   1.0000   1.0000
     1.0000   1.0000   1.0000   1.0000   1.0000   0.0000   0.0000   0.0000

          k = 0.0834 0.5297 0.0000 ( 10708 PWs)   bands (ev):

   -62.4744 -36.8070 -36.5819 -36.5463 -13.8495 -13.6644  -7.2649  -6.4584
    -5.6381  -4.7914  -3.4771  -3.1215  -2.1319   0.6378   1.1328   2.2100

     occupation numbers 
     1.0000   1.0000   1.0000   1.0000   1.0000   1.0000   1.0000   1.0000
     1.0000   1.0000   1.0000   1.0000   1.0000   0.0000   0.0000   0.0000

          k = 0.1668 0.2889 0.0000 ( 10789 PWs)   bands (ev):

   -62.4889 -36.6646 -36.6105 -36.5177 -14.6629 -13.9873  -6.5489  -5.4446
    -5.2947  -4.8125  -3.5844  -2.6832  -2.4201   0.2922   0.8474   1.0433

     occupation numbers 
     1.0000   1.0000   1.0000   1.0000   1.0000   1.0000   1.0000   1.0000
     1.0000   1.0000   1.0000   1.0000   1.0000   0.0000   0.0000   0.0000

          k = 0.1668 0.3852 0.0000 ( 10761 PWs)   bands (ev):

   -62.4805 -36.7286 -36.5940 -36.5535 -14.2230 -13.8032  -6.7387  -5.9889
    -5.3521  -4.9200  -3.8606  -2.9858  -2.3716   0.4419   0.9379   1.3663

     occupation numbers 
     1.0000   1.0000   1.0000   1.0000   1.0000   1.0000   1.0000   1.0000
     1.0000   1.0000   1.0000   1.0000   1.0000   0.0000   0.0000   0.0000

          k = 0.1668 0.4815 0.0000 ( 10717 PWs)   bands (ev):

   -62.4744 -36.7738 -36.5819 -36.5808 -13.8637 -13.6536  -6.9384  -6.5178
    -5.4569  -4.8373  -3.9858  -3.3544  -2.1220   0.5876   1.1715   1.7036

     occupation numbers 
     1.0000   1.0000   1.0000   1.0000   1.0000   1.0000   1.0000   1.0000
     1.0000   1.0000   1.0000   1.0000   1.0000   0.0000   0.0000   0.0000

          k = 0.1668 0.5778 0.0000 ( 10718 PWs)   bands (ev):

   -62.4722 -36.7900 -36.5909 -36.5775 -13.7220 -13.5950  -7.0117  -6.7101
    -5.5775  -4.7654  -3.9824  -3.5313  -1.9450   0.5176   1.4158   1.8527

     occupation numbers 
     1.0000   1.0000   1.0000   1.0000   1.0000   1.0000   1.0000   1.0000
     1.0000   1.0000   1.0000   1.0000   1.0000   0.0000   0.0000   0.0000

          k = 0.2502 0.4334 0.0000 ( 10751 PWs)   bands (ev):

   -62.4745 -36.7516 -36.6036 -36.5819 -13.8707 -13.6481  -6.7409  -6.5452
    -5.2325  -4.8685  -4.5405  -3.2775  -2.1446   0.5455   1.1996   1.4569

     occupation numbers 
     1.0000   1.0000   1.0000   1.0000   1.0000   1.0000   1.0000   1.0000
     1.0000   1.0000   1.0000   1.0000   1.0000   0.0000   0.0000   0.0000

          k = 0.2502 0.5297 0.0000 ( 10703 PWs)   bands (ev):

   -62.4709 -36.7562 -36.6411 -36.5749 -13.6525 -13.5493  -6.8891  -6.6156
    -5.4459  -4.8398  -4.6729  -3.6106  -1.8343   0.2994   1.5029   1.6563

     occupation numbers 
     1.0000   1.0000   1.0000   1.0000   1.0000   1.0000   1.0000   1.0000
     1.0000   1.0000   1.0000   1.0000   1.0000   0.0000   0.0000   0.0000

          k = 0.3336 0.5778 0.0000 ( 10692 PWs)   bands (ev):

   -62.4696 -36.7280 -36.6851 -36.5724 -13.5740 -13.5081  -7.0352  -6.2212
    -5.7006  -5.1807  -4.5153  -3.7990  -1.6434   0.0624   1.4073   1.9087

     occupation numbers 
     1.0000   1.0000   1.0000   1.0000   1.0000   1.0000   1.0000   1.0000
     1.0000   1.0000   1.0000   1.0000   1.0000   0.0000   0.0000   0.0000

     highest occupied, lowest unoccupied level (ev):    -1.6434    0.0624

!    total energy              =    -181.57958934 Ry
     estimated scf accuracy    <          1.6E-12 Ry

     The total energy is the sum of the following terms:
     one-electron contribution =   -1383.69067795 Ry
     hartree contribution      =     691.43147827 Ry
     xc contribution           =     -29.69295323 Ry
     ewald contribution        =     540.37256357 Ry

     convergence has been achieved in  10 iterations

     negative rho (up, down):  3.838E-04 0.000E+00

     Forces acting on atoms (cartesian axes, Ry/au):

     atom    1 type  1   force =    -0.00000000   -0.00000000    0.00000000
     atom    2 type  2   force =     0.00000000    0.00000000    0.00005100
     atom    3 type  2   force =     0.00000000    0.00000000   -0.00005100
     The non-local contrib.  to forces
     atom    1 type  1   force =     0.00000000    0.00000000    0.00000000
     atom    2 type  2   force =    -0.00000000   -0.00000000   -0.27297348
     atom    3 type  2   force =    -0.00000000   -0.00000000    0.27297348
     The ionic contribution  to forces
     atom    1 type  1   force =     0.00000000   -0.00000000    0.00000000
     atom    2 type  2   force =    -0.00000000    0.00000000   37.37120541
     atom    3 type  2   force =    -0.00000000    0.00000000  -37.37120541
     The local contribution  to forces
     atom    1 type  1   force =     0.00000000    0.00000000   -0.00000000
     atom    2 type  2   force =    -0.00000000    0.00000000  -37.10064510
     atom    3 type  2   force =    -0.00000000    0.00000000   37.10064510
     The core correction contribution to forces
     atom    1 type  1   force =     0.00000000   -0.00000000    0.00000000
     atom    2 type  2   force =     0.00000000   -0.00000000    0.00246229
     atom    3 type  2   force =     0.00000000   -0.00000000   -0.00246229
     The Hubbard contrib.    to forces
     atom    1 type  1   force =     0.00000000    0.00000000    0.00000000
     atom    2 type  2   force =     0.00000000    0.00000000    0.00000000
     atom    3 type  2   force =     0.00000000    0.00000000    0.00000000
     The SCF correction term to forces
     atom    1 type  1   force =    -0.00000000   -0.00000000    0.00000000
     atom    2 type  2   force =     0.00000000    0.00000000    0.00000189
     atom    3 type  2   force =     0.00000000    0.00000000   -0.00000189

     Total force =     0.000072     Total SCF correction =     0.000003


     Computing stress (Cartesian axis) and pressure


     negative rho (up, down):  3.838E-04 0.000E+00
          total   stress  (Ry/bohr**3)                   (kbar)     P=        0.57
   0.00000839   0.00000000   0.00000000            1.23        0.00        0.00
   0.00000000   0.00000839   0.00000000            0.00        1.23        0.00
   0.00000000   0.00000000  -0.00000508            0.00        0.00       -0.75

     kinetic stress (kbar)   4887.12      0.00     -0.00
                                0.00   4887.12     -0.00
                                0.00      0.00   4931.05

     local   stress (kbar)-147922.55      0.00     -0.00
                                0.00-147922.55     -0.00
                               -0.00     -0.00 144903.69

     nonloc. stress (kbar)   2235.26      0.00      0.00
                                0.00   2235.26      0.00
                                0.00     -0.00   2225.59

     hartree stress (kbar)  72548.37      0.00      0.00
                                0.00  72548.37      0.00
                                0.00      0.00 -70757.48

     exc-cor stress (kbar)   -415.02     -0.00     -0.00
                               -0.00   -415.02      0.00
                               -0.00      0.00   -416.12

     corecor stress (kbar)   -549.70      0.00      0.00
                                0.00   -549.70      0.00
                                0.00      0.00   -550.14

     ewald   stress (kbar)  69217.76     -0.00      0.00
                               -0.00  69217.76      0.00
                                0.00      0.00 -80337.35

     hubbard stress (kbar)      0.00      0.00      0.00
                                0.00      0.00      0.00
                                0.00      0.00      0.00

     DFT-D   stress (kbar)      0.00      0.00      0.00
                                0.00      0.00      0.00
                                0.00      0.00      0.00

     XDM     stress (kbar)      0.00      0.00      0.00
                                0.00      0.00      0.00
                                0.00      0.00      0.00

     dft-nl  stress (kbar)      0.00      0.00      0.00
                                0.00      0.00      0.00
                                0.00      0.00      0.00

     TS-vdW  stress (kbar)      0.00      0.00      0.00
                                0.00      0.00      0.00
                                0.00      0.00      0.00

     MDB     stress (kbar)      0.00      0.00      0.00
                                0.00      0.00      0.00
                                0.00      0.00      0.00

     3D-RISM stress (kbar)      0.00      0.00      0.00
                                0.00      0.00      0.00
                                0.00      0.00      0.00

     Energy error            =      6.0E-06 Ry
     Gradient error          =      5.1E-05 Ry/Bohr
     Cell gradient error     =      1.2E+00 kbar

     number of scf cycles    =   5
     number of bfgs steps    =   4

     enthalpy           old  =    -181.5795833211 Ry
     enthalpy           new  =    -181.5795893368 Ry

     CASE: enthalpy          _new < enthalpy          _old


     WARNING: bfgs curvature condition failed, Theta= 0.960
     new trust radius        =       0.0019804401 bohr
ibrav =      4
 celldm(1) =      6.00593179
 celldm(3) =      7.29657785
Input lattice vectors:
     0.99943466    -0.00000000     0.00000000
    -0.49971733     0.86553581     0.00000000
     0.00000000     0.00000000     7.29245283
New lattice vectors in INITIAL alat:
     0.99943466     0.00000000     0.00000000
    -0.49971733     0.86553581     0.00000000
     0.00000000     0.00000000     7.29245283
New lattice vectors in NEW alat (for information only):
     1.00000000     0.00000000     0.00000000
    -0.50000000     0.86602540     0.00000000
     0.00000000     0.00000000     7.29657785
Discrepancy in bohr =     0.000000    0.000000    0.000000
     new conv_thr            =            5.1E-13 Ry

     new unit-cell volume =   1368.96088 a.u.^3 (   202.85907 Ang^3 )
     density =      1.31028 g/cm^3

CELL_PARAMETERS (alat=  6.00932908)
   0.999434664   0.000000000   0.000000000
  -0.499717332   0.865535808   0.000000000
   0.000000000   0.000000000   7.292452830

ATOMIC_POSITIONS (crystal)
Mo              -0.0000000000       -0.0000000000        0.5000000000
S                0.6666666667        0.3333333333        0.5675411146
S                0.6666666667        0.3333333333        0.4324588854



     Writing config-only to output data dir ./tmp/mos2.save/ :
     XML data file
     NEW-OLD atomic charge density approx. for the potential
     New effective cutoffs (rho, wfc):  480.31   60.06

     negative rho (up, down):  3.845E-04 0.000E+00

     total cpu time spent up to now is      159.7 secs

     Self-consistent Calculation

     iteration #  1     ecut=    60.00 Ry     beta= 0.30
     CG style diagonalization

---- Real-time Memory Report at c_bands before calling an iterative solver
           214 MiB given to the printing process from OS
             0 MiB allocation reported by mallinfo(arena+hblkhd)
          1557 MiB available memory on the node where the printing process lives
------------------
     ethr =  1.00E-06,  avg # of iterations =  2.0

     Threshold (ethr) on eigenvalues was too large:
     Diagonalizing with lowered threshold

     CG style diagonalization

---- Real-time Memory Report at c_bands before calling an iterative solver
           214 MiB given to the printing process from OS
             0 MiB allocation reported by mallinfo(arena+hblkhd)
          1560 MiB available memory on the node where the printing process lives
------------------
     ethr =  8.41E-09,  avg # of iterations =  4.3

     negative rho (up, down):  3.845E-04 0.000E+00

     total cpu time spent up to now is      162.9 secs

     total energy              =    -181.57959477 Ry
     estimated scf accuracy    <       0.00000024 Ry

     iteration #  2     ecut=    60.00 Ry     beta= 0.30
     CG style diagonalization

---- Real-time Memory Report at c_bands before calling an iterative solver
           214 MiB given to the printing process from OS
             0 MiB allocation reported by mallinfo(arena+hblkhd)
          1559 MiB available memory on the node where the printing process lives
------------------
     ethr =  9.13E-10,  avg # of iterations =  4.4

     negative rho (up, down):  3.846E-04 0.000E+00

     total cpu time spent up to now is      165.0 secs

     total energy              =    -181.57959489 Ry
     estimated scf accuracy    <       0.00000027 Ry

     iteration #  3     ecut=    60.00 Ry     beta= 0.30
     CG style diagonalization

---- Real-time Memory Report at c_bands before calling an iterative solver
           214 MiB given to the printing process from OS
             0 MiB allocation reported by mallinfo(arena+hblkhd)
          1616 MiB available memory on the node where the printing process lives
------------------
     ethr =  9.13E-10,  avg # of iterations =  3.2

     negative rho (up, down):  3.846E-04 0.000E+00

     total cpu time spent up to now is      166.7 secs

     total energy              =    -181.57959491 Ry
     estimated scf accuracy    <       0.00000002 Ry

     iteration #  4     ecut=    60.00 Ry     beta= 0.30
     CG style diagonalization

---- Real-time Memory Report at c_bands before calling an iterative solver
           214 MiB given to the printing process from OS
             0 MiB allocation reported by mallinfo(arena+hblkhd)
          1502 MiB available memory on the node where the printing process lives
------------------
     ethr =  9.06E-11,  avg # of iterations =  4.3

     negative rho (up, down):  3.846E-04 0.000E+00

     total cpu time spent up to now is      168.7 secs

     total energy              =    -181.57959492 Ry
     estimated scf accuracy    <       0.00000003 Ry

     iteration #  5     ecut=    60.00 Ry     beta= 0.30
     CG style diagonalization

---- Real-time Memory Report at c_bands before calling an iterative solver
           214 MiB given to the printing process from OS
             0 MiB allocation reported by mallinfo(arena+hblkhd)
          1497 MiB available memory on the node where the printing process lives
------------------
     ethr =  9.06E-11,  avg # of iterations =  3.4

     negative rho (up, down):  3.846E-04 0.000E+00

     total cpu time spent up to now is      170.5 secs

     total energy              =    -181.57959492 Ry
     estimated scf accuracy    <          7.0E-10 Ry

     iteration #  6     ecut=    60.00 Ry     beta= 0.30
     CG style diagonalization

---- Real-time Memory Report at c_bands before calling an iterative solver
           214 MiB given to the printing process from OS
             0 MiB allocation reported by mallinfo(arena+hblkhd)
          1504 MiB available memory on the node where the printing process lives
------------------
     ethr =  2.70E-12,  avg # of iterations =  4.5

     negative rho (up, down):  3.846E-04 0.000E+00

     total cpu time spent up to now is      172.6 secs

     total energy              =    -181.57959492 Ry
     estimated scf accuracy    <          4.9E-11 Ry

     iteration #  7     ecut=    60.00 Ry     beta= 0.30
     CG style diagonalization

---- Real-time Memory Report at c_bands before calling an iterative solver
           214 MiB given to the printing process from OS
             0 MiB allocation reported by mallinfo(arena+hblkhd)
          1500 MiB available memory on the node where the printing process lives
------------------
     ethr =  1.88E-13,  avg # of iterations =  4.4

     negative rho (up, down):  3.846E-04 0.000E+00

     total cpu time spent up to now is      174.7 secs

     total energy              =    -181.57959492 Ry
     estimated scf accuracy    <          1.6E-11 Ry

     iteration #  8     ecut=    60.00 Ry     beta= 0.30
     CG style diagonalization

---- Real-time Memory Report at c_bands before calling an iterative solver
           214 MiB given to the printing process from OS
             0 MiB allocation reported by mallinfo(arena+hblkhd)
          1492 MiB available memory on the node where the printing process lives
------------------
     ethr =  1.00E-13,  avg # of iterations =  3.4

     negative rho (up, down):  3.846E-04 0.000E+00

     total cpu time spent up to now is      176.4 secs

     total energy              =    -181.57959492 Ry
     estimated scf accuracy    <          7.8E-12 Ry

     iteration #  9     ecut=    60.00 Ry     beta= 0.30
     CG style diagonalization

---- Real-time Memory Report at c_bands before calling an iterative solver
           214 MiB given to the printing process from OS
             0 MiB allocation reported by mallinfo(arena+hblkhd)
          1489 MiB available memory on the node where the printing process lives
------------------
     ethr =  1.00E-13,  avg # of iterations =  3.1

     negative rho (up, down):  3.846E-04 0.000E+00

     total cpu time spent up to now is      178.1 secs

     total energy              =    -181.57959492 Ry
     estimated scf accuracy    <          2.1E-12 Ry

     iteration # 10     ecut=    60.00 Ry     beta= 0.30
     CG style diagonalization

---- Real-time Memory Report at c_bands before calling an iterative solver
           214 MiB given to the printing process from OS
             0 MiB allocation reported by mallinfo(arena+hblkhd)
          1541 MiB available memory on the node where the printing process lives
------------------
     ethr =  1.00E-13,  avg # of iterations =  3.0

     negative rho (up, down):  3.846E-04 0.000E+00

     total cpu time spent up to now is      179.7 secs

     End of self-consistent calculation

          k = 0.0000 0.0000 0.0000 ( 10831 PWs)   bands (ev):

   -62.5164 -36.6610 -36.4491 -36.4491 -15.7248 -14.4298  -7.2470  -4.2246
    -4.2246  -3.4268  -3.1180  -3.1180  -1.6623   1.1361   1.1361   1.3733

     occupation numbers 
     1.0000   1.0000   1.0000   1.0000   1.0000   1.0000   1.0000   1.0000
     1.0000   1.0000   1.0000   1.0000   1.0000   0.0000   0.0000   0.0000

          k = 0.0000 0.0963 0.0000 ( 10837 PWs)   bands (ev):

   -62.5139 -36.6560 -36.4749 -36.4549 -15.6220 -14.3871  -7.1293  -4.4544
    -4.1171  -3.9015  -3.2820  -2.8031  -1.7119   1.0012   1.0931   1.2578

     occupation numbers 
     1.0000   1.0000   1.0000   1.0000   1.0000   1.0000   1.0000   1.0000
     1.0000   1.0000   1.0000   1.0000   1.0000   0.0000   0.0000   0.0000

          k = 0.0000 0.1926 0.0000 ( 10801 PWs)   bands (ev):

   -62.5069 -36.6421 -36.5448 -36.4709 -15.3298 -14.2656  -6.8330  -4.9830
    -4.5457  -3.8177  -3.6681  -2.7207  -1.9398   0.6551   0.9457   0.9895

     occupation numbers 
     1.0000   1.0000   1.0000   1.0000   1.0000   1.0000   1.0000   1.0000
     1.0000   1.0000   1.0000   1.0000   1.0000   0.0000   0.0000   0.0000

          k = 0.0000 0.2888 0.0000 ( 10783 PWs)   bands (ev):

   -62.4974 -36.6392 -36.6232 -36.4927 -14.8972 -14.0872  -6.6183  -5.4369
    -5.2039  -4.1010  -3.3985  -2.9698  -2.3642   0.5256   0.7243   1.2686

     occupation numbers 
     1.0000   1.0000   1.0000   1.0000   1.0000   1.0000   1.0000   1.0000
     1.0000   1.0000   1.0000   1.0000   1.0000   0.0000   0.0000   0.0000

          k = 0.0000 0.3851 0.0000 ( 10771 PWs)   bands (ev):

   -62.4878 -36.7322 -36.6043 -36.5144 -14.4117 -13.8910  -6.8640  -5.8139
    -5.5309  -4.4653  -3.2703  -2.9802  -2.6089   0.5851   0.6957   1.7561

     occupation numbers 
     1.0000   1.0000   1.0000   1.0000   1.0000   1.0000   1.0000   1.0000
     1.0000   1.0000   1.0000   1.0000   1.0000   0.0000   0.0000   0.0000

          k = 0.0000 0.4814 0.0000 ( 10728 PWs)   bands (ev):

   -62.4808 -36.7994 -36.5903 -36.5302 -14.0078 -13.7332  -7.2428  -6.2606
    -5.6248  -4.7018  -3.4605  -2.6913  -2.4380   0.5902   0.9726   2.1163

     occupation numbers 
     1.0000   1.0000   1.0000   1.0000   1.0000   1.0000   1.0000   1.0000
     1.0000   1.0000   1.0000   1.0000   1.0000   0.0000   0.0000   0.0000

          k = 0.0000-0.5777 0.0000 ( 10724 PWs)   bands (ev):

   -62.4782 -36.8238 -36.5852 -36.5359 -13.8459 -13.6718  -7.4047  -6.4260
    -5.6986  -4.7833  -3.5215  -2.5934  -2.2722   0.6226   1.1286   2.2326

     occupation numbers 
     1.0000   1.0000   1.0000   1.0000   1.0000   1.0000   1.0000   1.0000
     1.0000   1.0000   1.0000   1.0000   1.0000   0.0000   0.0000   0.0000

          k = 0.0834 0.1444 0.0000 ( 10801 PWs)   bands (ev):

   -62.5091 -36.6465 -36.5214 -36.4672 -15.4244 -14.3048  -6.9187  -4.8264
    -4.3292  -3.9221  -3.6638  -2.6153  -1.8512   0.7544   0.8597   1.0531

     occupation numbers 
     1.0000   1.0000   1.0000   1.0000   1.0000   1.0000   1.0000   1.0000
     1.0000   1.0000   1.0000   1.0000   1.0000   0.0000   0.0000   0.0000

          k = 0.0834 0.2407 0.0000 ( 10784 PWs)   bands (ev):

   -62.5008 -36.6302 -36.6002 -36.4894 -15.0610 -14.1539  -6.6318  -5.3022
    -4.8720  -4.2104  -3.6121  -2.6479  -2.1898   0.4589   0.8325   0.9355

     occupation numbers 
     1.0000   1.0000   1.0000   1.0000   1.0000   1.0000   1.0000   1.0000
     1.0000   1.0000   1.0000   1.0000   1.0000   0.0000   0.0000   0.0000

          k = 0.0834 0.3370 0.0000 ( 10788 PWs)   bands (ev):

   -62.4913 -36.6899 -36.6112 -36.5152 -14.5984 -13.9635  -6.6551  -5.5233
    -5.4852  -4.5730  -3.3691  -2.9432  -2.4833   0.3996   0.7878   1.3316

     occupation numbers 
     1.0000   1.0000   1.0000   1.0000   1.0000   1.0000   1.0000   1.0000
     1.0000   1.0000   1.0000   1.0000   1.0000   0.0000   0.0000   0.0000

          k = 0.0834 0.4333 0.0000 ( 10738 PWs)   bands (ev):

   -62.4830 -36.7664 -36.5947 -36.5374 -14.1457 -13.7810  -7.0013  -6.1143
    -5.5174  -4.7395  -3.2738  -3.2520  -2.3758   0.5420   0.9011   1.8123

     occupation numbers 
     1.0000   1.0000   1.0000   1.0000   1.0000   1.0000   1.0000   1.0000
     1.0000   1.0000   1.0000   1.0000   1.0000   0.0000   0.0000   0.0000

          k = 0.0834 0.5295 0.0000 ( 10708 PWs)   bands (ev):

   -62.4782 -36.8102 -36.5852 -36.5502 -13.8531 -13.6665  -7.2656  -6.4588
    -5.6401  -4.7944  -3.4777  -3.1254  -2.1354   0.6322   1.1272   2.2061

     occupation numbers 
     1.0000   1.0000   1.0000   1.0000   1.0000   1.0000   1.0000   1.0000
     1.0000   1.0000   1.0000   1.0000   1.0000   0.0000   0.0000   0.0000

          k = 0.1668 0.2888 0.0000 ( 10789 PWs)   bands (ev):

   -62.4926 -36.6682 -36.6138 -36.5217 -14.6651 -13.9885  -6.5510  -5.4476
    -5.2968  -4.8144  -3.5887  -2.6853  -2.4226   0.2903   0.8431   1.0391

     occupation numbers 
     1.0000   1.0000   1.0000   1.0000   1.0000   1.0000   1.0000   1.0000
     1.0000   1.0000   1.0000   1.0000   1.0000   0.0000   0.0000   0.0000

          k = 0.1668 0.3851 0.0000 ( 10761 PWs)   bands (ev):

   -62.4843 -36.7320 -36.5973 -36.5574 -14.2259 -13.8049  -6.7404  -5.9905
    -5.3549  -4.9215  -3.8636  -2.9875  -2.3750   0.4398   0.9320   1.3626

     occupation numbers 
     1.0000   1.0000   1.0000   1.0000   1.0000   1.0000   1.0000   1.0000
     1.0000   1.0000   1.0000   1.0000   1.0000   0.0000   0.0000   0.0000

          k = 0.1668 0.4814 0.0000 ( 10717 PWs)   bands (ev):

   -62.4782 -36.7771 -36.5852 -36.5846 -13.8672 -13.6556  -6.9395  -6.5188
    -5.4592  -4.8390  -3.9888  -3.3555  -2.1256   0.5830   1.1657   1.7008

     occupation numbers 
     1.0000   1.0000   1.0000   1.0000   1.0000   1.0000   1.0000   1.0000
     1.0000   1.0000   1.0000   1.0000   1.0000   0.0000   0.0000   0.0000

          k = 0.1668 0.5777 0.0000 ( 10718 PWs)   bands (ev):

   -62.4760 -36.7933 -36.5947 -36.5808 -13.7258 -13.5972  -7.0124  -6.7108
    -5.5795  -4.7673  -3.9854  -3.5320  -1.9486   0.5116   1.4104   1.8504

     occupation numbers 
     1.0000   1.0000   1.0000   1.0000   1.0000   1.0000   1.0000   1.0000
     1.0000   1.0000   1.0000   1.0000   1.0000   0.0000   0.0000   0.0000

          k = 0.2501 0.4333 0.0000 ( 10751 PWs)   bands (ev):

   -62.4783 -36.7550 -36.6074 -36.5853 -13.8742 -13.6502  -6.7422  -6.5465
    -5.2353  -4.8695  -4.5427  -3.2788  -2.1481   0.5414   1.1938   1.4544

     occupation numbers 
     1.0000   1.0000   1.0000   1.0000   1.0000   1.0000   1.0000   1.0000
     1.0000   1.0000   1.0000   1.0000   1.0000   0.0000   0.0000   0.0000

          k = 0.2501 0.5295 0.0000 ( 10703 PWs)   bands (ev):

   -62.4747 -36.7596 -36.6448 -36.5783 -13.6564 -13.5516  -6.8901  -6.6166
    -5.4480  -4.8423  -4.6740  -3.6114  -1.8379   0.2932   1.5013   1.6514

     occupation numbers 
     1.0000   1.0000   1.0000   1.0000   1.0000   1.0000   1.0000   1.0000
     1.0000   1.0000   1.0000   1.0000   1.0000   0.0000   0.0000   0.0000

          k = 0.3335 0.5777 0.0000 ( 10692 PWs)   bands (ev):

   -62.4734 -36.7315 -36.6886 -36.5758 -13.5781 -13.5105  -7.0361  -6.2221
    -5.7021  -5.1837  -4.5164  -3.7997  -1.6469   0.0557   1.4062   1.9042

     occupation numbers 
     1.0000   1.0000   1.0000   1.0000   1.0000   1.0000   1.0000   1.0000
     1.0000   1.0000   1.0000   1.0000   1.0000   0.0000   0.0000   0.0000

     highest occupied, lowest unoccupied level (ev):    -1.6469    0.0557

!    total energy              =    -181.57959492 Ry
     estimated scf accuracy    <          4.7E-14 Ry

     The total energy is the sum of the following terms:
     one-electron contribution =   -1383.09632614 Ry
     hartree contribution      =     691.13124250 Ry
     xc contribution           =     -29.69223787 Ry
     ewald contribution        =     540.07772659 Ry

     convergence has been achieved in  10 iterations

     negative rho (up, down):  3.846E-04 0.000E+00

     Forces acting on atoms (cartesian axes, Ry/au):

     atom    1 type  1   force =     0.00000000    0.00000000    0.00000000
     atom    2 type  2   force =     0.00000000    0.00000000    0.00010031
     atom    3 type  2   force =     0.00000000   -0.00000000   -0.00010031
     The non-local contrib.  to forces
     atom    1 type  1   force =     0.00000000    0.00000000    0.00000000
     atom    2 type  2   force =     0.00000000   -0.00000000   -0.27302976
     atom    3 type  2   force =     0.00000000    0.00000000    0.27302976
     The ionic contribution  to forces
     atom    1 type  1   force =     0.00000000   -0.00000000    0.00000000
     atom    2 type  2   force =    -0.00000000    0.00000000   37.34929180
     atom    3 type  2   force =    -0.00000000    0.00000000  -37.34929180
     The local contribution  to forces
     atom    1 type  1   force =     0.00000000    0.00000000   -0.00000000
     atom    2 type  2   force =    -0.00000000    0.00000000  -37.07862874
     atom    3 type  2   force =    -0.00000000    0.00000000   37.07862874
     The core correction contribution to forces
     atom    1 type  1   force =    -0.00000000   -0.00000000   -0.00000000
     atom    2 type  2   force =     0.00000000   -0.00000000    0.00246679
     atom    3 type  2   force =     0.00000000   -0.00000000   -0.00246679
     The Hubbard contrib.    to forces
     atom    1 type  1   force =     0.00000000    0.00000000    0.00000000
     atom    2 type  2   force =     0.00000000    0.00000000    0.00000000
     atom    3 type  2   force =     0.00000000    0.00000000    0.00000000
     The SCF correction term to forces
     atom    1 type  1   force =     0.00000000    0.00000000    0.00000000
     atom    2 type  2   force =     0.00000000    0.00000000    0.00000021
     atom    3 type  2   force =     0.00000000    0.00000000   -0.00000021

     Total force =     0.000142     Total SCF correction =     0.000000


     Computing stress (Cartesian axis) and pressure


     negative rho (up, down):  3.846E-04 0.000E+00
          total   stress  (Ry/bohr**3)                   (kbar)     P=        0.46
   0.00000714   0.00000000  -0.00000000            1.05        0.00       -0.00
   0.00000000   0.00000714  -0.00000000            0.00        1.05       -0.00
   0.00000000   0.00000000  -0.00000487            0.00        0.00       -0.72

     kinetic stress (kbar)   4884.22      0.00      0.00
                                0.00   4884.22      0.00
                                0.00      0.00   4928.57

     local   stress (kbar)-147776.73      0.00      0.00
                                0.00-147776.73      0.00
                                0.00      0.00 144756.85

     nonloc. stress (kbar)   2234.06      0.00      0.00
                                0.00   2234.06      0.00
                                0.00      0.00   2224.33

     hartree stress (kbar)  72476.41      0.00      0.00
                                0.00  72476.41     -0.00
                                0.00     -0.00 -70685.61

     exc-cor stress (kbar)   -414.78     -0.00     -0.00
                               -0.00   -414.78     -0.00
                               -0.00     -0.00   -415.88

     corecor stress (kbar)   -549.41      0.00      0.00
                                0.00   -549.41     -0.00
                                0.00     -0.00   -549.84

     ewald   stress (kbar)  69147.27     -0.00      0.00
                               -0.00  69147.27     -0.00
                                0.00     -0.00 -80259.15

     hubbard stress (kbar)      0.00      0.00      0.00
                                0.00      0.00      0.00
                                0.00      0.00      0.00

     DFT-D   stress (kbar)      0.00      0.00      0.00
                                0.00      0.00      0.00
                                0.00      0.00      0.00

     XDM     stress (kbar)      0.00      0.00      0.00
                                0.00      0.00      0.00
                                0.00      0.00      0.00

     dft-nl  stress (kbar)      0.00      0.00      0.00
                                0.00      0.00      0.00
                                0.00      0.00      0.00

     TS-vdW  stress (kbar)      0.00      0.00      0.00
                                0.00      0.00      0.00
                                0.00      0.00      0.00

     MDB     stress (kbar)      0.00      0.00      0.00
                                0.00      0.00      0.00
                                0.00      0.00      0.00

     3D-RISM stress (kbar)      0.00      0.00      0.00
                                0.00      0.00      0.00
                                0.00      0.00      0.00

     Energy error            =      5.6E-06 Ry
     Gradient error          =      1.0E-04 Ry/Bohr
     Cell gradient error     =      1.0E+00 kbar

     number of scf cycles    =   6
     number of bfgs steps    =   5

     enthalpy           old  =    -181.5795893368 Ry
     enthalpy           new  =    -181.5795949214 Ry

     CASE: enthalpy          _new < enthalpy          _old

     new trust radius        =       0.0029706602 bohr
ibrav =      4
 celldm(1) =      6.00834285
 celldm(3) =      7.29364984
Input lattice vectors:
     0.99983588     0.00000000     0.00000000
    -0.49991794     0.86588327     0.00000000
     0.00000000     0.00000000     7.29245283
New lattice vectors in INITIAL alat:
     0.99983588     0.00000000     0.00000000
    -0.49991794     0.86588327     0.00000000
     0.00000000     0.00000000     7.29245283
New lattice vectors in NEW alat (for information only):
     1.00000000     0.00000000     0.00000000
    -0.50000000     0.86602540     0.00000000
     0.00000000     0.00000000     7.29364984
Discrepancy in bohr =     0.000000    0.000000    0.000000
     new conv_thr            =            1.0E-12 Ry

     new unit-cell volume =   1370.06023 a.u.^3 (   203.02198 Ang^3 )
     density =      1.30923 g/cm^3

CELL_PARAMETERS (alat=  6.00932908)
   0.999835883   0.000000000   0.000000000
  -0.499917942   0.865883275   0.000000000
   0.000000000   0.000000000   7.292452830

ATOMIC_POSITIONS (crystal)
Mo              -0.0000000000       -0.0000000000        0.5000000000
S                0.6666666667        0.3333333333        0.5675233123
S                0.6666666667        0.3333333333        0.4324766877



     Writing config-only to output data dir ./tmp/mos2.save/ :
     XML data file
     NEW-OLD atomic charge density approx. for the potential
     New effective cutoffs (rho, wfc):  480.01   60.02

     negative rho (up, down):  3.857E-04 0.000E+00

     total cpu time spent up to now is      182.0 secs

     Self-consistent Calculation

     iteration #  1     ecut=    60.00 Ry     beta= 0.30
     CG style diagonalization

---- Real-time Memory Report at c_bands before calling an iterative solver
           216 MiB given to the printing process from OS
             0 MiB allocation reported by mallinfo(arena+hblkhd)
          1570 MiB available memory on the node where the printing process lives
------------------
     ethr =  1.00E-06,  avg # of iterations =  2.1

     Threshold (ethr) on eigenvalues was too large:
     Diagonalizing with lowered threshold

     CG style diagonalization

---- Real-time Memory Report at c_bands before calling an iterative solver
           216 MiB given to the printing process from OS
             0 MiB allocation reported by mallinfo(arena+hblkhd)
          1580 MiB available memory on the node where the printing process lives
------------------
     ethr =  1.23E-08,  avg # of iterations =  4.4

     negative rho (up, down):  3.857E-04 0.000E+00

     total cpu time spent up to now is      185.3 secs

     total energy              =    -181.57960124 Ry
     estimated scf accuracy    <       0.00000051 Ry

     iteration #  2     ecut=    60.00 Ry     beta= 0.30
     CG style diagonalization

---- Real-time Memory Report at c_bands before calling an iterative solver
           216 MiB given to the printing process from OS
             0 MiB allocation reported by mallinfo(arena+hblkhd)
          1488 MiB available memory on the node where the printing process lives
------------------
     ethr =  1.95E-09,  avg # of iterations =  4.2

     negative rho (up, down):  3.858E-04 0.000E+00

     total cpu time spent up to now is      187.3 secs

     total energy              =    -181.57960147 Ry
     estimated scf accuracy    <       0.00000050 Ry

     iteration #  3     ecut=    60.00 Ry     beta= 0.30
     CG style diagonalization

---- Real-time Memory Report at c_bands before calling an iterative solver
           216 MiB given to the printing process from OS
             0 MiB allocation reported by mallinfo(arena+hblkhd)
          1496 MiB available memory on the node where the printing process lives
------------------
     ethr =  1.91E-09,  avg # of iterations =  3.2

     negative rho (up, down):  3.858E-04 0.000E+00

     total cpu time spent up to now is      189.0 secs

     total energy              =    -181.57960150 Ry
     estimated scf accuracy    <       0.00000003 Ry

     iteration #  4     ecut=    60.00 Ry     beta= 0.30
     CG style diagonalization

---- Real-time Memory Report at c_bands before calling an iterative solver
           216 MiB given to the printing process from OS
             0 MiB allocation reported by mallinfo(arena+hblkhd)
          1591 MiB available memory on the node where the printing process lives
------------------
     ethr =  1.29E-10,  avg # of iterations =  4.3

     negative rho (up, down):  3.858E-04 0.000E+00

     total cpu time spent up to now is      191.0 secs

     total energy              =    -181.57960151 Ry
     estimated scf accuracy    <       0.00000004 Ry

     iteration #  5     ecut=    60.00 Ry     beta= 0.30
     CG style diagonalization

---- Real-time Memory Report at c_bands before calling an iterative solver
           216 MiB given to the printing process from OS
             0 MiB allocation reported by mallinfo(arena+hblkhd)
          1542 MiB available memory on the node where the printing process lives
------------------
     ethr =  1.29E-10,  avg # of iterations =  3.5

     negative rho (up, down):  3.858E-04 0.000E+00

     total cpu time spent up to now is      192.8 secs

     total energy              =    -181.57960152 Ry
     estimated scf accuracy    <          2.3E-09 Ry

     iteration #  6     ecut=    60.00 Ry     beta= 0.30
     CG style diagonalization

---- Real-time Memory Report at c_bands before calling an iterative solver
           216 MiB given to the printing process from OS
             0 MiB allocation reported by mallinfo(arena+hblkhd)
          1507 MiB available memory on the node where the printing process lives
------------------
     ethr =  8.75E-12,  avg # of iterations =  4.0

     negative rho (up, down):  3.858E-04 0.000E+00

     total cpu time spent up to now is      194.7 secs

     total energy              =    -181.57960152 Ry
     estimated scf accuracy    <          7.2E-11 Ry

     iteration #  7     ecut=    60.00 Ry     beta= 0.30
     CG style diagonalization

---- Real-time Memory Report at c_bands before calling an iterative solver
           216 MiB given to the printing process from OS
             0 MiB allocation reported by mallinfo(arena+hblkhd)
          1506 MiB available memory on the node where the printing process lives
------------------
     ethr =  2.76E-13,  avg # of iterations =  4.8

     negative rho (up, down):  3.858E-04 0.000E+00

     total cpu time spent up to now is      197.0 secs

     total energy              =    -181.57960152 Ry
     estimated scf accuracy    <          2.7E-11 Ry

     iteration #  8     ecut=    60.00 Ry     beta= 0.30
     CG style diagonalization

---- Real-time Memory Report at c_bands before calling an iterative solver
           216 MiB given to the printing process from OS
             0 MiB allocation reported by mallinfo(arena+hblkhd)
          1594 MiB available memory on the node where the printing process lives
------------------
     ethr =  1.04E-13,  avg # of iterations =  3.4

     negative rho (up, down):  3.858E-04 0.000E+00

     total cpu time spent up to now is      198.7 secs

     total energy              =    -181.57960152 Ry
     estimated scf accuracy    <          1.1E-12 Ry

     iteration #  9     ecut=    60.00 Ry     beta= 0.30
     CG style diagonalization

---- Real-time Memory Report at c_bands before calling an iterative solver
           216 MiB given to the printing process from OS
             0 MiB allocation reported by mallinfo(arena+hblkhd)
          1487 MiB available memory on the node where the printing process lives
------------------
     ethr =  1.00E-13,  avg # of iterations =  3.1

     negative rho (up, down):  3.858E-04 0.000E+00

     total cpu time spent up to now is      200.3 secs

     total energy              =    -181.57960152 Ry
     estimated scf accuracy    <          6.4E-12 Ry

     iteration # 10     ecut=    60.00 Ry     beta= 0.30
     CG style diagonalization

---- Real-time Memory Report at c_bands before calling an iterative solver
           216 MiB given to the printing process from OS
             0 MiB allocation reported by mallinfo(arena+hblkhd)
          1481 MiB available memory on the node where the printing process lives
------------------
     ethr =  1.00E-13,  avg # of iterations =  3.0

     negative rho (up, down):  3.858E-04 0.000E+00

     total cpu time spent up to now is      202.0 secs

     End of self-consistent calculation

          k = 0.0000 0.0000 0.0000 ( 10831 PWs)   bands (ev):

   -62.5219 -36.6657 -36.4553 -36.4553 -15.7257 -14.4302  -7.2480  -4.2312
    -4.2312  -3.4267  -3.1252  -3.1252  -1.6622   1.1287   1.1287   1.3669

     occupation numbers 
     1.0000   1.0000   1.0000   1.0000   1.0000   1.0000   1.0000   1.0000
     1.0000   1.0000   1.0000   1.0000   1.0000   0.0000   0.0000   0.0000

          k = 0.0000 0.0962 0.0000 ( 10837 PWs)   bands (ev):

   -62.5194 -36.6607 -36.4810 -36.4611 -15.6231 -14.3876  -7.1305  -4.4607
    -4.1239  -3.9038  -3.2889  -2.8075  -1.7122   0.9941   1.0876   1.2515

     occupation numbers 
     1.0000   1.0000   1.0000   1.0000   1.0000   1.0000   1.0000   1.0000
     1.0000   1.0000   1.0000   1.0000   1.0000   0.0000   0.0000   0.0000

          k = 0.0000 0.1925 0.0000 ( 10801 PWs)   bands (ev):

   -62.5124 -36.6469 -36.5506 -36.4770 -15.3314 -14.2665  -6.8347  -4.9884
    -4.5480  -3.8250  -3.6745  -2.7239  -1.9412   0.6513   0.9389   0.9835

     occupation numbers 
     1.0000   1.0000   1.0000   1.0000   1.0000   1.0000   1.0000   1.0000
     1.0000   1.0000   1.0000   1.0000   1.0000   0.0000   0.0000   0.0000

          k = 0.0000 0.2887 0.0000 ( 10783 PWs)   bands (ev):

   -62.5029 -36.6446 -36.6281 -36.4987 -14.8996 -14.0886  -6.6206  -5.4413
    -5.2056  -4.1068  -3.4063  -2.9719  -2.3663   0.5225   0.7181   1.2619

     occupation numbers 
     1.0000   1.0000   1.0000   1.0000   1.0000   1.0000   1.0000   1.0000
     1.0000   1.0000   1.0000   1.0000   1.0000   0.0000   0.0000   0.0000

          k = 0.0000 0.3850 0.0000 ( 10771 PWs)   bands (ev):

   -62.4935 -36.7372 -36.6092 -36.5203 -14.4152 -13.8930  -6.8659  -5.8148
    -5.5343  -4.4707  -3.2716  -2.9882  -2.6113   0.5780   0.6913   1.7497

     occupation numbers 
     1.0000   1.0000   1.0000   1.0000   1.0000   1.0000   1.0000   1.0000
     1.0000   1.0000   1.0000   1.0000   1.0000   0.0000   0.0000   0.0000

          k = 0.0000 0.4812 0.0000 ( 10728 PWs)   bands (ev):

   -62.4864 -36.8042 -36.5953 -36.5360 -14.0123 -13.7358  -7.2438  -6.2608
    -5.6274  -4.7069  -3.4613  -2.6991  -2.4411   0.5819   0.9659   2.1103

     occupation numbers 
     1.0000   1.0000   1.0000   1.0000   1.0000   1.0000   1.0000   1.0000
     1.0000   1.0000   1.0000   1.0000   1.0000   0.0000   0.0000   0.0000

          k = 0.0000-0.5774 0.0000 ( 10724 PWs)   bands (ev):

   -62.4839 -36.8285 -36.5902 -36.5418 -13.8508 -13.6746  -7.4052  -6.4259
    -5.7009  -4.7883  -3.5222  -2.6011  -2.2755   0.6136   1.1203   2.2269

     occupation numbers 
     1.0000   1.0000   1.0000   1.0000   1.0000   1.0000   1.0000   1.0000
     1.0000   1.0000   1.0000   1.0000   1.0000   0.0000   0.0000   0.0000

          k = 0.0833 0.1444 0.0000 ( 10801 PWs)   bands (ev):

   -62.5146 -36.6513 -36.5273 -36.4733 -15.4258 -14.3056  -6.9202  -4.8321
    -4.3314  -3.9292  -3.6700  -2.6192  -1.8524   0.7501   0.8528   1.0471

     occupation numbers 
     1.0000   1.0000   1.0000   1.0000   1.0000   1.0000   1.0000   1.0000
     1.0000   1.0000   1.0000   1.0000   1.0000   0.0000   0.0000   0.0000

          k = 0.0833 0.2406 0.0000 ( 10784 PWs)   bands (ev):

   -62.5064 -36.6350 -36.6058 -36.4954 -15.0631 -14.1551  -6.6339  -5.3070
    -4.8741  -4.2153  -3.6194  -2.6513  -2.1919   0.4557   0.8266   0.9289

     occupation numbers 
     1.0000   1.0000   1.0000   1.0000   1.0000   1.0000   1.0000   1.0000
     1.0000   1.0000   1.0000   1.0000   1.0000   0.0000   0.0000   0.0000

          k = 0.0833 0.3368 0.0000 ( 10788 PWs)   bands (ev):

   -62.4970 -36.6951 -36.6161 -36.5211 -14.6015 -13.9652  -6.6575  -5.5250
    -5.4891  -4.5770  -3.3757  -2.9457  -2.4866   0.3958   0.7815   1.3252

     occupation numbers 
     1.0000   1.0000   1.0000   1.0000   1.0000   1.0000   1.0000   1.0000
     1.0000   1.0000   1.0000   1.0000   1.0000   0.0000   0.0000   0.0000

          k = 0.0833 0.4331 0.0000 ( 10738 PWs)   bands (ev):

   -62.4887 -36.7713 -36.5997 -36.5432 -14.1497 -13.7834  -7.0029  -6.1151
    -5.5205  -4.7433  -3.2754  -3.2574  -2.3807   0.5361   0.8936   1.8061

     occupation numbers 
     1.0000   1.0000   1.0000   1.0000   1.0000   1.0000   1.0000   1.0000
     1.0000   1.0000   1.0000   1.0000   1.0000   0.0000   0.0000   0.0000

          k = 0.0833 0.5293 0.0000 ( 10708 PWs)   bands (ev):

   -62.4839 -36.8150 -36.5902 -36.5560 -13.8579 -13.6693  -7.2663  -6.4590
    -5.6426  -4.7984  -3.4787  -3.1309  -2.1404   0.6239   1.1189   2.2001

     occupation numbers 
     1.0000   1.0000   1.0000   1.0000   1.0000   1.0000   1.0000   1.0000
     1.0000   1.0000   1.0000   1.0000   1.0000   0.0000   0.0000   0.0000

          k = 0.1667 0.2887 0.0000 ( 10789 PWs)   bands (ev):

   -62.4982 -36.6735 -36.6186 -36.5276 -14.6679 -13.9902  -6.5535  -5.4518
    -5.2995  -4.8168  -3.5947  -2.6886  -2.4261   0.2872   0.8366   1.0328

     occupation numbers 
     1.0000   1.0000   1.0000   1.0000   1.0000   1.0000   1.0000   1.0000
     1.0000   1.0000   1.0000   1.0000   1.0000   0.0000   0.0000   0.0000

          k = 0.1667 0.3850 0.0000 ( 10761 PWs)   bands (ev):

   -62.4900 -36.7371 -36.6023 -36.5631 -14.2297 -13.8072  -6.7424  -5.9925
    -5.3588  -4.9233  -3.8678  -2.9901  -2.3798   0.4362   0.9232   1.3569

     occupation numbers 
     1.0000   1.0000   1.0000   1.0000   1.0000   1.0000   1.0000   1.0000
     1.0000   1.0000   1.0000   1.0000   1.0000   0.0000   0.0000   0.0000

          k = 0.1667 0.4812 0.0000 ( 10717 PWs)   bands (ev):

   -62.4839 -36.7820 -36.5902 -36.5902 -13.8720 -13.6584  -6.9407  -6.5199
    -5.4623  -4.8412  -3.9929  -3.3573  -2.1307   0.5761   1.1571   1.6961

     occupation numbers 
     1.0000   1.0000   1.0000   1.0000   1.0000   1.0000   1.0000   1.0000
     1.0000   1.0000   1.0000   1.0000   1.0000   0.0000   0.0000   0.0000

          k = 0.1667 0.5774 0.0000 ( 10718 PWs)   bands (ev):

   -62.4817 -36.7981 -36.6003 -36.5858 -13.7310 -13.6002  -7.0131  -6.7115
    -5.5823  -4.7699  -3.9897  -3.5333  -1.9538   0.5027   1.4022   1.8465

     occupation numbers 
     1.0000   1.0000   1.0000   1.0000   1.0000   1.0000   1.0000   1.0000
     1.0000   1.0000   1.0000   1.0000   1.0000   0.0000   0.0000   0.0000

          k = 0.2500 0.4331 0.0000 ( 10751 PWs)   bands (ev):

   -62.4840 -36.7599 -36.6129 -36.5903 -13.8790 -13.6530  -6.7437  -6.5480
    -5.2393  -4.8709  -4.5458  -3.2809  -2.1531   0.5351   1.1850   1.4502

     occupation numbers 
     1.0000   1.0000   1.0000   1.0000   1.0000   1.0000   1.0000   1.0000
     1.0000   1.0000   1.0000   1.0000   1.0000   0.0000   0.0000   0.0000

          k = 0.2500 0.5293 0.0000 ( 10703 PWs)   bands (ev):

   -62.4804 -36.7646 -36.6502 -36.5833 -13.6618 -13.5548  -6.8910  -6.6176
    -5.4509  -4.8458  -4.6757  -3.6129  -1.8430   0.2842   1.4986   1.6440

     occupation numbers 
     1.0000   1.0000   1.0000   1.0000   1.0000   1.0000   1.0000   1.0000
     1.0000   1.0000   1.0000   1.0000   1.0000   0.0000   0.0000   0.0000

          k = 0.3334 0.5774 0.0000 ( 10692 PWs)   bands (ev):

   -62.4791 -36.7366 -36.6938 -36.5808 -13.5837 -13.5139  -7.0368  -6.2233
    -5.7039  -5.1877  -4.5181  -3.8009  -1.6519   0.0462   1.4042   1.8971

     occupation numbers 
     1.0000   1.0000   1.0000   1.0000   1.0000   1.0000   1.0000   1.0000
     1.0000   1.0000   1.0000   1.0000   1.0000   0.0000   0.0000   0.0000

     highest occupied, lowest unoccupied level (ev):    -1.6519    0.0462

!    total energy              =    -181.57960152 Ry
     estimated scf accuracy    <          2.0E-13 Ry

     The total energy is the sum of the following terms:
     one-electron contribution =   -1382.17368748 Ry
     hartree contribution      =     690.66545339 Ry
     xc contribution           =     -29.69099293 Ry
     ewald contribution        =     539.61962549 Ry

     convergence has been achieved in  10 iterations

     negative rho (up, down):  3.858E-04 0.000E+00

     Forces acting on atoms (cartesian axes, Ry/au):

     atom    1 type  1   force =    -0.00000000   -0.00000000    0.00000000
     atom    2 type  2   force =     0.00000000    0.00000000    0.00009028
     atom    3 type  2   force =    -0.00000000   -0.00000000   -0.00009028
     The non-local contrib.  to forces
     atom    1 type  1   force =     0.00000000    0.00000000    0.00000000
     atom    2 type  2   force =     0.00000000   -0.00000000   -0.27314857
     atom    3 type  2   force =    -0.00000000    0.00000000    0.27314857
     The ionic contribution  to forces
     atom    1 type  1   force =     0.00000000   -0.00000000    0.00000000
     atom    2 type  2   force =    -0.00000000    0.00000000   37.31639721
     atom    3 type  2   force =    -0.00000000    0.00000000  -37.31639721
     The local contribution  to forces
     atom    1 type  1   force =     0.00000000    0.00000000   -0.00000000
     atom    2 type  2   force =    -0.00000000    0.00000000  -37.04563409
     atom    3 type  2   force =    -0.00000000    0.00000000   37.04563409
     The core correction contribution to forces
     atom    1 type  1   force =    -0.00000000   -0.00000000   -0.00000000
     atom    2 type  2   force =     0.00000000   -0.00000000    0.00247514
     atom    3 type  2   force =     0.00000000   -0.00000000   -0.00247514
     The Hubbard contrib.    to forces
     atom    1 type  1   force =     0.00000000    0.00000000    0.00000000
     atom    2 type  2   force =     0.00000000    0.00000000    0.00000000
     atom    3 type  2   force =     0.00000000    0.00000000    0.00000000
     The SCF correction term to forces
     atom    1 type  1   force =     0.00000000    0.00000000   -0.00000000
     atom    2 type  2   force =     0.00000000    0.00000000    0.00000059
     atom    3 type  2   force =     0.00000000    0.00000000   -0.00000059

     Total force =     0.000128     Total SCF correction =     0.000001


     Computing stress (Cartesian axis) and pressure


     negative rho (up, down):  3.858E-04 0.000E+00
          total   stress  (Ry/bohr**3)                   (kbar)     P=        0.26
   0.00000515   0.00000000   0.00000000            0.76        0.00        0.00
   0.00000000   0.00000515  -0.00000000            0.00        0.76       -0.00
   0.00000000  -0.00000000  -0.00000491            0.00       -0.00       -0.72

     kinetic stress (kbar)   4879.86      0.00     -0.00
                                0.00   4879.86     -0.00
                                0.00     -0.00   4924.78

     local   stress (kbar)-147554.69      0.00      0.00
                                0.00-147554.69      0.00
                                0.00      0.00 144533.10

     nonloc. stress (kbar)   2232.27      0.00      0.00
                                0.00   2232.27     -0.00
                                0.00      0.00   2222.44

     hartree stress (kbar)  72366.91     -0.00     -0.00
                               -0.00  72366.91     -0.00
                               -0.00     -0.00 -70576.21

     exc-cor stress (kbar)   -414.41     -0.00     -0.00
                               -0.00   -414.41      0.00
                               -0.00      0.00   -415.50

     corecor stress (kbar)   -548.96      0.00     -0.00
                                0.00   -548.96      0.00
                               -0.00      0.00   -549.40

     ewald   stress (kbar)  69039.78     -0.00     -0.00
                               -0.00  69039.78     -0.00
                               -0.00     -0.00 -80139.93

     hubbard stress (kbar)      0.00      0.00      0.00
                                0.00      0.00      0.00
                                0.00      0.00      0.00

     DFT-D   stress (kbar)      0.00      0.00      0.00
                                0.00      0.00      0.00
                                0.00      0.00      0.00

     XDM     stress (kbar)      0.00      0.00      0.00
                                0.00      0.00      0.00
                                0.00      0.00      0.00

     dft-nl  stress (kbar)      0.00      0.00      0.00
                                0.00      0.00      0.00
                                0.00      0.00      0.00

     TS-vdW  stress (kbar)      0.00      0.00      0.00
                                0.00      0.00      0.00
                                0.00      0.00      0.00

     MDB     stress (kbar)      0.00      0.00      0.00
                                0.00      0.00      0.00
                                0.00      0.00      0.00

     3D-RISM stress (kbar)      0.00      0.00      0.00
                                0.00      0.00      0.00
                                0.00      0.00      0.00

     Energy error            =      6.6E-06 Ry
     Gradient error          =      9.0E-05 Ry/Bohr
     Cell gradient error     =      7.6E-01 kbar

     number of scf cycles    =   7
     number of bfgs steps    =   6

     enthalpy           old  =    -181.5795949214 Ry
     enthalpy           new  =    -181.5796015207 Ry

     CASE: enthalpy          _new < enthalpy          _old

     new trust radius        =       0.0044559903 bohr
ibrav =      4
 celldm(1) =      6.01195943
 celldm(3) =      7.28926223
Input lattice vectors:
     1.00043771    -0.00000000     0.00000000
    -0.50021886     0.86640447     0.00000000
     0.00000000     0.00000000     7.29245283
New lattice vectors in INITIAL alat:
     1.00043771     0.00000000     0.00000000
    -0.50021886     0.86640447     0.00000000
     0.00000000     0.00000000     7.29245283
New lattice vectors in NEW alat (for information only):
     1.00000000     0.00000000     0.00000000
    -0.50000000     0.86602540     0.00000000
     0.00000000     0.00000000     7.28926223
Discrepancy in bohr =     0.000000    0.000000    0.000000
     new conv_thr            =            9.0E-13 Ry

     new unit-cell volume =   1371.71008 a.u.^3 (   203.26646 Ang^3 )
     density =      1.30766 g/cm^3

CELL_PARAMETERS (alat=  6.00932908)
   1.000437712   0.000000000   0.000000000
  -0.500218856   0.866404474   0.000000000
   0.000000000   0.000000000   7.292452830

ATOMIC_POSITIONS (crystal)
Mo              -0.0000000000       -0.0000000000        0.5000000000
S                0.6666666667        0.3333333333        0.5674984710
S                0.6666666667        0.3333333333        0.4325015290



     Writing config-only to output data dir ./tmp/mos2.save/ :
     XML data file
     NEW-OLD atomic charge density approx. for the potential
     New effective cutoffs (rho, wfc):  479.80   60.00

     negative rho (up, down):  3.874E-04 0.000E+00

     total cpu time spent up to now is      204.3 secs

     Self-consistent Calculation

     iteration #  1     ecut=    60.00 Ry     beta= 0.30
     CG style diagonalization

---- Real-time Memory Report at c_bands before calling an iterative solver
           218 MiB given to the printing process from OS
             0 MiB allocation reported by mallinfo(arena+hblkhd)
          1525 MiB available memory on the node where the printing process lives
------------------
     ethr =  1.00E-06,  avg # of iterations =  2.7

     Threshold (ethr) on eigenvalues was too large:
     Diagonalizing with lowered threshold

     CG style diagonalization

---- Real-time Memory Report at c_bands before calling an iterative solver
           218 MiB given to the printing process from OS
             0 MiB allocation reported by mallinfo(arena+hblkhd)
          1524 MiB available memory on the node where the printing process lives
------------------
     ethr =  1.51E-08,  avg # of iterations =  4.3

     negative rho (up, down):  3.875E-04 0.000E+00

     total cpu time spent up to now is      207.8 secs

     total energy              =    -181.57960691 Ry
     estimated scf accuracy    <       0.00000100 Ry

     iteration #  2     ecut=    60.00 Ry     beta= 0.30
     CG style diagonalization

---- Real-time Memory Report at c_bands before calling an iterative solver
           218 MiB given to the printing process from OS
             0 MiB allocation reported by mallinfo(arena+hblkhd)
          1511 MiB available memory on the node where the printing process lives
------------------
     ethr =  3.83E-09,  avg # of iterations =  4.1

     negative rho (up, down):  3.875E-04 0.000E+00

     total cpu time spent up to now is      209.7 secs

     total energy              =    -181.57960727 Ry
     estimated scf accuracy    <       0.00000083 Ry

     iteration #  3     ecut=    60.00 Ry     beta= 0.30
     CG style diagonalization

---- Real-time Memory Report at c_bands before calling an iterative solver
           218 MiB given to the printing process from OS
             0 MiB allocation reported by mallinfo(arena+hblkhd)
          1513 MiB available memory on the node where the printing process lives
------------------
     ethr =  3.18E-09,  avg # of iterations =  3.2

     negative rho (up, down):  3.876E-04 0.000E+00

     total cpu time spent up to now is      211.4 secs

     total energy              =    -181.57960734 Ry
     estimated scf accuracy    <       0.00000005 Ry

     iteration #  4     ecut=    60.00 Ry     beta= 0.30
     CG style diagonalization

---- Real-time Memory Report at c_bands before calling an iterative solver
           218 MiB given to the printing process from OS
             0 MiB allocation reported by mallinfo(arena+hblkhd)
          1498 MiB available memory on the node where the printing process lives
------------------
     ethr =  2.10E-10,  avg # of iterations =  4.4

     negative rho (up, down):  3.876E-04 0.000E+00

     total cpu time spent up to now is      213.5 secs

     total energy              =    -181.57960736 Ry
     estimated scf accuracy    <       0.00000010 Ry

     iteration #  5     ecut=    60.00 Ry     beta= 0.30
     CG style diagonalization

---- Real-time Memory Report at c_bands before calling an iterative solver
           218 MiB given to the printing process from OS
             0 MiB allocation reported by mallinfo(arena+hblkhd)
          1493 MiB available memory on the node where the printing process lives
------------------
     ethr =  2.10E-10,  avg # of iterations =  3.4

     negative rho (up, down):  3.876E-04 0.000E+00

     total cpu time spent up to now is      215.3 secs

     total energy              =    -181.57960737 Ry
     estimated scf accuracy    <          4.9E-09 Ry

     iteration #  6     ecut=    60.00 Ry     beta= 0.30
     CG style diagonalization

---- Real-time Memory Report at c_bands before calling an iterative solver
           218 MiB given to the printing process from OS
             0 MiB allocation reported by mallinfo(arena+hblkhd)
          1458 MiB available memory on the node where the printing process lives
------------------
     ethr =  1.89E-11,  avg # of iterations =  4.7

     negative rho (up, down):  3.876E-04 0.000E+00

     total cpu time spent up to now is      217.5 secs

     total energy              =    -181.57960737 Ry
     estimated scf accuracy    <          3.6E-09 Ry

     iteration #  7     ecut=    60.00 Ry     beta= 0.30
     CG style diagonalization

---- Real-time Memory Report at c_bands before calling an iterative solver
           218 MiB given to the printing process from OS
             0 MiB allocation reported by mallinfo(arena+hblkhd)
          1461 MiB available memory on the node where the printing process lives
------------------
     ethr =  1.39E-11,  avg # of iterations =  3.4

     negative rho (up, down):  3.876E-04 0.000E+00

     total cpu time spent up to now is      219.2 secs

     total energy              =    -181.57960737 Ry
     estimated scf accuracy    <          1.2E-10 Ry

     iteration #  8     ecut=    60.00 Ry     beta= 0.30
     CG style diagonalization

---- Real-time Memory Report at c_bands before calling an iterative solver
           218 MiB given to the printing process from OS
             0 MiB allocation reported by mallinfo(arena+hblkhd)
          1471 MiB available memory on the node where the printing process lives
------------------
     ethr =  4.67E-13,  avg # of iterations =  4.9

     negative rho (up, down):  3.876E-04 0.000E+00

     total cpu time spent up to now is      221.5 secs

     total energy              =    -181.57960737 Ry
     estimated scf accuracy    <          3.8E-10 Ry

     iteration #  9     ecut=    60.00 Ry     beta= 0.30
     CG style diagonalization

---- Real-time Memory Report at c_bands before calling an iterative solver
           218 MiB given to the printing process from OS
             0 MiB allocation reported by mallinfo(arena+hblkhd)
          1467 MiB available memory on the node where the printing process lives
------------------
     ethr =  4.67E-13,  avg # of iterations =  3.6

     negative rho (up, down):  3.876E-04 0.000E+00

     total cpu time spent up to now is      223.3 secs

     total energy              =    -181.57960737 Ry
     estimated scf accuracy    <          9.6E-12 Ry

     iteration # 10     ecut=    60.00 Ry     beta= 0.30
     CG style diagonalization

---- Real-time Memory Report at c_bands before calling an iterative solver
           218 MiB given to the printing process from OS
             0 MiB allocation reported by mallinfo(arena+hblkhd)
          1462 MiB available memory on the node where the printing process lives
------------------
     ethr =  1.00E-13,  avg # of iterations =  4.0

     negative rho (up, down):  3.876E-04 0.000E+00

     total cpu time spent up to now is      225.2 secs

     total energy              =    -181.57960737 Ry
     estimated scf accuracy    <          7.0E-12 Ry

     iteration # 11     ecut=    60.00 Ry     beta= 0.30
     CG style diagonalization

---- Real-time Memory Report at c_bands before calling an iterative solver
           218 MiB given to the printing process from OS
             0 MiB allocation reported by mallinfo(arena+hblkhd)
          1466 MiB available memory on the node where the printing process lives
------------------
     ethr =  1.00E-13,  avg # of iterations =  3.0

     negative rho (up, down):  3.876E-04 0.000E+00

     total cpu time spent up to now is      226.9 secs

     total energy              =    -181.57960737 Ry
     estimated scf accuracy    <          3.5E-12 Ry

     iteration # 12     ecut=    60.00 Ry     beta= 0.30
     CG style diagonalization

---- Real-time Memory Report at c_bands before calling an iterative solver
           218 MiB given to the printing process from OS
             0 MiB allocation reported by mallinfo(arena+hblkhd)
          1481 MiB available memory on the node where the printing process lives
------------------
     ethr =  1.00E-13,  avg # of iterations =  3.0

     negative rho (up, down):  3.876E-04 0.000E+00

     total cpu time spent up to now is      228.5 secs

     End of self-consistent calculation

          k = 0.0000 0.0000 0.0000 ( 10831 PWs)   bands (ev):

   -62.5302 -36.6727 -36.4645 -36.4645 -15.7269 -14.4307  -7.2493  -4.2409
    -4.2409  -3.4265  -3.1358  -3.1358  -1.6622   1.1176   1.1176   1.3572

     occupation numbers 
     1.0000   1.0000   1.0000   1.0000   1.0000   1.0000   1.0000   1.0000
     1.0000   1.0000   1.0000   1.0000   1.0000   0.0000   0.0000   0.0000

          k = 0.0000 0.0962 0.0000 ( 10837 PWs)   bands (ev):

   -62.5277 -36.6677 -36.4900 -36.4703 -15.6246 -14.3883  -7.1321  -4.4699
    -4.1339  -3.9072  -3.2991  -2.8139  -1.7129   0.9834   1.0793   1.2420

     occupation numbers 
     1.0000   1.0000   1.0000   1.0000   1.0000   1.0000   1.0000   1.0000
     1.0000   1.0000   1.0000   1.0000   1.0000   0.0000   0.0000   0.0000

          k = 0.0000 0.1924 0.0000 ( 10801 PWs)   bands (ev):

   -62.5207 -36.6540 -36.5593 -36.4861 -15.3336 -14.2677  -6.8371  -4.9963
    -4.5512  -3.8356  -3.6839  -2.7286  -1.9433   0.6456   0.9286   0.9743

     occupation numbers 
     1.0000   1.0000   1.0000   1.0000   1.0000   1.0000   1.0000   1.0000
     1.0000   1.0000   1.0000   1.0000   1.0000   0.0000   0.0000   0.0000

          k = 0.0000 0.2885 0.0000 ( 10783 PWs)   bands (ev):

   -62.5113 -36.6527 -36.6353 -36.5077 -14.9030 -14.0906  -6.6237  -5.4476
    -5.2081  -4.1153  -3.4177  -2.9749  -2.3693   0.5176   0.7087   1.2518

     occupation numbers 
     1.0000   1.0000   1.0000   1.0000   1.0000   1.0000   1.0000   1.0000
     1.0000   1.0000   1.0000   1.0000   1.0000   0.0000   0.0000   0.0000

          k = 0.0000 0.3847 0.0000 ( 10771 PWs)   bands (ev):

   -62.5019 -36.7448 -36.6165 -36.5291 -14.4202 -13.8959  -6.8687  -5.8160
    -5.5393  -4.4785  -3.2735  -3.0000  -2.6150   0.5675   0.6847   1.7399

     occupation numbers 
     1.0000   1.0000   1.0000   1.0000   1.0000   1.0000   1.0000   1.0000
     1.0000   1.0000   1.0000   1.0000   1.0000   0.0000   0.0000   0.0000

          k = 0.0000 0.4809 0.0000 ( 10728 PWs)   bands (ev):

   -62.4949 -36.8113 -36.6027 -36.5448 -14.0188 -13.7395  -7.2452  -6.2609
    -5.6311  -4.7143  -3.4626  -2.7108  -2.4457   0.5695   0.9558   2.1012

     occupation numbers 
     1.0000   1.0000   1.0000   1.0000   1.0000   1.0000   1.0000   1.0000
     1.0000   1.0000   1.0000   1.0000   1.0000   0.0000   0.0000   0.0000

          k = 0.0000-0.5771 0.0000 ( 10724 PWs)   bands (ev):

   -62.4924 -36.8355 -36.5977 -36.5505 -13.8580 -13.6787  -7.4058  -6.4256
    -5.7042  -4.7956  -3.5233  -2.6125  -2.2805   0.6003   1.1078   2.2183

     occupation numbers 
     1.0000   1.0000   1.0000   1.0000   1.0000   1.0000   1.0000   1.0000
     1.0000   1.0000   1.0000   1.0000   1.0000   0.0000   0.0000   0.0000

          k = 0.0833 0.1443 0.0000 ( 10801 PWs)   bands (ev):

   -62.5229 -36.6583 -36.5361 -36.4824 -15.4278 -14.3066  -6.9224  -4.8404
    -4.3347  -3.9396  -3.6790  -2.6251  -1.8542   0.7436   0.8425   1.0380

     occupation numbers 
     1.0000   1.0000   1.0000   1.0000   1.0000   1.0000   1.0000   1.0000
     1.0000   1.0000   1.0000   1.0000   1.0000   0.0000   0.0000   0.0000

          k = 0.0833 0.2405 0.0000 ( 10784 PWs)   bands (ev):

   -62.5147 -36.6421 -36.6141 -36.5044 -15.0661 -14.1568  -6.6369  -5.3140
    -4.8771  -4.2225  -3.6302  -2.6563  -2.1950   0.4507   0.8179   0.9189

     occupation numbers 
     1.0000   1.0000   1.0000   1.0000   1.0000   1.0000   1.0000   1.0000
     1.0000   1.0000   1.0000   1.0000   1.0000   0.0000   0.0000   0.0000

          k = 0.0833 0.3366 0.0000 ( 10788 PWs)   bands (ev):

   -62.5054 -36.7029 -36.6234 -36.5299 -14.6058 -13.9678  -6.6608  -5.5274
    -5.4949  -4.5828  -3.3853  -2.9496  -2.4917   0.3899   0.7720   1.3154

     occupation numbers 
     1.0000   1.0000   1.0000   1.0000   1.0000   1.0000   1.0000   1.0000
     1.0000   1.0000   1.0000   1.0000   1.0000   0.0000   0.0000   0.0000

          k = 0.0833 0.4328 0.0000 ( 10738 PWs)   bands (ev):

   -62.4971 -36.7787 -36.6071 -36.5519 -14.1557 -13.7869  -7.0050  -6.1163
    -5.5251  -4.7490  -3.2780  -3.2655  -2.3878   0.5273   0.8825   1.7967

     occupation numbers 
     1.0000   1.0000   1.0000   1.0000   1.0000   1.0000   1.0000   1.0000
     1.0000   1.0000   1.0000   1.0000   1.0000   0.0000   0.0000   0.0000

          k = 0.0833 0.5290 0.0000 ( 10708 PWs)   bands (ev):

   -62.4924 -36.8220 -36.5977 -36.5646 -13.8651 -13.6733  -7.2672  -6.4594
    -5.6462  -4.8043  -3.4803  -3.1391  -2.1478   0.6115   1.1064   2.1909

     occupation numbers 
     1.0000   1.0000   1.0000   1.0000   1.0000   1.0000   1.0000   1.0000
     1.0000   1.0000   1.0000   1.0000   1.0000   0.0000   0.0000   0.0000

          k = 0.1666 0.2885 0.0000 ( 10789 PWs)   bands (ev):

   -62.5066 -36.6814 -36.6259 -36.5364 -14.6721 -13.9927  -6.5570  -5.4580
    -5.3034  -4.8204  -3.6036  -2.6935  -2.4314   0.2824   0.8268   1.0234

     occupation numbers 
     1.0000   1.0000   1.0000   1.0000   1.0000   1.0000   1.0000   1.0000
     1.0000   1.0000   1.0000   1.0000   1.0000   0.0000   0.0000   0.0000

          k = 0.1666 0.3847 0.0000 ( 10761 PWs)   bands (ev):

   -62.4985 -36.7446 -36.6097 -36.5717 -14.2354 -13.8105  -6.7453  -5.9953
    -5.3646  -4.9261  -3.8740  -2.9941  -2.3870   0.4308   0.9101   1.3483

     occupation numbers 
     1.0000   1.0000   1.0000   1.0000   1.0000   1.0000   1.0000   1.0000
     1.0000   1.0000   1.0000   1.0000   1.0000   0.0000   0.0000   0.0000

          k = 0.1666 0.4809 0.0000 ( 10717 PWs)   bands (ev):

   -62.4924 -36.7892 -36.5986 -36.5977 -13.8791 -13.6626  -6.9423  -6.5213
    -5.4669  -4.8445  -3.9991  -3.3599  -2.1383   0.5658   1.1443   1.6890

     occupation numbers 
     1.0000   1.0000   1.0000   1.0000   1.0000   1.0000   1.0000   1.0000
     1.0000   1.0000   1.0000   1.0000   1.0000   0.0000   0.0000   0.0000

          k = 0.1666 0.5771 0.0000 ( 10718 PWs)   bands (ev):

   -62.4902 -36.8053 -36.6087 -36.5933 -13.7386 -13.6047  -7.0141  -6.7124
    -5.5863  -4.7736  -3.9960  -3.5352  -1.9615   0.4895   1.3899   1.8405

     occupation numbers 
     1.0000   1.0000   1.0000   1.0000   1.0000   1.0000   1.0000   1.0000
     1.0000   1.0000   1.0000   1.0000   1.0000   0.0000   0.0000   0.0000

          k = 0.2499 0.4328 0.0000 ( 10751 PWs)   bands (ev):

   -62.4925 -36.7673 -36.6212 -36.5977 -13.8860 -13.6572  -6.7458  -6.5499
    -5.2451  -4.8729  -4.5502  -3.2841  -2.1605   0.5257   1.1720   1.4439

     occupation numbers 
     1.0000   1.0000   1.0000   1.0000   1.0000   1.0000   1.0000   1.0000
     1.0000   1.0000   1.0000   1.0000   1.0000   0.0000   0.0000   0.0000

          k = 0.2499 0.5290 0.0000 ( 10703 PWs)   bands (ev):

   -62.4889 -36.7719 -36.6582 -36.5908 -13.6697 -13.5595  -6.8921  -6.6191
    -5.4550  -4.8509  -4.6781  -3.6151  -1.8506   0.2708   1.4943   1.6327

     occupation numbers 
     1.0000   1.0000   1.0000   1.0000   1.0000   1.0000   1.0000   1.0000
     1.0000   1.0000   1.0000   1.0000   1.0000   0.0000   0.0000   0.0000

          k = 0.3332 0.5771 0.0000 ( 10692 PWs)   bands (ev):

   -62.4877 -36.7441 -36.7016 -36.5883 -13.5919 -13.5188  -7.0377  -6.2249
    -5.7065  -5.1937  -4.5206  -3.8027  -1.6594   0.0320   1.4009   1.8865

     occupation numbers 
     1.0000   1.0000   1.0000   1.0000   1.0000   1.0000   1.0000   1.0000
     1.0000   1.0000   1.0000   1.0000   1.0000   0.0000   0.0000   0.0000

     highest occupied, lowest unoccupied level (ev):    -1.6594    0.0320

!    total energy              =    -181.57960737 Ry
     estimated scf accuracy    <          2.3E-14 Ry

     The total energy is the sum of the following terms:
     one-electron contribution =   -1380.77979465 Ry
     hartree contribution      =     689.96183888 Ry
     xc contribution           =     -29.68906324 Ry
     ewald contribution        =     538.92741164 Ry

     convergence has been achieved in  12 iterations

     negative rho (up, down):  3.876E-04 0.000E+00

     Forces acting on atoms (cartesian axes, Ry/au):

     atom    1 type  1   force =    -0.00000000   -0.00000000    0.00000000
     atom    2 type  2   force =    -0.00000000   -0.00000000    0.00004552
     atom    3 type  2   force =     0.00000000    0.00000000   -0.00004552
     The non-local contrib.  to forces
     atom    1 type  1   force =     0.00000000   -0.00000000    0.00000000
     atom    2 type  2   force =    -0.00000000   -0.00000000   -0.27333928
     atom    3 type  2   force =     0.00000000    0.00000000    0.27333928
     The ionic contribution  to forces
     atom    1 type  1   force =     0.00000000   -0.00000000    0.00000000
     atom    2 type  2   force =    -0.00000000    0.00000000   37.26710243
     atom    3 type  2   force =    -0.00000000    0.00000000  -37.26710243
     The local contribution  to forces
     atom    1 type  1   force =    -0.00000000    0.00000000    0.00000000
     atom    2 type  2   force =    -0.00000000    0.00000000  -36.99620565
     atom    3 type  2   force =    -0.00000000    0.00000000   36.99620565
     The core correction contribution to forces
     atom    1 type  1   force =    -0.00000000   -0.00000000   -0.00000000
     atom    2 type  2   force =     0.00000000   -0.00000000    0.00248826
     atom    3 type  2   force =     0.00000000   -0.00000000   -0.00248826
     The Hubbard contrib.    to forces
     atom    1 type  1   force =     0.00000000    0.00000000    0.00000000
     atom    2 type  2   force =     0.00000000    0.00000000    0.00000000
     atom    3 type  2   force =     0.00000000    0.00000000    0.00000000
     The SCF correction term to forces
     atom    1 type  1   force =     0.00000000    0.00000000    0.00000000
     atom    2 type  2   force =    -0.00000000    0.00000000   -0.00000024
     atom    3 type  2   force =    -0.00000000    0.00000000    0.00000024

     Total force =     0.000064     Total SCF correction =     0.000000


     Computing stress (Cartesian axis) and pressure


     negative rho (up, down):  3.876E-04 0.000E+00
          total   stress  (Ry/bohr**3)                   (kbar)     P=       -0.04
   0.00000213   0.00000000   0.00000000            0.31        0.00        0.00
   0.00000000   0.00000213   0.00000000            0.00        0.31        0.00
   0.00000000   0.00000000  -0.00000511            0.00        0.00       -0.75

     kinetic stress (kbar)   4873.32      0.00     -0.00
                                0.00   4873.32     -0.00
                                0.00     -0.00   4919.06

     local   stress (kbar)-147221.07      0.00      0.00
                                0.00-147221.07     -0.00
                                0.00     -0.00 144196.84

     nonloc. stress (kbar)   2229.58      0.00      0.00
                                0.00   2229.58      0.00
                                0.00      0.00   2219.61

     hartree stress (kbar)  72202.41      0.00     -0.00
                                0.00  72202.41      0.00
                               -0.00      0.00 -70411.85

     exc-cor stress (kbar)   -413.85     -0.00     -0.00
                               -0.00   -413.85      0.00
                               -0.00      0.00   -414.94

     corecor stress (kbar)   -548.30      0.00      0.00
                                0.00   -548.30      0.00
                                0.00      0.00   -548.73

     ewald   stress (kbar)  68878.23     -0.00      0.00
                               -0.00  68878.23     -0.00
                                0.00     -0.00 -79960.74

     hubbard stress (kbar)      0.00      0.00      0.00
                                0.00      0.00      0.00
                                0.00      0.00      0.00

     DFT-D   stress (kbar)      0.00      0.00      0.00
                                0.00      0.00      0.00
                                0.00      0.00      0.00

     XDM     stress (kbar)      0.00      0.00      0.00
                                0.00      0.00      0.00
                                0.00      0.00      0.00

     dft-nl  stress (kbar)      0.00      0.00      0.00
                                0.00      0.00      0.00
                                0.00      0.00      0.00

     TS-vdW  stress (kbar)      0.00      0.00      0.00
                                0.00      0.00      0.00
                                0.00      0.00      0.00

     MDB     stress (kbar)      0.00      0.00      0.00
                                0.00      0.00      0.00
                                0.00      0.00      0.00

     3D-RISM stress (kbar)      0.00      0.00      0.00
                                0.00      0.00      0.00
                                0.00      0.00      0.00

     Energy error            =      5.8E-06 Ry
     Gradient error          =      4.6E-05 Ry/Bohr
     Cell gradient error     =      3.1E-01 kbar

     number of scf cycles    =   8
     number of bfgs steps    =   7

     enthalpy           old  =    -181.5796015207 Ry
     enthalpy           new  =    -181.5796073686 Ry

     CASE: enthalpy          _new < enthalpy          _old

     new trust radius        =       0.0031089002 bohr
ibrav =      4
 celldm(1) =      6.01448269
 celldm(3) =      7.28620416
Input lattice vectors:
     1.00085760     0.00000000     0.00000000
    -0.50042880     0.86676811     0.00000000
     0.00000000     0.00000000     7.29245283
New lattice vectors in INITIAL alat:
     1.00085760     0.00000000     0.00000000
    -0.50042880     0.86676811     0.00000000
     0.00000000     0.00000000     7.29245283
New lattice vectors in NEW alat (for information only):
     1.00000000     0.00000000     0.00000000
    -0.50000000     0.86602540     0.00000000
     0.00000000     0.00000000     7.28620416
Discrepancy in bohr =     0.000000    0.000000    0.000000
     new conv_thr            =            4.6E-13 Ry

     new unit-cell volume =   1372.86175 a.u.^3 (   203.43712 Ang^3 )
     density =      1.30656 g/cm^3

CELL_PARAMETERS (alat=  6.00932908)
   1.000857602   0.000000000   0.000000000
  -0.500428801   0.866768109   0.000000000
   0.000000000   0.000000000   7.292452830

ATOMIC_POSITIONS (crystal)
Mo              -0.0000000000       -0.0000000000        0.5000000000
S                0.6666666667        0.3333333333        0.5674818355
S                0.6666666667        0.3333333333        0.4325181645



     Writing config-only to output data dir ./tmp/mos2.save/ :
     XML data file
     NEW-OLD atomic charge density approx. for the potential
     New effective cutoffs (rho, wfc):  479.71   59.99

     negative rho (up, down):  3.887E-04 0.000E+00

     total cpu time spent up to now is      230.8 secs

     Self-consistent Calculation

     iteration #  1     ecut=    60.00 Ry     beta= 0.30
     CG style diagonalization

---- Real-time Memory Report at c_bands before calling an iterative solver
           219 MiB given to the printing process from OS
             0 MiB allocation reported by mallinfo(arena+hblkhd)
          1524 MiB available memory on the node where the printing process lives
------------------
     ethr =  1.00E-06,  avg # of iterations =  2.2

     Threshold (ethr) on eigenvalues was too large:
     Diagonalizing with lowered threshold

     CG style diagonalization

---- Real-time Memory Report at c_bands before calling an iterative solver
           219 MiB given to the printing process from OS
             0 MiB allocation reported by mallinfo(arena+hblkhd)
          1608 MiB available memory on the node where the printing process lives
------------------
     ethr =  1.13E-08,  avg # of iterations =  4.4

     negative rho (up, down):  3.888E-04 0.000E+00

     total cpu time spent up to now is      234.2 secs

     total energy              =    -181.57960827 Ry
     estimated scf accuracy    <       0.00000057 Ry

     iteration #  2     ecut=    60.00 Ry     beta= 0.30
     CG style diagonalization

---- Real-time Memory Report at c_bands before calling an iterative solver
           219 MiB given to the printing process from OS
             0 MiB allocation reported by mallinfo(arena+hblkhd)
          1498 MiB available memory on the node where the printing process lives
------------------
     ethr =  2.18E-09,  avg # of iterations =  4.2

     negative rho (up, down):  3.888E-04 0.000E+00

     total cpu time spent up to now is      236.2 secs

     total energy              =    -181.57960850 Ry
     estimated scf accuracy    <       0.00000055 Ry

     iteration #  3     ecut=    60.00 Ry     beta= 0.30
     CG style diagonalization

---- Real-time Memory Report at c_bands before calling an iterative solver
           219 MiB given to the printing process from OS
             0 MiB allocation reported by mallinfo(arena+hblkhd)
          1492 MiB available memory on the node where the printing process lives
------------------
     ethr =  2.10E-09,  avg # of iterations =  3.2

     negative rho (up, down):  3.888E-04 0.000E+00

     total cpu time spent up to now is      237.9 secs

     total energy              =    -181.57960855 Ry
     estimated scf accuracy    <       0.00000003 Ry

     iteration #  4     ecut=    60.00 Ry     beta= 0.30
     CG style diagonalization

---- Real-time Memory Report at c_bands before calling an iterative solver
           219 MiB given to the printing process from OS
             0 MiB allocation reported by mallinfo(arena+hblkhd)
          1531 MiB available memory on the node where the printing process lives
------------------
     ethr =  1.30E-10,  avg # of iterations =  4.4

     negative rho (up, down):  3.889E-04 0.000E+00

     total cpu time spent up to now is      240.0 secs

     total energy              =    -181.57960856 Ry
     estimated scf accuracy    <       0.00000005 Ry

     iteration #  5     ecut=    60.00 Ry     beta= 0.30
     CG style diagonalization

---- Real-time Memory Report at c_bands before calling an iterative solver
           219 MiB given to the printing process from OS
             0 MiB allocation reported by mallinfo(arena+hblkhd)
          1558 MiB available memory on the node where the printing process lives
------------------
     ethr =  1.30E-10,  avg # of iterations =  3.4

     negative rho (up, down):  3.889E-04 0.000E+00

     total cpu time spent up to now is      241.7 secs

     total energy              =    -181.57960856 Ry
     estimated scf accuracy    <          1.5E-09 Ry

     iteration #  6     ecut=    60.00 Ry     beta= 0.30
     CG style diagonalization

---- Real-time Memory Report at c_bands before calling an iterative solver
           219 MiB given to the printing process from OS
             0 MiB allocation reported by mallinfo(arena+hblkhd)
          1492 MiB available memory on the node where the printing process lives
------------------
     ethr =  5.58E-12,  avg # of iterations =  4.5

     negative rho (up, down):  3.889E-04 0.000E+00

     total cpu time spent up to now is      243.8 secs

     total energy              =    -181.57960856 Ry
     estimated scf accuracy    <          2.3E-10 Ry

     iteration #  7     ecut=    60.00 Ry     beta= 0.30
     CG style diagonalization

---- Real-time Memory Report at c_bands before calling an iterative solver
           219 MiB given to the printing process from OS
             0 MiB allocation reported by mallinfo(arena+hblkhd)
          1492 MiB available memory on the node where the printing process lives
------------------
     ethr =  8.95E-13,  avg # of iterations =  3.7

     negative rho (up, down):  3.889E-04 0.000E+00

     total cpu time spent up to now is      245.7 secs

     total energy              =    -181.57960856 Ry
     estimated scf accuracy    <          2.3E-11 Ry

     iteration #  8     ecut=    60.00 Ry     beta= 0.30
     CG style diagonalization

---- Real-time Memory Report at c_bands before calling an iterative solver
           219 MiB given to the printing process from OS
             0 MiB allocation reported by mallinfo(arena+hblkhd)
          1486 MiB available memory on the node where the printing process lives
------------------
     ethr =  1.00E-13,  avg # of iterations =  4.0

     negative rho (up, down):  3.889E-04 0.000E+00

     total cpu time spent up to now is      247.6 secs

     total energy              =    -181.57960856 Ry
     estimated scf accuracy    <          4.3E-12 Ry

     iteration #  9     ecut=    60.00 Ry     beta= 0.30
     CG style diagonalization

---- Real-time Memory Report at c_bands before calling an iterative solver
           219 MiB given to the printing process from OS
             0 MiB allocation reported by mallinfo(arena+hblkhd)
          1480 MiB available memory on the node where the printing process lives
------------------
     ethr =  1.00E-13,  avg # of iterations =  3.0

     negative rho (up, down):  3.889E-04 0.000E+00

     total cpu time spent up to now is      249.3 secs

     total energy              =    -181.57960856 Ry
     estimated scf accuracy    <          8.2E-13 Ry

     iteration # 10     ecut=    60.00 Ry     beta= 0.30
     CG style diagonalization

---- Real-time Memory Report at c_bands before calling an iterative solver
           219 MiB given to the printing process from OS
             0 MiB allocation reported by mallinfo(arena+hblkhd)
          1463 MiB available memory on the node where the printing process lives
------------------
     ethr =  1.00E-13,  avg # of iterations =  3.0

     negative rho (up, down):  3.889E-04 0.000E+00

     total cpu time spent up to now is      250.9 secs

     total energy              =    -181.57960856 Ry
     estimated scf accuracy    <          4.6E-13 Ry

     iteration # 11     ecut=    60.00 Ry     beta= 0.30
     CG style diagonalization

---- Real-time Memory Report at c_bands before calling an iterative solver
           219 MiB given to the printing process from OS
             0 MiB allocation reported by mallinfo(arena+hblkhd)
          1486 MiB available memory on the node where the printing process lives
------------------
     ethr =  1.00E-13,  avg # of iterations =  3.0

     negative rho (up, down):  3.889E-04 0.000E+00

     total cpu time spent up to now is      252.5 secs

     End of self-consistent calculation

          k = 0.0000 0.0000 0.0000 ( 10831 PWs)   bands (ev):

   -62.5359 -36.6775 -36.4709 -36.4709 -15.7277 -14.4311  -7.2501  -4.2476
    -4.2476  -3.4264  -3.1431  -3.1431  -1.6623   1.1099   1.1099   1.3504

     occupation numbers 
     1.0000   1.0000   1.0000   1.0000   1.0000   1.0000   1.0000   1.0000
     1.0000   1.0000   1.0000   1.0000   1.0000   0.0000   0.0000   0.0000

          k = 0.0000 0.0961 0.0000 ( 10837 PWs)   bands (ev):

   -62.5334 -36.6726 -36.4963 -36.4767 -15.6255 -14.3888  -7.1332  -4.4762
    -4.1407  -3.9095  -3.3061  -2.8183  -1.7134   0.9759   1.0734   1.2354

     occupation numbers 
     1.0000   1.0000   1.0000   1.0000   1.0000   1.0000   1.0000   1.0000
     1.0000   1.0000   1.0000   1.0000   1.0000   0.0000   0.0000   0.0000

          k = 0.0000 0.1923 0.0000 ( 10801 PWs)   bands (ev):

   -62.5265 -36.6590 -36.5653 -36.4924 -15.3351 -14.2686  -6.8387  -5.0018
    -4.5535  -3.8429  -3.6903  -2.7319  -1.9449   0.6415   0.9215   0.9678

     occupation numbers 
     1.0000   1.0000   1.0000   1.0000   1.0000   1.0000   1.0000   1.0000
     1.0000   1.0000   1.0000   1.0000   1.0000   0.0000   0.0000   0.0000

          k = 0.0000 0.2884 0.0000 ( 10783 PWs)   bands (ev):

   -62.5171 -36.6583 -36.6403 -36.5139 -14.9054 -14.0920  -6.6259  -5.4520
    -5.2097  -4.1212  -3.4256  -2.9771  -2.3715   0.5142   0.7021   1.2448

     occupation numbers 
     1.0000   1.0000   1.0000   1.0000   1.0000   1.0000   1.0000   1.0000
     1.0000   1.0000   1.0000   1.0000   1.0000   0.0000   0.0000   0.0000

          k = 0.0000 0.3846 0.0000 ( 10771 PWs)   bands (ev):

   -62.5078 -36.7500 -36.6216 -36.5353 -14.4236 -13.8980  -6.8705  -5.8169
    -5.5428  -4.4839  -3.2748  -3.0082  -2.6175   0.5601   0.6801   1.7330

     occupation numbers 
     1.0000   1.0000   1.0000   1.0000   1.0000   1.0000   1.0000   1.0000
     1.0000   1.0000   1.0000   1.0000   1.0000   0.0000   0.0000   0.0000

          k = 0.0000 0.4807 0.0000 ( 10728 PWs)   bands (ev):

   -62.5009 -36.8163 -36.6079 -36.5509 -14.0233 -13.7420  -7.2460  -6.2610
    -5.6337  -4.7194  -3.4636  -2.7188  -2.4489   0.5609   0.9487   2.0949

     occupation numbers 
     1.0000   1.0000   1.0000   1.0000   1.0000   1.0000   1.0000   1.0000
     1.0000   1.0000   1.0000   1.0000   1.0000   0.0000   0.0000   0.0000

          k = 0.0000-0.5769 0.0000 ( 10724 PWs)   bands (ev):

   -62.4984 -36.8404 -36.6029 -36.5565 -13.8629 -13.6815  -7.4062  -6.4254
    -5.7064  -4.8005  -3.5241  -2.6204  -2.2840   0.5910   1.0990   2.2123

     occupation numbers 
     1.0000   1.0000   1.0000   1.0000   1.0000   1.0000   1.0000   1.0000
     1.0000   1.0000   1.0000   1.0000   1.0000   0.0000   0.0000   0.0000

          k = 0.0833 0.1442 0.0000 ( 10801 PWs)   bands (ev):

   -62.5287 -36.6633 -36.5422 -36.4887 -15.4291 -14.3074  -6.9239  -4.8460
    -4.3370  -3.9467  -3.6853  -2.6291  -1.8554   0.7390   0.8354   1.0317

     occupation numbers 
     1.0000   1.0000   1.0000   1.0000   1.0000   1.0000   1.0000   1.0000
     1.0000   1.0000   1.0000   1.0000   1.0000   0.0000   0.0000   0.0000

          k = 0.0833 0.2404 0.0000 ( 10784 PWs)   bands (ev):

   -62.5206 -36.6471 -36.6199 -36.5107 -15.0681 -14.1580  -6.6390  -5.3188
    -4.8792  -4.2274  -3.6376  -2.6598  -2.1973   0.4471   0.8117   0.9119

     occupation numbers 
     1.0000   1.0000   1.0000   1.0000   1.0000   1.0000   1.0000   1.0000
     1.0000   1.0000   1.0000   1.0000   1.0000   0.0000   0.0000   0.0000

          k = 0.0833 0.3365 0.0000 ( 10788 PWs)   bands (ev):

   -62.5112 -36.7083 -36.6285 -36.5361 -14.6088 -13.9696  -6.6630  -5.5290
    -5.4988  -4.5868  -3.3919  -2.9522  -2.4951   0.3858   0.7654   1.3086

     occupation numbers 
     1.0000   1.0000   1.0000   1.0000   1.0000   1.0000   1.0000   1.0000
     1.0000   1.0000   1.0000   1.0000   1.0000   0.0000   0.0000   0.0000

          k = 0.0833 0.4326 0.0000 ( 10738 PWs)   bands (ev):

   -62.5031 -36.7838 -36.6123 -36.5580 -14.1598 -13.7893  -7.0064  -6.1171
    -5.5282  -4.7528  -3.2798  -3.2711  -2.3927   0.5211   0.8747   1.7902

     occupation numbers 
     1.0000   1.0000   1.0000   1.0000   1.0000   1.0000   1.0000   1.0000
     1.0000   1.0000   1.0000   1.0000   1.0000   0.0000   0.0000   0.0000

          k = 0.0833 0.5288 0.0000 ( 10708 PWs)   bands (ev):

   -62.4983 -36.8270 -36.6029 -36.5706 -13.8700 -13.6761  -7.2678  -6.4596
    -5.6487  -4.8084  -3.4814  -3.1448  -2.1529   0.6028   1.0977   2.1844

     occupation numbers 
     1.0000   1.0000   1.0000   1.0000   1.0000   1.0000   1.0000   1.0000
     1.0000   1.0000   1.0000   1.0000   1.0000   0.0000   0.0000   0.0000

          k = 0.1665 0.2884 0.0000 ( 10789 PWs)   bands (ev):

   -62.5125 -36.6869 -36.6310 -36.5425 -14.6749 -13.9944  -6.5594  -5.4622
    -5.3061  -4.8228  -3.6097  -2.6970  -2.4351   0.2790   0.8200   1.0168

     occupation numbers 
     1.0000   1.0000   1.0000   1.0000   1.0000   1.0000   1.0000   1.0000
     1.0000   1.0000   1.0000   1.0000   1.0000   0.0000   0.0000   0.0000

          k = 0.1665 0.3846 0.0000 ( 10761 PWs)   bands (ev):

   -62.5044 -36.7498 -36.6148 -36.5776 -14.2393 -13.8128  -6.7472  -5.9972
    -5.3685  -4.9280  -3.8783  -2.9969  -2.3919   0.4270   0.9010   1.3422

     occupation numbers 
     1.0000   1.0000   1.0000   1.0000   1.0000   1.0000   1.0000   1.0000
     1.0000   1.0000   1.0000   1.0000   1.0000   0.0000   0.0000   0.0000

          k = 0.1665 0.4807 0.0000 ( 10717 PWs)   bands (ev):

   -62.4983 -36.7943 -36.6045 -36.6029 -13.8839 -13.6654  -6.9433  -6.5223
    -5.4700  -4.8467  -4.0033  -3.3618  -2.1436   0.5585   1.1353   1.6840

     occupation numbers 
     1.0000   1.0000   1.0000   1.0000   1.0000   1.0000   1.0000   1.0000
     1.0000   1.0000   1.0000   1.0000   1.0000   0.0000   0.0000   0.0000

          k = 0.1665 0.5769 0.0000 ( 10718 PWs)   bands (ev):

   -62.4962 -36.8103 -36.6145 -36.5986 -13.7439 -13.6077  -7.0147  -6.7130
    -5.5890  -4.7762  -4.0003  -3.5365  -1.9668   0.4804   1.3814   1.8363

     occupation numbers 
     1.0000   1.0000   1.0000   1.0000   1.0000   1.0000   1.0000   1.0000
     1.0000   1.0000   1.0000   1.0000   1.0000   0.0000   0.0000   0.0000

          k = 0.2498 0.4326 0.0000 ( 10751 PWs)   bands (ev):

   -62.4984 -36.7725 -36.6269 -36.6029 -13.8908 -13.6600  -6.7472  -6.5513
    -5.2491  -4.8743  -4.5532  -3.2864  -2.1657   0.5190   1.1630   1.4395

     occupation numbers 
     1.0000   1.0000   1.0000   1.0000   1.0000   1.0000   1.0000   1.0000
     1.0000   1.0000   1.0000   1.0000   1.0000   0.0000   0.0000   0.0000

          k = 0.2498 0.5288 0.0000 ( 10703 PWs)   bands (ev):

   -62.4949 -36.7771 -36.6638 -36.5961 -13.6752 -13.5627  -6.8928  -6.6201
    -5.4579  -4.8544  -4.6798  -3.6166  -1.8559   0.2615   1.4912   1.6248

     occupation numbers 
     1.0000   1.0000   1.0000   1.0000   1.0000   1.0000   1.0000   1.0000
     1.0000   1.0000   1.0000   1.0000   1.0000   0.0000   0.0000   0.0000

          k = 0.3330 0.5769 0.0000 ( 10692 PWs)   bands (ev):

   -62.4936 -36.7494 -36.7070 -36.5936 -13.5976 -13.5221  -7.0383  -6.2260
    -5.7083  -5.1978  -4.5223  -3.8040  -1.6646   0.0222   1.3985   1.8790

     occupation numbers 
     1.0000   1.0000   1.0000   1.0000   1.0000   1.0000   1.0000   1.0000
     1.0000   1.0000   1.0000   1.0000   1.0000   0.0000   0.0000   0.0000

     highest occupied, lowest unoccupied level (ev):    -1.6623    0.0222

!    total energy              =    -181.57960856 Ry
     estimated scf accuracy    <          9.5E-15 Ry

     The total energy is the sum of the following terms:
     one-electron contribution =   -1379.80429909 Ry
     hartree contribution      =     689.46946253 Ry
     xc contribution           =     -29.68769493 Ry
     ewald contribution        =     538.44292292 Ry

     convergence has been achieved in  11 iterations

     negative rho (up, down):  3.889E-04 0.000E+00

     Forces acting on atoms (cartesian axes, Ry/au):

     atom    1 type  1   force =     0.00000000    0.00000000    0.00000000
     atom    2 type  2   force =     0.00000000    0.00000000    0.00000279
     atom    3 type  2   force =     0.00000000    0.00000000   -0.00000279
     The non-local contrib.  to forces
     atom    1 type  1   force =     0.00000000    0.00000000    0.00000000
     atom    2 type  2   force =     0.00000000   -0.00000000   -0.27347678
     atom    3 type  2   force =     0.00000000   -0.00000000    0.27347678
     The ionic contribution  to forces
     atom    1 type  1   force =     0.00000000   -0.00000000    0.00000000
     atom    2 type  2   force =    -0.00000000    0.00000000   37.23275045
     atom    3 type  2   force =    -0.00000000    0.00000000  -37.23275045
     The local contribution  to forces
     atom    1 type  1   force =     0.00000000    0.00000000    0.00000000
     atom    2 type  2   force =    -0.00000000    0.00000000  -36.96176839
     atom    3 type  2   force =    -0.00000000    0.00000000   36.96176839
     The core correction contribution to forces
     atom    1 type  1   force =    -0.00000000   -0.00000000   -0.00000000
     atom    2 type  2   force =     0.00000000   -0.00000000    0.00249763
     atom    3 type  2   force =     0.00000000   -0.00000000   -0.00249763
     The Hubbard contrib.    to forces
     atom    1 type  1   force =     0.00000000    0.00000000    0.00000000
     atom    2 type  2   force =     0.00000000    0.00000000    0.00000000
     atom    3 type  2   force =     0.00000000    0.00000000    0.00000000
     The SCF correction term to forces
     atom    1 type  1   force =     0.00000000   -0.00000000   -0.00000000
     atom    2 type  2   force =     0.00000000    0.00000000   -0.00000012
     atom    3 type  2   force =     0.00000000    0.00000000    0.00000012

     Total force =     0.000004     Total SCF correction =     0.000000


     Computing stress (Cartesian axis) and pressure


     negative rho (up, down):  3.889E-04 0.000E+00
          total   stress  (Ry/bohr**3)                   (kbar)     P=       -0.26
   0.00000001  -0.00000000   0.00000000            0.00       -0.00        0.00
  -0.00000000   0.00000001   0.00000000           -0.00        0.00        0.00
   0.00000000   0.00000000  -0.00000530            0.00        0.00       -0.78

     kinetic stress (kbar)   4868.77      0.00     -0.00
                                0.00   4868.77     -0.00
                               -0.00     -0.00   4915.07

     local   stress (kbar)-146988.37      0.00      0.00
                                0.00-146988.37      0.00
                                0.00      0.00 143962.28

     nonloc. stress (kbar)   2227.70      0.00     -0.00
                                0.00   2227.70     -0.00
                                0.00     -0.00   2217.64

     hartree stress (kbar)  72087.67     -0.00      0.00
                               -0.00  72087.67      0.00
                                0.00      0.00 -70297.22

     exc-cor stress (kbar)   -413.46     -0.00      0.00
                               -0.00   -413.46     -0.00
                                0.00     -0.00   -414.55

     corecor stress (kbar)   -547.84      0.00     -0.00
                                0.00   -547.84     -0.00
                               -0.00     -0.00   -548.27

     ewald   stress (kbar)  68765.52     -0.00      0.00
                               -0.00  68765.52     -0.00
                                0.00     -0.00 -79835.74

     hubbard stress (kbar)      0.00      0.00      0.00
                                0.00      0.00      0.00
                                0.00      0.00      0.00

     DFT-D   stress (kbar)      0.00      0.00      0.00
                                0.00      0.00      0.00
                                0.00      0.00      0.00

     XDM     stress (kbar)      0.00      0.00      0.00
                                0.00      0.00      0.00
                                0.00      0.00      0.00

     dft-nl  stress (kbar)      0.00      0.00      0.00
                                0.00      0.00      0.00
                                0.00      0.00      0.00

     TS-vdW  stress (kbar)      0.00      0.00      0.00
                                0.00      0.00      0.00
                                0.00      0.00      0.00

     MDB     stress (kbar)      0.00      0.00      0.00
                                0.00      0.00      0.00
                                0.00      0.00      0.00

     3D-RISM stress (kbar)      0.00      0.00      0.00
                                0.00      0.00      0.00
                                0.00      0.00      0.00

     Energy error            =      1.2E-06 Ry
     Gradient error          =      2.8E-06 Ry/Bohr
     Cell gradient error     =      1.4E-03 kbar

     number of scf cycles    =   9
     number of bfgs steps    =   8

     enthalpy           old  =    -181.5796073686 Ry
     enthalpy           new  =    -181.5796085632 Ry

     CASE: enthalpy          _new < enthalpy          _old

     small trust_radius: resetting bfgs history

     new trust radius        =       0.0000027879 bohr
ibrav =      4
 celldm(1) =      6.01448416
 celldm(3) =      7.28620239
Input lattice vectors:
     1.00085785    -0.00000000     0.00000000
    -0.50042892     0.86676832     0.00000000
     0.00000000     0.00000000     7.29245283
New lattice vectors in INITIAL alat:
     1.00085785     0.00000000     0.00000000
    -0.50042892     0.86676832     0.00000000
     0.00000000     0.00000000     7.29245283
New lattice vectors in NEW alat (for information only):
     1.00000000     0.00000000     0.00000000
    -0.50000000     0.86602540     0.00000000
     0.00000000     0.00000000     7.28620239
Discrepancy in bohr =     0.000000    0.000000    0.000000
     new conv_thr            =            1.0E-13 Ry

     new unit-cell volume =   1372.86242 a.u.^3 (   203.43722 Ang^3 )
     density =      1.30656 g/cm^3

CELL_PARAMETERS (alat=  6.00932908)
   1.000857846   0.000000000   0.000000000
  -0.500428923   0.866768320   0.000000000
   0.000000000   0.000000000   7.292452830

ATOMIC_POSITIONS (crystal)
Mo              -0.0000000000       -0.0000000000        0.5000000000
S                0.6666666667        0.3333333333        0.5674818991
S                0.6666666667        0.3333333333        0.4325181009



     Writing config-only to output data dir ./tmp/mos2.save/ :
     XML data file
     NEW-OLD atomic charge density approx. for the potential
     New effective cutoffs (rho, wfc):  479.71   59.99

     negative rho (up, down):  3.889E-04 0.000E+00

     total cpu time spent up to now is      254.8 secs

     Self-consistent Calculation

     iteration #  1     ecut=    60.00 Ry     beta= 0.30
     CG style diagonalization

---- Real-time Memory Report at c_bands before calling an iterative solver
           221 MiB given to the printing process from OS
             0 MiB allocation reported by mallinfo(arena+hblkhd)
          1536 MiB available memory on the node where the printing process lives
------------------
     ethr =  1.00E-06,  avg # of iterations =  2.0

     Threshold (ethr) on eigenvalues was too large:
     Diagonalizing with lowered threshold

     CG style diagonalization

---- Real-time Memory Report at c_bands before calling an iterative solver
           221 MiB given to the printing process from OS
             0 MiB allocation reported by mallinfo(arena+hblkhd)
          1616 MiB available memory on the node where the printing process lives
------------------
     ethr =  1.00E-13,  avg # of iterations =  3.4

     negative rho (up, down):  3.889E-04 0.000E+00

     total cpu time spent up to now is      257.8 secs

     total energy              =    -181.57960856 Ry
     estimated scf accuracy    <          3.9E-13 Ry

     iteration #  2     ecut=    60.00 Ry     beta= 0.30
     CG style diagonalization

---- Real-time Memory Report at c_bands before calling an iterative solver
           221 MiB given to the printing process from OS
             0 MiB allocation reported by mallinfo(arena+hblkhd)
          1505 MiB available memory on the node where the printing process lives
------------------
     ethr =  1.00E-13,  avg # of iterations =  3.0

     negative rho (up, down):  3.889E-04 0.000E+00

     total cpu time spent up to now is      259.4 secs

     total energy              =    -181.57960856 Ry
     estimated scf accuracy    <          6.3E-13 Ry

     iteration #  3     ecut=    60.00 Ry     beta= 0.30
     CG style diagonalization

---- Real-time Memory Report at c_bands before calling an iterative solver
           221 MiB given to the printing process from OS
             0 MiB allocation reported by mallinfo(arena+hblkhd)
          1493 MiB available memory on the node where the printing process lives
------------------
     ethr =  1.00E-13,  avg # of iterations =  3.0

     negative rho (up, down):  3.889E-04 0.000E+00

     total cpu time spent up to now is      261.1 secs

     total energy              =    -181.57960856 Ry
     estimated scf accuracy    <          4.9E-13 Ry

     iteration #  4     ecut=    60.00 Ry     beta= 0.30
     CG style diagonalization

---- Real-time Memory Report at c_bands before calling an iterative solver
           221 MiB given to the printing process from OS
             0 MiB allocation reported by mallinfo(arena+hblkhd)
          1536 MiB available memory on the node where the printing process lives
------------------
     ethr =  1.00E-13,  avg # of iterations =  3.0

     negative rho (up, down):  3.889E-04 0.000E+00

     total cpu time spent up to now is      262.7 secs

     End of self-consistent calculation

          k = 0.0000 0.0000 0.0000 ( 10831 PWs)   bands (ev):

   -62.5359 -36.6775 -36.4709 -36.4709 -15.7277 -14.4311  -7.2501  -4.2476
    -4.2476  -3.4264  -3.1431  -3.1431  -1.6623   1.1099   1.1099   1.3504

     occupation numbers 
     1.0000   1.0000   1.0000   1.0000   1.0000   1.0000   1.0000   1.0000
     1.0000   1.0000   1.0000   1.0000   1.0000   0.0000   0.0000   0.0000

          k = 0.0000 0.0961 0.0000 ( 10837 PWs)   bands (ev):

   -62.5334 -36.6726 -36.4963 -36.4767 -15.6255 -14.3888  -7.1332  -4.4762
    -4.1407  -3.9095  -3.3061  -2.8183  -1.7134   0.9759   1.0734   1.2354

     occupation numbers 
     1.0000   1.0000   1.0000   1.0000   1.0000   1.0000   1.0000   1.0000
     1.0000   1.0000   1.0000   1.0000   1.0000   0.0000   0.0000   0.0000

          k = 0.0000 0.1923 0.0000 ( 10801 PWs)   bands (ev):

   -62.5265 -36.6590 -36.5653 -36.4924 -15.3351 -14.2686  -6.8387  -5.0017
    -4.5535  -3.8429  -3.6903  -2.7319  -1.9449   0.6415   0.9215   0.9678

     occupation numbers 
     1.0000   1.0000   1.0000   1.0000   1.0000   1.0000   1.0000   1.0000
     1.0000   1.0000   1.0000   1.0000   1.0000   0.0000   0.0000   0.0000

          k = 0.0000 0.2884 0.0000 ( 10783 PWs)   bands (ev):

   -62.5171 -36.6583 -36.6403 -36.5139 -14.9054 -14.0920  -6.6259  -5.4520
    -5.2097  -4.1212  -3.4256  -2.9771  -2.3715   0.5142   0.7021   1.2448

     occupation numbers 
     1.0000   1.0000   1.0000   1.0000   1.0000   1.0000   1.0000   1.0000
     1.0000   1.0000   1.0000   1.0000   1.0000   0.0000   0.0000   0.0000

          k = 0.0000 0.3846 0.0000 ( 10771 PWs)   bands (ev):

   -62.5078 -36.7500 -36.6216 -36.5353 -14.4236 -13.8980  -6.8705  -5.8169
    -5.5428  -4.4839  -3.2748  -3.0082  -2.6175   0.5601   0.6801   1.7330

     occupation numbers 
     1.0000   1.0000   1.0000   1.0000   1.0000   1.0000   1.0000   1.0000
     1.0000   1.0000   1.0000   1.0000   1.0000   0.0000   0.0000   0.0000

          k = 0.0000 0.4807 0.0000 ( 10728 PWs)   bands (ev):

   -62.5009 -36.8163 -36.6079 -36.5509 -14.0233 -13.7420  -7.2460  -6.2610
    -5.6337  -4.7194  -3.4636  -2.7188  -2.4489   0.5609   0.9487   2.0949

     occupation numbers 
     1.0000   1.0000   1.0000   1.0000   1.0000   1.0000   1.0000   1.0000
     1.0000   1.0000   1.0000   1.0000   1.0000   0.0000   0.0000   0.0000

          k = 0.0000-0.5769 0.0000 ( 10724 PWs)   bands (ev):

   -62.4984 -36.8404 -36.6029 -36.5565 -13.8629 -13.6815  -7.4062  -6.4254
    -5.7064  -4.8005  -3.5241  -2.6204  -2.2840   0.5910   1.0990   2.2123

     occupation numbers 
     1.0000   1.0000   1.0000   1.0000   1.0000   1.0000   1.0000   1.0000
     1.0000   1.0000   1.0000   1.0000   1.0000   0.0000   0.0000   0.0000

          k = 0.0833 0.1442 0.0000 ( 10801 PWs)   bands (ev):

   -62.5287 -36.6633 -36.5422 -36.4887 -15.4291 -14.3074  -6.9239  -4.8460
    -4.3370  -3.9467  -3.6853  -2.6291  -1.8554   0.7390   0.8354   1.0317

     occupation numbers 
     1.0000   1.0000   1.0000   1.0000   1.0000   1.0000   1.0000   1.0000
     1.0000   1.0000   1.0000   1.0000   1.0000   0.0000   0.0000   0.0000

          k = 0.0833 0.2404 0.0000 ( 10784 PWs)   bands (ev):

   -62.5206 -36.6471 -36.6199 -36.5107 -15.0681 -14.1580  -6.6389  -5.3188
    -4.8792  -4.2274  -3.6376  -2.6598  -2.1973   0.4471   0.8117   0.9119

     occupation numbers 
     1.0000   1.0000   1.0000   1.0000   1.0000   1.0000   1.0000   1.0000
     1.0000   1.0000   1.0000   1.0000   1.0000   0.0000   0.0000   0.0000

          k = 0.0833 0.3365 0.0000 ( 10788 PWs)   bands (ev):

   -62.5112 -36.7083 -36.6285 -36.5361 -14.6088 -13.9696  -6.6629  -5.5290
    -5.4988  -4.5868  -3.3919  -2.9522  -2.4951   0.3858   0.7654   1.3086

     occupation numbers 
     1.0000   1.0000   1.0000   1.0000   1.0000   1.0000   1.0000   1.0000
     1.0000   1.0000   1.0000   1.0000   1.0000   0.0000   0.0000   0.0000

          k = 0.0833 0.4326 0.0000 ( 10738 PWs)   bands (ev):

   -62.5031 -36.7838 -36.6123 -36.5580 -14.1598 -13.7893  -7.0064  -6.1171
    -5.5282  -4.7528  -3.2798  -3.2711  -2.3927   0.5211   0.8747   1.7902

     occupation numbers 
     1.0000   1.0000   1.0000   1.0000   1.0000   1.0000   1.0000   1.0000
     1.0000   1.0000   1.0000   1.0000   1.0000   0.0000   0.0000   0.0000

          k = 0.0833 0.5288 0.0000 ( 10708 PWs)   bands (ev):

   -62.4983 -36.8270 -36.6029 -36.5706 -13.8700 -13.6761  -7.2678  -6.4596
    -5.6487  -4.8084  -3.4814  -3.1448  -2.1529   0.6028   1.0977   2.1844

     occupation numbers 
     1.0000   1.0000   1.0000   1.0000   1.0000   1.0000   1.0000   1.0000
     1.0000   1.0000   1.0000   1.0000   1.0000   0.0000   0.0000   0.0000

          k = 0.1665 0.2884 0.0000 ( 10789 PWs)   bands (ev):

   -62.5125 -36.6869 -36.6310 -36.5425 -14.6749 -13.9944  -6.5593  -5.4622
    -5.3061  -4.8228  -3.6097  -2.6970  -2.4351   0.2790   0.8200   1.0167

     occupation numbers 
     1.0000   1.0000   1.0000   1.0000   1.0000   1.0000   1.0000   1.0000
     1.0000   1.0000   1.0000   1.0000   1.0000   0.0000   0.0000   0.0000

          k = 0.1665 0.3846 0.0000 ( 10761 PWs)   bands (ev):

   -62.5044 -36.7498 -36.6148 -36.5776 -14.2393 -13.8128  -6.7471  -5.9972
    -5.3685  -4.9280  -3.8783  -2.9969  -2.3919   0.4270   0.9010   1.3422

     occupation numbers 
     1.0000   1.0000   1.0000   1.0000   1.0000   1.0000   1.0000   1.0000
     1.0000   1.0000   1.0000   1.0000   1.0000   0.0000   0.0000   0.0000

          k = 0.1665 0.4807 0.0000 ( 10717 PWs)   bands (ev):

   -62.4984 -36.7943 -36.6045 -36.6029 -13.8839 -13.6654  -6.9433  -6.5223
    -5.4700  -4.8467  -4.0033  -3.3618  -2.1436   0.5585   1.1353   1.6840

     occupation numbers 
     1.0000   1.0000   1.0000   1.0000   1.0000   1.0000   1.0000   1.0000
     1.0000   1.0000   1.0000   1.0000   1.0000   0.0000   0.0000   0.0000

          k = 0.1665 0.5769 0.0000 ( 10718 PWs)   bands (ev):

   -62.4962 -36.8103 -36.6145 -36.5986 -13.7439 -13.6077  -7.0147  -6.7130
    -5.5890  -4.7762  -4.0003  -3.5365  -1.9668   0.4804   1.3814   1.8363

     occupation numbers 
     1.0000   1.0000   1.0000   1.0000   1.0000   1.0000   1.0000   1.0000
     1.0000   1.0000   1.0000   1.0000   1.0000   0.0000   0.0000   0.0000

          k = 0.2498 0.4326 0.0000 ( 10751 PWs)   bands (ev):

   -62.4984 -36.7725 -36.6269 -36.6029 -13.8908 -13.6600  -6.7472  -6.5512
    -5.2491  -4.8743  -4.5532  -3.2864  -2.1657   0.5190   1.1630   1.4395

     occupation numbers 
     1.0000   1.0000   1.0000   1.0000   1.0000   1.0000   1.0000   1.0000
     1.0000   1.0000   1.0000   1.0000   1.0000   0.0000   0.0000   0.0000

          k = 0.2498 0.5288 0.0000 ( 10703 PWs)   bands (ev):

   -62.4949 -36.7771 -36.6638 -36.5961 -13.6752 -13.5627  -6.8928  -6.6201
    -5.4579  -4.8544  -4.6798  -3.6166  -1.8559   0.2615   1.4912   1.6248

     occupation numbers 
     1.0000   1.0000   1.0000   1.0000   1.0000   1.0000   1.0000   1.0000
     1.0000   1.0000   1.0000   1.0000   1.0000   0.0000   0.0000   0.0000

          k = 0.3330 0.5769 0.0000 ( 10692 PWs)   bands (ev):

   -62.4936 -36.7494 -36.7070 -36.5936 -13.5976 -13.5221  -7.0383  -6.2260
    -5.7083  -5.1978  -4.5223  -3.8040  -1.6646   0.0222   1.3985   1.8790

     occupation numbers 
     1.0000   1.0000   1.0000   1.0000   1.0000   1.0000   1.0000   1.0000
     1.0000   1.0000   1.0000   1.0000   1.0000   0.0000   0.0000   0.0000

     highest occupied, lowest unoccupied level (ev):    -1.6623    0.0222

!    total energy              =    -181.57960856 Ry
     estimated scf accuracy    <          4.3E-14 Ry

     The total energy is the sum of the following terms:
     one-electron contribution =   -1379.80326317 Ry
     hartree contribution      =     689.46894321 Ry
     xc contribution           =     -29.68769145 Ry
     ewald contribution        =     538.44240285 Ry

     convergence has been achieved in   4 iterations

     negative rho (up, down):  3.889E-04 0.000E+00

     Forces acting on atoms (cartesian axes, Ry/au):

     atom    1 type  1   force =    -0.00000000   -0.00000000    0.00000000
     atom    2 type  2   force =     0.00000000    0.00000000    0.00000155
     atom    3 type  2   force =    -0.00000000   -0.00000000   -0.00000155
     The non-local contrib.  to forces
     atom    1 type  1   force =     0.00000000   -0.00000000    0.00000000
     atom    2 type  2   force =     0.00000000    0.00000000   -0.27347750
     atom    3 type  2   force =     0.00000000    0.00000000    0.27347750
     The ionic contribution  to forces
     atom    1 type  1   force =     0.00000000   -0.00000000    0.00000000
     atom    2 type  2   force =    -0.00000000    0.00000000   37.23272980
     atom    3 type  2   force =    -0.00000000    0.00000000  -37.23272980
     The local contribution  to forces
     atom    1 type  1   force =    -0.00000000    0.00000000    0.00000000
     atom    2 type  2   force =    -0.00000000    0.00000000  -36.96174845
     atom    3 type  2   force =    -0.00000000    0.00000000   36.96174845
     The core correction contribution to forces
     atom    1 type  1   force =     0.00000000   -0.00000000   -0.00000000
     atom    2 type  2   force =     0.00000000   -0.00000000    0.00249766
     atom    3 type  2   force =     0.00000000   -0.00000000   -0.00249766
     The Hubbard contrib.    to forces
     atom    1 type  1   force =     0.00000000    0.00000000    0.00000000
     atom    2 type  2   force =     0.00000000    0.00000000    0.00000000
     atom    3 type  2   force =     0.00000000    0.00000000    0.00000000
     The SCF correction term to forces
     atom    1 type  1   force =    -0.00000000   -0.00000000    0.00000000
     atom    2 type  2   force =     0.00000000    0.00000000    0.00000005
     atom    3 type  2   force =     0.00000000    0.00000000   -0.00000005

     Total force =     0.000002     Total SCF correction =     0.000000


     Computing stress (Cartesian axis) and pressure


     negative rho (up, down):  3.889E-04 0.000E+00
          total   stress  (Ry/bohr**3)                   (kbar)     P=       -0.26
   0.00000001   0.00000000   0.00000000            0.00        0.00        0.00
   0.00000000   0.00000001   0.00000000            0.00        0.00        0.00
   0.00000000   0.00000000  -0.00000531            0.00        0.00       -0.78

     kinetic stress (kbar)   4868.77      0.00      0.00
                                0.00   4868.77      0.00
                                0.00      0.00   4915.07

     local   stress (kbar)-146988.18      0.00     -0.00
                                0.00-146988.18     -0.00
                               -0.00     -0.00 143962.09

     nonloc. stress (kbar)   2227.70      0.00      0.00
                                0.00   2227.70      0.00
                                0.00      0.00   2217.64

     hartree stress (kbar)  72087.58     -0.00     -0.00
                               -0.00  72087.58     -0.00
                               -0.00     -0.00 -70297.12

     exc-cor stress (kbar)   -413.46     -0.00      0.00
                               -0.00   -413.46     -0.00
                                0.00     -0.00   -414.55

     corecor stress (kbar)   -547.84      0.00     -0.00
                                0.00   -547.84      0.00
                               -0.00      0.00   -548.27

     ewald   stress (kbar)  68765.43     -0.00      0.00
                               -0.00  68765.43      0.00
                                0.00      0.00 -79835.63

     hubbard stress (kbar)      0.00      0.00      0.00
                                0.00      0.00      0.00
                                0.00      0.00      0.00

     DFT-D   stress (kbar)      0.00      0.00      0.00
                                0.00      0.00      0.00
                                0.00      0.00      0.00

     XDM     stress (kbar)      0.00      0.00      0.00
                                0.00      0.00      0.00
                                0.00      0.00      0.00

     dft-nl  stress (kbar)      0.00      0.00      0.00
                                0.00      0.00      0.00
                                0.00      0.00      0.00

     TS-vdW  stress (kbar)      0.00      0.00      0.00
                                0.00      0.00      0.00
                                0.00      0.00      0.00

     MDB     stress (kbar)      0.00      0.00      0.00
                                0.00      0.00      0.00
                                0.00      0.00      0.00

     3D-RISM stress (kbar)      0.00      0.00      0.00
                                0.00      0.00      0.00
                                0.00      0.00      0.00

     Energy error            =      2.8E-13 Ry
     Gradient error          =      1.6E-06 Ry/Bohr
     Cell gradient error     =      8.3E-04 kbar
ibrav =      4
 celldm(1) =      6.01448416
 celldm(3) =      7.28620239
Input lattice vectors:
     1.00085785     0.00000000     0.00000000
    -0.50042892     0.86676832     0.00000000
     0.00000000     0.00000000     7.29245283
New lattice vectors in INITIAL alat:
     1.00085785     0.00000000     0.00000000
    -0.50042892     0.86676832     0.00000000
     0.00000000     0.00000000     7.29245283
New lattice vectors in NEW alat (for information only):
     1.00000000     0.00000000     0.00000000
    -0.50000000     0.86602540     0.00000000
     0.00000000     0.00000000     7.28620239
Discrepancy in bohr =     0.000000    0.000000    0.000000

     bfgs converged in  10 scf cycles and   9 bfgs steps
     (criteria: energy <  1.0E-07 Ry, force <  1.0E-05 Ry/Bohr, cell <  1.0E-01 kbar)

     End of BFGS Geometry Optimization

     Final enthalpy           =    -181.5796085632 Ry

     File ./tmp/mos2.bfgs deleted, as requested
Begin final coordinates
     new unit-cell volume =   1372.86242 a.u.^3 (   203.43722 Ang^3 )
     density =      1.30656 g/cm^3

CELL_PARAMETERS (alat=  6.00932908)
   1.000857846   0.000000000   0.000000000
  -0.500428923   0.866768320   0.000000000
   0.000000000   0.000000000   7.292452830

ATOMIC_POSITIONS (crystal)
Mo              -0.0000000000       -0.0000000000        0.5000000000
S                0.6666666667        0.3333333333        0.5674818991
S                0.6666666667        0.3333333333        0.4325181009
End final coordinates



     Writing config-only to output data dir ./tmp/mos2.save/ :
     XML data file

     Final scf calculation at the relaxed structure.
     The G-vectors are recalculated for the final unit cell
     Results may differ from those at the preceding step.
 
     Parallelization info
     --------------------
     sticks:   dense  smooth     PW     G-vecs:    dense   smooth      PW
     Min         148      74     21                30434    10762    1713
     Max         149      75     22                30463    10785    1735
     Sum        1189     595    169               243605    86143   13785
 
     Using Slab Decomposition
 


     bravais-lattice index     =            4
     lattice parameter (alat)  =       6.0093  a.u.
     unit-cell volume          =    1372.8624 (a.u.)^3
     number of atoms/cell      =            3
     number of atomic types    =            2
     number of electrons       =        26.00
     number of Kohn-Sham states=           16
     kinetic-energy cutoff     =      60.0000  Ry
     charge density cutoff     =     480.0000  Ry
     scf convergence threshold =      1.0E-13
     mixing beta               =       0.3000
     number of iterations used =            8  plain     mixing
     press convergence thresh. =      1.0E-01
     Exchange-correlation= PBE
                           (   1   4   3   4   0   0   0)

     celldm(1)=   6.009329  celldm(2)=   0.000000  celldm(3)=   7.292453
     celldm(4)=   0.000000  celldm(5)=   0.000000  celldm(6)=   0.000000

     crystal axes: (cart. coord. in units of alat)
               a(1) = (   1.000858   0.000000   0.000000 )  
               a(2) = (  -0.500429   0.866768   0.000000 )  
               a(3) = (   0.000000   0.000000   7.292453 )  

     reciprocal axes: (cart. coord. in units 2 pi/alat)
               b(1) = (  0.999143  0.576855  0.000000 )  
               b(2) = (  0.000000  1.153711  0.000000 )  
               b(3) = (  0.000000  0.000000  0.137128 )  


     PseudoPot. # 1 for Mo read from file:
     ../pseudo/Mo.pbe-spn-rrkjus_psl.1.0.0.UPF
     MD5 check sum: 03f09b12e49601d1a456a78ce8b2d514
     Pseudo is Ultrasoft + core correction, Zval = 14.0
     Generated using &quot;atomic&quot; code by A. Dal Corso  v.6.3
     Using radial grid of 1229 points,  6 beta functions with: 
                l(1) =   0
                l(2) =   0
                l(3) =   1
                l(4) =   1
                l(5) =   2
                l(6) =   2
     Q(r) pseudized with 0 coefficients 


     PseudoPot. # 2 for S  read from file:
     ../pseudo/S.pbe-n-rrkjus_psl.1.0.0.UPF
     MD5 check sum: 9d0fe39aa2a799ea84730884c9b010f4
     Pseudo is Ultrasoft + core correction, Zval =  6.0
     Generated using &quot;atomic&quot; code by A. Dal Corso  v.6.3
     Using radial grid of 1151 points,  6 beta functions with: 
                l(1) =   0
                l(2) =   0
                l(3) =   1
                l(4) =   1
                l(5) =   2
                l(6) =   2
     Q(r) pseudized with 0 coefficients 


     atomic species   valence    mass     pseudopotential
     Mo               14.00    95.95000     Mo( 1.00)
     S                 6.00    32.06000     S ( 1.00)

     12 Sym. Ops. (no inversion) found


                                    s                        frac. trans.

      isym =  1     identity                                     

 cryst.   s( 1) = (     1          0          0      )
                  (     0          1          0      )
                  (     0          0          1      )

 cart.    s( 1) = (  1.0000000  0.0000000  0.0000000 )
                  (  0.0000000  1.0000000  0.0000000 )
                  (  0.0000000  0.0000000  1.0000000 )


      isym =  2     180 deg rotation - cart. axis [0,1,0]        

 cryst.   s( 2) = (    -1          0          0      )
                  (     1          1          0      )
                  (     0          0         -1      )

 cart.    s( 2) = ( -1.0000000  0.0000000  0.0000000 )
                  (  0.0000000  1.0000000  0.0000000 )
                  (  0.0000000  0.0000000 -1.0000000 )


      isym =  3     120 deg rotation - cryst. axis [0,0,1]       

 cryst.   s( 3) = (     0          1          0      )
                  (    -1         -1          0      )
                  (     0          0          1      )

 cart.    s( 3) = ( -0.5000000 -0.8660254  0.0000000 )
                  (  0.8660254 -0.5000000  0.0000000 )
                  (  0.0000000  0.0000000  1.0000000 )


      isym =  4     120 deg rotation - cryst. axis [0,0,-1]      

 cryst.   s( 4) = (    -1         -1          0      )
                  (     1          0          0      )
                  (     0          0          1      )

 cart.    s( 4) = ( -0.5000000  0.8660254  0.0000000 )
                  ( -0.8660254 -0.5000000  0.0000000 )
                  (  0.0000000  0.0000000  1.0000000 )


      isym =  5     180 deg rotation - cryst. axis [1,-1,0]      

 cryst.   s( 5) = (     0         -1          0      )
                  (    -1          0          0      )
                  (     0          0         -1      )

 cart.    s( 5) = (  0.5000000 -0.8660254  0.0000000 )
                  ( -0.8660254 -0.5000000  0.0000000 )
                  (  0.0000000  0.0000000 -1.0000000 )


      isym =  6     180 deg rotation - cryst. axis [2,1,0]       

 cryst.   s( 6) = (     1          1          0      )
                  (     0         -1          0      )
                  (     0          0         -1      )

 cart.    s( 6) = (  0.5000000  0.8660254  0.0000000 )
                  (  0.8660254 -0.5000000  0.0000000 )
                  (  0.0000000  0.0000000 -1.0000000 )


      isym =  7     inv. 180 deg rotation - cart. axis [0,0,1]   

 cryst.   s( 7) = (     1          0          0      )
                  (     0          1          0      )
                  (     0          0         -1      )

 cart.    s( 7) = (  1.0000000  0.0000000  0.0000000 )
                  (  0.0000000  1.0000000  0.0000000 )
                  (  0.0000000  0.0000000 -1.0000000 )


      isym =  8     inv. 180 deg rotation - cart. axis [1,0,0]   

 cryst.   s( 8) = (    -1          0          0      )
                  (     1          1          0      )
                  (     0          0          1      )

 cart.    s( 8) = ( -1.0000000  0.0000000  0.0000000 )
                  (  0.0000000  1.0000000  0.0000000 )
                  (  0.0000000  0.0000000  1.0000000 )


      isym =  9     inv.  60 deg rotation - cryst. axis [0,0,1]  

 cryst.   s( 9) = (    -1         -1          0      )
                  (     1          0          0      )
                  (     0          0         -1      )

 cart.    s( 9) = ( -0.5000000  0.8660254  0.0000000 )
                  ( -0.8660254 -0.5000000  0.0000000 )
                  (  0.0000000  0.0000000 -1.0000000 )


      isym = 10     inv.  60 deg rotation - cryst. axis [0,0,-1] 

 cryst.   s(10) = (     0          1          0      )
                  (    -1         -1          0      )
                  (     0          0         -1      )

 cart.    s(10) = ( -0.5000000 -0.8660254  0.0000000 )
                  (  0.8660254 -0.5000000  0.0000000 )
                  (  0.0000000  0.0000000 -1.0000000 )


      isym = 11     inv. 180 deg rotation - cryst. axis [0,1,0]  

 cryst.   s(11) = (     1          1          0      )
                  (     0         -1          0      )
                  (     0          0          1      )

 cart.    s(11) = (  0.5000000  0.8660254  0.0000000 )
                  (  0.8660254 -0.5000000  0.0000000 )
                  (  0.0000000  0.0000000  1.0000000 )


      isym = 12     inv. 180 deg rotation - cryst. axis [1,1,0]  

 cryst.   s(12) = (     0         -1          0      )
                  (    -1          0          0      )
                  (     0          0          1      )

 cart.    s(12) = (  0.5000000 -0.8660254  0.0000000 )
                  ( -0.8660254 -0.5000000  0.0000000 )
                  (  0.0000000  0.0000000  1.0000000 )


     point group D_3h (-62m)
     there are  6 classes
     the character table:

       E     2C3   3C2   s_h   2S3   3s_v 
A'_1   1.00  1.00  1.00  1.00  1.00  1.00
A'_2   1.00  1.00 -1.00  1.00  1.00 -1.00
E'     2.00 -1.00  0.00  2.00 -1.00  0.00
A''1   1.00  1.00  1.00 -1.00 -1.00 -1.00
A''2   1.00  1.00 -1.00 -1.00 -1.00  1.00
E''    2.00 -1.00  0.00 -2.00  1.00  0.00

     the symmetry operations in each class and the name of the first element:

     E        1
          identity                                               
     2C3      3    4
          120 deg rotation - cryst. axis [0,0,1]                 
     3C2      2    6    5
          180 deg rotation - cart. axis [0,1,0]                  
     s_h      7
          inv. 180 deg rotation - cart. axis [0,0,1]             
     2S3      9   10
          inv.  60 deg rotation - cryst. axis [0,0,1]            
     3s_v     8   11   12
          inv. 180 deg rotation - cart. axis [1,0,0]             

   Cartesian axes

     site n.     atom                  positions (alat units)
         1        Mo     tau(   1) = (  -0.0000000  -0.0000000   3.6462264  )
         2        S      tau(   2) = (   0.5004289   0.2889228   4.1383350  )
         3        S      tau(   3) = (   0.5004289   0.2889228   3.1541178  )

   Crystallographic axes

     site n.     atom                  positions (cryst. coord.)
         1        Mo     tau(   1) = ( -0.0000000 -0.0000000  0.5000000  )
         2        S      tau(   2) = (  0.6666667  0.3333333  0.5674819  )
         3        S      tau(   3) = (  0.6666667  0.3333333  0.4325181  )

     number of k points=    19
                       cart. coord. in units 2pi/alat
        k(    1) = (   0.0000000   0.0000000   0.0000000), wk =   0.0138889
        k(    2) = (   0.0000000   0.0961426   0.0000000), wk =   0.0833333
        k(    3) = (   0.0000000   0.1922851   0.0000000), wk =   0.0833333
        k(    4) = (   0.0000000   0.2884277   0.0000000), wk =   0.0833333
        k(    5) = (   0.0000000   0.3845703   0.0000000), wk =   0.0833333
        k(    6) = (   0.0000000   0.4807128   0.0000000), wk =   0.0833333
        k(    7) = (   0.0000000  -0.5768554   0.0000000), wk =   0.0416667
        k(    8) = (   0.0832619   0.1442139   0.0000000), wk =   0.0833333
        k(    9) = (   0.0832619   0.2403564   0.0000000), wk =   0.1666667
        k(   10) = (   0.0832619   0.3364990   0.0000000), wk =   0.1666667
        k(   11) = (   0.0832619   0.4326416   0.0000000), wk =   0.1666667
        k(   12) = (   0.0832619   0.5287841   0.0000000), wk =   0.1666667
        k(   13) = (   0.1665238   0.2884277   0.0000000), wk =   0.0833333
        k(   14) = (   0.1665238   0.3845703   0.0000000), wk =   0.1666667
        k(   15) = (   0.1665238   0.4807128   0.0000000), wk =   0.1666667
        k(   16) = (   0.1665238   0.5768554   0.0000000), wk =   0.0833333
        k(   17) = (   0.2497857   0.4326416   0.0000000), wk =   0.0833333
        k(   18) = (   0.2497857   0.5287841   0.0000000), wk =   0.1666667
        k(   19) = (   0.3330476   0.5768554   0.0000000), wk =   0.0277778

                       cryst. coord.
        k(    1) = (   0.0000000   0.0000000   0.0000000), wk =   0.0138889
        k(    2) = (   0.0000000   0.0833333   0.0000000), wk =   0.0833333
        k(    3) = (   0.0000000   0.1666667   0.0000000), wk =   0.0833333
        k(    4) = (   0.0000000   0.2500000   0.0000000), wk =   0.0833333
        k(    5) = (   0.0000000   0.3333333   0.0000000), wk =   0.0833333
        k(    6) = (   0.0000000   0.4166667   0.0000000), wk =   0.0833333
        k(    7) = (   0.0000000  -0.5000000   0.0000000), wk =   0.0416667
        k(    8) = (   0.0833333   0.0833333   0.0000000), wk =   0.0833333
        k(    9) = (   0.0833333   0.1666667   0.0000000), wk =   0.1666667
        k(   10) = (   0.0833333   0.2500000   0.0000000), wk =   0.1666667
        k(   11) = (   0.0833333   0.3333333   0.0000000), wk =   0.1666667
        k(   12) = (   0.0833333   0.4166667   0.0000000), wk =   0.1666667
        k(   13) = (   0.1666667   0.1666667   0.0000000), wk =   0.0833333
        k(   14) = (   0.1666667   0.2500000   0.0000000), wk =   0.1666667
        k(   15) = (   0.1666667   0.3333333   0.0000000), wk =   0.1666667
        k(   16) = (   0.1666667   0.4166667   0.0000000), wk =   0.0833333
        k(   17) = (   0.2500000   0.2500000   0.0000000), wk =   0.0833333
        k(   18) = (   0.2500000   0.3333333   0.0000000), wk =   0.1666667
        k(   19) = (   0.3333333   0.3333333   0.0000000), wk =   0.0277778

     Dense  grid:   243605 G-vectors     FFT dimensions: (  45,  45, 320)

     Smooth grid:    86143 G-vectors     FFT dimensions: (  30,  30, 225)

     Dynamical RAM for                 wfc:       0.33 MB

     Dynamical RAM for     wfc (w. buffer):       6.57 MB

     Dynamical RAM for           str. fact:       0.93 MB

     Dynamical RAM for           local pot:       0.46 MB

     Dynamical RAM for          nlocal pot:       1.11 MB

     Dynamical RAM for                qrad:       7.03 MB

     Dynamical RAM for          rho,v,vnew:       3.25 MB

     Dynamical RAM for               rhoin:       1.08 MB

     Dynamical RAM for            rho*nmix:       7.44 MB

     Dynamical RAM for           G-vectors:       1.83 MB

     Dynamical RAM for          h,s,v(r/c):       0.01 MB

     Dynamical RAM for          <psi|beta>:       0.01 MB

     Dynamical RAM for      wfcinit/wfcrot:       0.75 MB

     Dynamical RAM for           addusdens:      87.38 MB

     Dynamical RAM for          addusforce:      88.55 MB

     Dynamical RAM for         addusstress:      93.42 MB

     Estimated static dynamical RAM per process >      26.75 MB

     Estimated max dynamical RAM per process >     127.61 MB

     Estimated total dynamical RAM >    1020.86 MB

     Initial potential from superposition of free atoms

     starting charge      25.9991, renormalised to      26.0000

     negative rho (up, down):  3.285E-04 0.000E+00
     Starting wfcs are   18 randomized atomic wfcs

     total cpu time spent up to now is      265.3 secs

     Self-consistent Calculation

     iteration #  1     ecut=    60.00 Ry     beta= 0.30
     CG style diagonalization

---- Real-time Memory Report at c_bands before calling an iterative solver
           222 MiB given to the printing process from OS
             0 MiB allocation reported by mallinfo(arena+hblkhd)
          1575 MiB available memory on the node where the printing process lives
------------------
     ethr =  1.00E-06,  avg # of iterations = 11.4

     negative rho (up, down):  3.494E-04 0.000E+00

     total cpu time spent up to now is      269.8 secs

     total energy              =    -181.56803598 Ry
     estimated scf accuracy    <       0.11965498 Ry

     iteration #  2     ecut=    60.00 Ry     beta= 0.30
     CG style diagonalization

---- Real-time Memory Report at c_bands before calling an iterative solver
           222 MiB given to the printing process from OS
             0 MiB allocation reported by mallinfo(arena+hblkhd)
          1485 MiB available memory on the node where the printing process lives
------------------
     ethr =  4.60E-04,  avg # of iterations =  3.5

     negative rho (up, down):  3.621E-04 0.000E+00

     total cpu time spent up to now is      271.6 secs

     total energy              =    -181.57473532 Ry
     estimated scf accuracy    <       0.03298659 Ry

     iteration #  3     ecut=    60.00 Ry     beta= 0.30
     CG style diagonalization

---- Real-time Memory Report at c_bands before calling an iterative solver
           222 MiB given to the printing process from OS
             0 MiB allocation reported by mallinfo(arena+hblkhd)
          1477 MiB available memory on the node where the printing process lives
------------------
     ethr =  1.27E-04,  avg # of iterations =  3.3

     negative rho (up, down):  3.712E-04 0.000E+00

     total cpu time spent up to now is      273.3 secs

     total energy              =    -181.57854843 Ry
     estimated scf accuracy    <       0.00980076 Ry

     iteration #  4     ecut=    60.00 Ry     beta= 0.30
     CG style diagonalization

---- Real-time Memory Report at c_bands before calling an iterative solver
           222 MiB given to the printing process from OS
             0 MiB allocation reported by mallinfo(arena+hblkhd)
          1473 MiB available memory on the node where the printing process lives
------------------
     ethr =  3.77E-05,  avg # of iterations =  3.6

     negative rho (up, down):  3.827E-04 0.000E+00

     total cpu time spent up to now is      275.1 secs

     total energy              =    -181.57920172 Ry
     estimated scf accuracy    <       0.00198489 Ry

     iteration #  5     ecut=    60.00 Ry     beta= 0.30
     CG style diagonalization

---- Real-time Memory Report at c_bands before calling an iterative solver
           222 MiB given to the printing process from OS
             0 MiB allocation reported by mallinfo(arena+hblkhd)
          1470 MiB available memory on the node where the printing process lives
------------------
     ethr =  7.63E-06,  avg # of iterations =  3.9

     negative rho (up, down):  3.819E-04 0.000E+00

     total cpu time spent up to now is      277.0 secs

     total energy              =    -181.57945061 Ry
     estimated scf accuracy    <       0.00148553 Ry

     iteration #  6     ecut=    60.00 Ry     beta= 0.30
     CG style diagonalization

---- Real-time Memory Report at c_bands before calling an iterative solver
           222 MiB given to the printing process from OS
             0 MiB allocation reported by mallinfo(arena+hblkhd)
          1514 MiB available memory on the node where the printing process lives
------------------
     ethr =  5.71E-06,  avg # of iterations =  3.2

     negative rho (up, down):  3.812E-04 0.000E+00

     total cpu time spent up to now is      278.7 secs

     total energy              =    -181.57956642 Ry
     estimated scf accuracy    <       0.00007950 Ry

     iteration #  7     ecut=    60.00 Ry     beta= 0.30
     CG style diagonalization

---- Real-time Memory Report at c_bands before calling an iterative solver
           222 MiB given to the printing process from OS
             0 MiB allocation reported by mallinfo(arena+hblkhd)
          1455 MiB available memory on the node where the printing process lives
------------------
     ethr =  3.06E-07,  avg # of iterations =  4.6

     negative rho (up, down):  3.817E-04 0.000E+00

     total cpu time spent up to now is      280.9 secs

     total energy              =    -181.57962205 Ry
     estimated scf accuracy    <       0.00015419 Ry

     iteration #  8     ecut=    60.00 Ry     beta= 0.30
     CG style diagonalization

---- Real-time Memory Report at c_bands before calling an iterative solver
           222 MiB given to the printing process from OS
             0 MiB allocation reported by mallinfo(arena+hblkhd)
          1502 MiB available memory on the node where the printing process lives
------------------
     ethr =  3.06E-07,  avg # of iterations =  3.0

     negative rho (up, down):  3.825E-04 0.000E+00

     total cpu time spent up to now is      282.5 secs

     total energy              =    -181.57961432 Ry
     estimated scf accuracy    <       0.00006038 Ry

     iteration #  9     ecut=    60.00 Ry     beta= 0.30
     CG style diagonalization

---- Real-time Memory Report at c_bands before calling an iterative solver
           222 MiB given to the printing process from OS
             0 MiB allocation reported by mallinfo(arena+hblkhd)
          1463 MiB available memory on the node where the printing process lives
------------------
     ethr =  2.32E-07,  avg # of iterations =  3.4

     negative rho (up, down):  3.831E-04 0.000E+00

     total cpu time spent up to now is      284.3 secs

     total energy              =    -181.57961801 Ry
     estimated scf accuracy    <       0.00000620 Ry

     iteration # 10     ecut=    60.00 Ry     beta= 0.30
     CG style diagonalization

---- Real-time Memory Report at c_bands before calling an iterative solver
           222 MiB given to the printing process from OS
             0 MiB allocation reported by mallinfo(arena+hblkhd)
          1433 MiB available memory on the node where the printing process lives
------------------
     ethr =  2.39E-08,  avg # of iterations =  4.2

     negative rho (up, down):  3.837E-04 0.000E+00

     total cpu time spent up to now is      286.3 secs

     total energy              =    -181.57961961 Ry
     estimated scf accuracy    <       0.00000010 Ry

     iteration # 11     ecut=    60.00 Ry     beta= 0.30
     CG style diagonalization

---- Real-time Memory Report at c_bands before calling an iterative solver
           222 MiB given to the printing process from OS
             0 MiB allocation reported by mallinfo(arena+hblkhd)
          1444 MiB available memory on the node where the printing process lives
------------------
     ethr =  3.72E-10,  avg # of iterations =  5.9

     negative rho (up, down):  3.840E-04 0.000E+00

     total cpu time spent up to now is      288.9 secs

     total energy              =    -181.57961972 Ry
     estimated scf accuracy    <       0.00000003 Ry

     iteration # 12     ecut=    60.00 Ry     beta= 0.30
     CG style diagonalization

---- Real-time Memory Report at c_bands before calling an iterative solver
           222 MiB given to the printing process from OS
             0 MiB allocation reported by mallinfo(arena+hblkhd)
          1502 MiB available memory on the node where the printing process lives
------------------
     ethr =  1.29E-10,  avg # of iterations =  5.0

     negative rho (up, down):  3.843E-04 0.000E+00

     total cpu time spent up to now is      291.2 secs

     total energy              =    -181.57961969 Ry
     estimated scf accuracy    <       0.00000039 Ry

     iteration # 13     ecut=    60.00 Ry     beta= 0.30
     CG style diagonalization

---- Real-time Memory Report at c_bands before calling an iterative solver
           222 MiB given to the printing process from OS
             0 MiB allocation reported by mallinfo(arena+hblkhd)
          1450 MiB available memory on the node where the printing process lives
------------------
     ethr =  1.29E-10,  avg # of iterations =  4.5

     negative rho (up, down):  3.846E-04 0.000E+00

     total cpu time spent up to now is      293.3 secs

     total energy              =    -181.57961973 Ry
     estimated scf accuracy    <          1.9E-09 Ry

     iteration # 14     ecut=    60.00 Ry     beta= 0.30
     CG style diagonalization

---- Real-time Memory Report at c_bands before calling an iterative solver
           222 MiB given to the printing process from OS
             0 MiB allocation reported by mallinfo(arena+hblkhd)
          1456 MiB available memory on the node where the printing process lives
------------------
     ethr =  7.19E-12,  avg # of iterations =  4.9

     negative rho (up, down):  3.847E-04 0.000E+00

     total cpu time spent up to now is      295.5 secs

     total energy              =    -181.57961973 Ry
     estimated scf accuracy    <          5.5E-10 Ry

     iteration # 15     ecut=    60.00 Ry     beta= 0.30
     CG style diagonalization

---- Real-time Memory Report at c_bands before calling an iterative solver
           222 MiB given to the printing process from OS
             0 MiB allocation reported by mallinfo(arena+hblkhd)
          1457 MiB available memory on the node where the printing process lives
------------------
     ethr =  2.10E-12,  avg # of iterations =  3.6

     negative rho (up, down):  3.848E-04 0.000E+00

     total cpu time spent up to now is      297.3 secs

     total energy              =    -181.57961974 Ry
     estimated scf accuracy    <          4.1E-10 Ry

     iteration # 16     ecut=    60.00 Ry     beta= 0.30
     CG style diagonalization

---- Real-time Memory Report at c_bands before calling an iterative solver
           222 MiB given to the printing process from OS
             0 MiB allocation reported by mallinfo(arena+hblkhd)
          1447 MiB available memory on the node where the printing process lives
------------------
     ethr =  1.58E-12,  avg # of iterations =  3.0

     negative rho (up, down):  3.849E-04 0.000E+00

     total cpu time spent up to now is      298.9 secs

     total energy              =    -181.57961974 Ry
     estimated scf accuracy    <          1.6E-10 Ry

     iteration # 17     ecut=    60.00 Ry     beta= 0.30
     CG style diagonalization

---- Real-time Memory Report at c_bands before calling an iterative solver
           222 MiB given to the printing process from OS
             0 MiB allocation reported by mallinfo(arena+hblkhd)
          1555 MiB available memory on the node where the printing process lives
------------------
     ethr =  6.25E-13,  avg # of iterations =  3.9

     negative rho (up, down):  3.850E-04 0.000E+00

     total cpu time spent up to now is      300.9 secs

     total energy              =    -181.57961974 Ry
     estimated scf accuracy    <          1.8E-12 Ry

     iteration # 18     ecut=    60.00 Ry     beta= 0.30
     CG style diagonalization

---- Real-time Memory Report at c_bands before calling an iterative solver
           222 MiB given to the printing process from OS
             0 MiB allocation reported by mallinfo(arena+hblkhd)
          1437 MiB available memory on the node where the printing process lives
------------------
     ethr =  1.00E-13,  avg # of iterations =  3.9

     negative rho (up, down):  3.850E-04 0.000E+00

     total cpu time spent up to now is      302.8 secs

     total energy              =    -181.57961974 Ry
     estimated scf accuracy    <          5.7E-13 Ry

     iteration # 19     ecut=    60.00 Ry     beta= 0.30
     CG style diagonalization

---- Real-time Memory Report at c_bands before calling an iterative solver
           222 MiB given to the printing process from OS
             0 MiB allocation reported by mallinfo(arena+hblkhd)
          1440 MiB available memory on the node where the printing process lives
------------------
     ethr =  1.00E-13,  avg # of iterations =  3.0

     negative rho (up, down):  3.851E-04 0.000E+00

     total cpu time spent up to now is      304.4 secs

     End of self-consistent calculation

          k = 0.0000 0.0000 0.0000 ( 10831 PWs)   bands (ev):

   -62.5359 -36.6775 -36.4709 -36.4709 -15.7277 -14.4311  -7.2501  -4.2476
    -4.2476  -3.4264  -3.1431  -3.1431  -1.6623   1.1099   1.1099   1.3504

     occupation numbers 
     1.0000   1.0000   1.0000   1.0000   1.0000   1.0000   1.0000   1.0000
     1.0000   1.0000   1.0000   1.0000   1.0000   0.0000   0.0000   0.0000

          k = 0.0000 0.0961 0.0000 ( 10855 PWs)   bands (ev):

   -62.5334 -36.6726 -36.4963 -36.4767 -15.6255 -14.3888  -7.1332  -4.4762
    -4.1407  -3.9095  -3.3061  -2.8184  -1.7134   0.9759   1.0734   1.2354

     occupation numbers 
     1.0000   1.0000   1.0000   1.0000   1.0000   1.0000   1.0000   1.0000
     1.0000   1.0000   1.0000   1.0000   1.0000   0.0000   0.0000   0.0000

          k = 0.0000 0.1923 0.0000 ( 10815 PWs)   bands (ev):

   -62.5265 -36.6590 -36.5653 -36.4924 -15.3351 -14.2686  -6.8387  -5.0018
    -4.5535  -3.8429  -3.6903  -2.7319  -1.9449   0.6415   0.9215   0.9678

     occupation numbers 
     1.0000   1.0000   1.0000   1.0000   1.0000   1.0000   1.0000   1.0000
     1.0000   1.0000   1.0000   1.0000   1.0000   0.0000   0.0000   0.0000

          k = 0.0000 0.2884 0.0000 ( 10821 PWs)   bands (ev):

   -62.5172 -36.6583 -36.6403 -36.5139 -14.9054 -14.0920  -6.6259  -5.4520
    -5.2097  -4.1212  -3.4256  -2.9771  -2.3715   0.5142   0.7021   1.2448

     occupation numbers 
     1.0000   1.0000   1.0000   1.0000   1.0000   1.0000   1.0000   1.0000
     1.0000   1.0000   1.0000   1.0000   1.0000   0.0000   0.0000   0.0000

          k = 0.0000 0.3846 0.0000 ( 10779 PWs)   bands (ev):

   -62.5078 -36.7500 -36.6216 -36.5353 -14.4236 -13.8980  -6.8705  -5.8169
    -5.5428  -4.4839  -3.2748  -3.0082  -2.6175   0.5601   0.6801   1.7330

     occupation numbers 
     1.0000   1.0000   1.0000   1.0000   1.0000   1.0000   1.0000   1.0000
     1.0000   1.0000   1.0000   1.0000   1.0000   0.0000   0.0000   0.0000

          k = 0.0000 0.4807 0.0000 ( 10747 PWs)   bands (ev):

   -62.5009 -36.8163 -36.6079 -36.5508 -14.0233 -13.7421  -7.2461  -6.2610
    -5.6337  -4.7194  -3.4636  -2.7188  -2.4489   0.5609   0.9487   2.0949

     occupation numbers 
     1.0000   1.0000   1.0000   1.0000   1.0000   1.0000   1.0000   1.0000
     1.0000   1.0000   1.0000   1.0000   1.0000   0.0000   0.0000   0.0000

          k = 0.0000-0.5769 0.0000 ( 10724 PWs)   bands (ev):

   -62.4984 -36.8404 -36.6029 -36.5565 -13.8629 -13.6815  -7.4062  -6.4254
    -5.7064  -4.8005  -3.5241  -2.6204  -2.2840   0.5910   1.0990   2.2123

     occupation numbers 
     1.0000   1.0000   1.0000   1.0000   1.0000   1.0000   1.0000   1.0000
     1.0000   1.0000   1.0000   1.0000   1.0000   0.0000   0.0000   0.0000

          k = 0.0833 0.1442 0.0000 ( 10813 PWs)   bands (ev):

   -62.5287 -36.6633 -36.5422 -36.4887 -15.4291 -14.3074  -6.9239  -4.8460
    -4.3370  -3.9467  -3.6853  -2.6291  -1.8554   0.7390   0.8354   1.0317

     occupation numbers 
     1.0000   1.0000   1.0000   1.0000   1.0000   1.0000   1.0000   1.0000
     1.0000   1.0000   1.0000   1.0000   1.0000   0.0000   0.0000   0.0000

          k = 0.0833 0.2404 0.0000 ( 10796 PWs)   bands (ev):

   -62.5206 -36.6472 -36.6199 -36.5107 -15.0681 -14.1580  -6.6389  -5.3188
    -4.8792  -4.2274  -3.6376  -2.6598  -2.1973   0.4471   0.8117   0.9119

     occupation numbers 
     1.0000   1.0000   1.0000   1.0000   1.0000   1.0000   1.0000   1.0000
     1.0000   1.0000   1.0000   1.0000   1.0000   0.0000   0.0000   0.0000

          k = 0.0833 0.3365 0.0000 ( 10814 PWs)   bands (ev):

   -62.5113 -36.7083 -36.6285 -36.5361 -14.6088 -13.9696  -6.6630  -5.5290
    -5.4988  -4.5868  -3.3919  -2.9523  -2.4951   0.3858   0.7654   1.3086

     occupation numbers 
     1.0000   1.0000   1.0000   1.0000   1.0000   1.0000   1.0000   1.0000
     1.0000   1.0000   1.0000   1.0000   1.0000   0.0000   0.0000   0.0000

          k = 0.0833 0.4326 0.0000 ( 10766 PWs)   bands (ev):

   -62.5031 -36.7838 -36.6123 -36.5580 -14.1598 -13.7893  -7.0064  -6.1171
    -5.5283  -4.7528  -3.2798  -3.2711  -2.3927   0.5211   0.8747   1.7902

     occupation numbers 
     1.0000   1.0000   1.0000   1.0000   1.0000   1.0000   1.0000   1.0000
     1.0000   1.0000   1.0000   1.0000   1.0000   0.0000   0.0000   0.0000

          k = 0.0833 0.5288 0.0000 ( 10730 PWs)   bands (ev):

   -62.4984 -36.8269 -36.6029 -36.5706 -13.8700 -13.6761  -7.2678  -6.4596
    -5.6487  -4.8084  -3.4814  -3.1448  -2.1529   0.6028   1.0977   2.1844

     occupation numbers 
     1.0000   1.0000   1.0000   1.0000   1.0000   1.0000   1.0000   1.0000
     1.0000   1.0000   1.0000   1.0000   1.0000   0.0000   0.0000   0.0000

          k = 0.1665 0.2884 0.0000 ( 10805 PWs)   bands (ev):

   -62.5125 -36.6869 -36.6310 -36.5425 -14.6749 -13.9944  -6.5593  -5.4622
    -5.3061  -4.8228  -3.6097  -2.6970  -2.4351   0.2790   0.8200   1.0167

     occupation numbers 
     1.0000   1.0000   1.0000   1.0000   1.0000   1.0000   1.0000   1.0000
     1.0000   1.0000   1.0000   1.0000   1.0000   0.0000   0.0000   0.0000

          k = 0.1665 0.3846 0.0000 ( 10771 PWs)   bands (ev):

   -62.5044 -36.7498 -36.6148 -36.5776 -14.2393 -13.8128  -6.7472  -5.9972
    -5.3685  -4.9280  -3.8783  -2.9969  -2.3919   0.4270   0.9010   1.3422

     occupation numbers 
     1.0000   1.0000   1.0000   1.0000   1.0000   1.0000   1.0000   1.0000
     1.0000   1.0000   1.0000   1.0000   1.0000   0.0000   0.0000   0.0000

          k = 0.1665 0.4807 0.0000 ( 10728 PWs)   bands (ev):

   -62.4984 -36.7943 -36.6045 -36.6029 -13.8839 -13.6654  -6.9433  -6.5223
    -5.4700  -4.8467  -4.0033  -3.3618  -2.1436   0.5585   1.1353   1.6840

     occupation numbers 
     1.0000   1.0000   1.0000   1.0000   1.0000   1.0000   1.0000   1.0000
     1.0000   1.0000   1.0000   1.0000   1.0000   0.0000   0.0000   0.0000

          k = 0.1665 0.5769 0.0000 ( 10730 PWs)   bands (ev):

   -62.4962 -36.8103 -36.6145 -36.5986 -13.7439 -13.6077  -7.0147  -6.7130
    -5.5890  -4.7762  -4.0003  -3.5365  -1.9668   0.4804   1.3814   1.8363

     occupation numbers 
     1.0000   1.0000   1.0000   1.0000   1.0000   1.0000   1.0000   1.0000
     1.0000   1.0000   1.0000   1.0000   1.0000   0.0000   0.0000   0.0000

          k = 0.2498 0.4326 0.0000 ( 10759 PWs)   bands (ev):

   -62.4984 -36.7725 -36.6269 -36.6029 -13.8908 -13.6600  -6.7472  -6.5512
    -5.2491  -4.8743  -4.5532  -3.2864  -2.1657   0.5190   1.1630   1.4395

     occupation numbers 
     1.0000   1.0000   1.0000   1.0000   1.0000   1.0000   1.0000   1.0000
     1.0000   1.0000   1.0000   1.0000   1.0000   0.0000   0.0000   0.0000

          k = 0.2498 0.5288 0.0000 ( 10718 PWs)   bands (ev):

   -62.4949 -36.7771 -36.6638 -36.5961 -13.6752 -13.5627  -6.8928  -6.6201
    -5.4579  -4.8544  -4.6798  -3.6166  -1.8559   0.2615   1.4912   1.6248

     occupation numbers 
     1.0000   1.0000   1.0000   1.0000   1.0000   1.0000   1.0000   1.0000
     1.0000   1.0000   1.0000   1.0000   1.0000   0.0000   0.0000   0.0000

          k = 0.3330 0.5769 0.0000 ( 10692 PWs)   bands (ev):

   -62.4936 -36.7494 -36.7069 -36.5936 -13.5976 -13.5221  -7.0383  -6.2260
    -5.7083  -5.1978  -4.5223  -3.8040  -1.6646   0.0222   1.3985   1.8790

     occupation numbers 
     1.0000   1.0000   1.0000   1.0000   1.0000   1.0000   1.0000   1.0000
     1.0000   1.0000   1.0000   1.0000   1.0000   0.0000   0.0000   0.0000

     highest occupied, lowest unoccupied level (ev):    -1.6623    0.0222

!    total energy              =    -181.57961974 Ry
     estimated scf accuracy    <          6.7E-14 Ry

     The total energy is the sum of the following terms:
     one-electron contribution =   -1379.80327138 Ry
     hartree contribution      =     689.46894413 Ry
     xc contribution           =     -29.68769534 Ry
     ewald contribution        =     538.44240285 Ry

     convergence has been achieved in  19 iterations

     negative rho (up, down):  3.851E-04 0.000E+00

     Forces acting on atoms (cartesian axes, Ry/au):

     atom    1 type  1   force =     0.00000000    0.00000000    0.00000000
     atom    2 type  2   force =     0.00000000    0.00000000    0.00000181
     atom    3 type  2   force =     0.00000000    0.00000000   -0.00000181
     The non-local contrib.  to forces
     atom    1 type  1   force =     0.00000000    0.00000000    0.00000000
     atom    2 type  2   force =     0.00000000   -0.00000000   -0.27347741
     atom    3 type  2   force =    -0.00000000   -0.00000000    0.27347741
     The ionic contribution  to forces
     atom    1 type  1   force =     0.00000000   -0.00000000   -0.00000000
     atom    2 type  2   force =    -0.00000000    0.00000000   37.23272980
     atom    3 type  2   force =    -0.00000000    0.00000000  -37.23272980
     The local contribution  to forces
     atom    1 type  1   force =     0.00000000    0.00000000    0.00000000
     atom    2 type  2   force =    -0.00000000    0.00000000  -36.96174783
     atom    3 type  2   force =    -0.00000000    0.00000000   36.96174783
     The core correction contribution to forces
     atom    1 type  1   force =     0.00000000   -0.00000000   -0.00000000
     atom    2 type  2   force =     0.00000000   -0.00000000    0.00249765
     atom    3 type  2   force =     0.00000000   -0.00000000   -0.00249765
     The Hubbard contrib.    to forces
     atom    1 type  1   force =     0.00000000    0.00000000    0.00000000
     atom    2 type  2   force =     0.00000000    0.00000000    0.00000000
     atom    3 type  2   force =     0.00000000    0.00000000    0.00000000
     The SCF correction term to forces
     atom    1 type  1   force =     0.00000000    0.00000000    0.00000000
     atom    2 type  2   force =     0.00000000    0.00000000   -0.00000039
     atom    3 type  2   force =     0.00000000   -0.00000000    0.00000039

     Total force =     0.000003     Total SCF correction =     0.000001
     SCF correction compared to forces is large: reduce conv_thr to get better values


     Computing stress (Cartesian axis) and pressure


     negative rho (up, down):  3.851E-04 0.000E+00
          total   stress  (Ry/bohr**3)                   (kbar)     P=       -0.26
   0.00000004   0.00000000  -0.00000000            0.01        0.00       -0.00
   0.00000000   0.00000004  -0.00000000            0.00        0.01       -0.00
   0.00000000   0.00000000  -0.00000530            0.00        0.00       -0.78

     kinetic stress (kbar)   4868.77     -0.00     -0.00
                               -0.00   4868.77      0.00
                               -0.00     -0.00   4915.07

     local   stress (kbar)-146988.19      0.00     -0.00
                                0.00-146988.19      0.00
                               -0.00      0.00 143962.08

     nonloc. stress (kbar)   2227.71      0.00     -0.00
                                0.00   2227.71     -0.00
                                0.00      0.00   2217.64

     hartree stress (kbar)  72087.58     -0.00      0.00
                               -0.00  72087.58     -0.00
                                0.00     -0.00 -70297.12

     exc-cor stress (kbar)   -413.46     -0.00      0.00
                               -0.00   -413.46     -0.00
                                0.00     -0.00   -414.55

     corecor stress (kbar)   -547.84      0.00     -0.00
                                0.00   -547.84     -0.00
                               -0.00     -0.00   -548.27

     ewald   stress (kbar)  68765.43     -0.00      0.00
                               -0.00  68765.43     -0.00
                                0.00     -0.00 -79835.63

     hubbard stress (kbar)      0.00      0.00      0.00
                                0.00      0.00      0.00
                                0.00      0.00      0.00

     DFT-D   stress (kbar)      0.00      0.00      0.00
                                0.00      0.00      0.00
                                0.00      0.00      0.00

     XDM     stress (kbar)      0.00      0.00      0.00
                                0.00      0.00      0.00
                                0.00      0.00      0.00

     dft-nl  stress (kbar)      0.00      0.00      0.00
                                0.00      0.00      0.00
                                0.00      0.00      0.00

     TS-vdW  stress (kbar)      0.00      0.00      0.00
                                0.00      0.00      0.00
                                0.00      0.00      0.00

     MDB     stress (kbar)      0.00      0.00      0.00
                                0.00      0.00      0.00
                                0.00      0.00      0.00

     3D-RISM stress (kbar)      0.00      0.00      0.00
                                0.00      0.00      0.00
                                0.00      0.00      0.00


     Writing all to output data dir ./tmp/mos2.save/ :
     XML data file, charge density, pseudopotentials, collected wavefunctions
 
     init_run     :      1.19s CPU      1.44s WALL (       2 calls)
     electrons    :    245.02s CPU    280.25s WALL (      11 calls)
     update_pot   :      0.52s CPU      0.59s WALL (       9 calls)
     forces       :      3.91s CPU      5.13s WALL (      11 calls)
     stress       :     12.81s CPU     16.25s WALL (      11 calls)

     Called by init_run:
     wfcinit      :      0.51s CPU      0.53s WALL (       2 calls)
     wfcinit:atom :      0.01s CPU      0.01s WALL (      38 calls)
     wfcinit:wfcr :      0.46s CPU      0.47s WALL (      38 calls)
     potinit      :      0.10s CPU      0.12s WALL (       2 calls)
     hinit0       :      0.16s CPU      0.16s WALL (       2 calls)

     Called by electrons:
     c_bands      :    167.17s CPU    171.33s WALL (     146 calls)
     sum_band     :     46.59s CPU     63.43s WALL (     146 calls)
     v_of_rho     :      6.27s CPU      6.50s WALL (     150 calls)
     v_h          :      0.54s CPU      0.55s WALL (     150 calls)
     v_xc         :      6.57s CPU      6.93s WALL (     172 calls)
     newd         :     25.68s CPU     40.63s WALL (     150 calls)
     mix_rho      :      0.81s CPU      0.81s WALL (     146 calls)

     Called by c_bands:
     init_us_2    :      2.46s CPU      2.52s WALL (    6004 calls)
     ccgdiagg     :    139.43s CPU    142.96s WALL (    2774 calls)
     wfcrot       :     26.22s CPU     26.59s WALL (    2470 calls)

     Called by sum_band:
     sum_band:wei :      0.00s CPU      0.00s WALL (     146 calls)
     sum_band:loo :     14.20s CPU     14.38s WALL (     146 calls)
     sum_band:buf :      0.30s CPU      0.31s WALL (    2774 calls)
     sum_band:ini :      1.11s CPU      1.13s WALL (    2774 calls)
     sum_band:cal :      1.06s CPU      1.07s WALL (    2774 calls)
     sum_band:bec :      0.04s CPU      0.04s WALL (    2774 calls)
     addusdens    :     31.44s CPU     48.08s WALL (     146 calls)
                                        0.00s GPU  (     146 calls)
     addusd:skk   :      0.09s CPU      0.09s WALL (     292 calls)
                                        0.00s GPU  (     292 calls)

     Called by *cgdiagg:
     h_psi        :    115.44s CPU    118.15s WALL (  138379 calls)
     s_psi        :     25.53s CPU     26.22s WALL (  274288 calls)

     Called by h_psi:
     h_psi:calbec :     12.84s CPU     13.17s WALL (  138379 calls)
     vloc_psi     :     86.88s CPU     88.93s WALL (  138379 calls)
                                        0.00s GPU  (  138379 calls)
     add_vuspsi   :     14.38s CPU     14.73s WALL (  138379 calls)
     hs_1psi      :    105.84s CPU    108.50s WALL (  135909 calls)
     s_1psi       :     24.54s CPU     25.12s WALL (  135909 calls)

     General routines
     calbec       :     26.10s CPU     26.80s WALL (  280615 calls)
     fft          :      4.11s CPU      4.21s WALL (    2219 calls)
     ffts         :      0.13s CPU      0.13s WALL (     296 calls)
     fftw         :     89.08s CPU     91.12s WALL (  395394 calls)
     interpolate  :      0.38s CPU      0.39s WALL (     150 calls)
 
     Parallel routines
 
     PWSCF        :   4m25.24s CPU   5m 6.43s WALL

 
   This run was terminated on:  23:54:10  22Sep2026            

=------------------------------------------------------------------------------=
   JOB DONE.
=------------------------------------------------------------------------------=
