
     Program PWSCF v.7.5 starts on 22Sep2026 at 21:34:46 

     This program is part of the open-source Quantum ESPRESSO suite
     for quantum simulation of materials; please cite
         "P. Giannozzi et al., J. Phys.:Condens. Matter 21 395502 (2009);
         "P. Giannozzi et al., J. Phys.:Condens. Matter 29 465901 (2017);
         "P. Giannozzi et al., J. Chem. Phys. 152 154105 (2020);
          URL http://www.quantum-espresso.org", 
     in publications or presentations arising from this work. More details at
     http://www.quantum-espresso.org/quote

     Parallel version (MPI), running on     4 processors

     MPI processes distributed on     1 nodes
     7248 MiB available memory on the printing compute node when the environment starts

     Reading input from scf.in

     Current dimensions of program PWSCF are:
     Max number of different atomic species (ntypx) = 10
     Max number of k-points (npk) =  40000
     Max angular momentum in pseudopotentials (lmaxx) =  4

     R & G space division:  proc/nbgrp/npool/nimage =       4
     Subspace diagonalization in iterative solution of the eigenvalue problem:
     a serial algorithm will be used


     Parallelization info
     --------------------
     sticks:   dense  smooth     PW     G-vecs:    dense   smooth      PW
     Min         571     214     63                18093     4156     684
     Max         572     217     64                18095     4157     688
     Sum        2287     859    253                72377    16625    2741

     Using Slab Decomposition



     bravais-lattice index     =            2
     lattice parameter (alat)  =      10.2000  a.u.
     unit-cell volume          =     265.3020 (a.u.)^3
     number of atoms/cell      =            2
     number of atomic types    =            1
     number of electrons       =         8.00
     number of Kohn-Sham states=            4
     kinetic-energy cutoff     =      60.0000  Ry
     charge density cutoff     =     640.0000  Ry
     scf convergence threshold =      1.0E-10
     mixing beta               =       0.7000
     number of iterations used =            8  plain     mixing
     Exchange-correlation= PBE
                           (   1   4   3   4   0   0   0)

     celldm(1)=  10.200000  celldm(2)=   0.000000  celldm(3)=   0.000000
     celldm(4)=   0.000000  celldm(5)=   0.000000  celldm(6)=   0.000000

     crystal axes: (cart. coord. in units of alat)
               a(1) = (  -0.500000   0.000000   0.500000 )  
               a(2) = (   0.000000   0.500000   0.500000 )  
               a(3) = (  -0.500000   0.500000   0.000000 )  

     reciprocal axes: (cart. coord. in units 2 pi/alat)
               b(1) = ( -1.000000 -1.000000  1.000000 )  
               b(2) = (  1.000000  1.000000  1.000000 )  
               b(3) = ( -1.000000  1.000000 -1.000000 )  


     PseudoPot. # 1 for Si read from file:
     ../pseudo/Si.pbe-n-rrkjus_psl.1.0.0.UPF
     MD5 check sum: fa25574f73a70a4139f2adfbefec430c
     Pseudo is Ultrasoft + core correction, Zval =  4.0
     Generated using &quot;atomic&quot; code by A. Dal Corso  v.6.3
     Using radial grid of 1141 points,  6 beta functions with: 
                l(1) =   0
                l(2) =   0
                l(3) =   1
                l(4) =   1
                l(5) =   2
                l(6) =   2
     Q(r) pseudized with 0 coefficients 


     atomic species   valence    mass     pseudopotential
     Si                4.00    28.08500     Si( 1.00)

     48 Sym. Ops., with inversion, found (24 have fractional translation)



   Cartesian axes

     site n.     atom                  positions (alat units)
         1        Si     tau(   1) = (   0.0000000   0.0000000   0.0000000  )
         2        Si     tau(   2) = (   0.2500000   0.2500000   0.2500000  )

     number of k points=    47
                       cart. coord. in units 2pi/alat
        k(    1) = (   0.0000000   0.0000000   0.0000000), wk =   0.0020000
        k(    2) = (  -0.1000000   0.1000000  -0.1000000), wk =   0.0160000
        k(    3) = (  -0.2000000   0.2000000  -0.2000000), wk =   0.0160000
        k(    4) = (  -0.3000000   0.3000000  -0.3000000), wk =   0.0160000
        k(    5) = (  -0.4000000   0.4000000  -0.4000000), wk =   0.0160000
        k(    6) = (   0.5000000  -0.5000000   0.5000000), wk =   0.0080000
        k(    7) = (   0.0000000   0.2000000   0.0000000), wk =   0.0120000
        k(    8) = (  -0.1000000   0.3000000  -0.1000000), wk =   0.0480000
        k(    9) = (  -0.2000000   0.4000000  -0.2000000), wk =   0.0480000
        k(   10) = (  -0.3000000   0.5000000  -0.3000000), wk =   0.0480000
        k(   11) = (   0.6000000  -0.4000000   0.6000000), wk =   0.0480000
        k(   12) = (   0.5000000  -0.3000000   0.5000000), wk =   0.0480000
        k(   13) = (   0.4000000  -0.2000000   0.4000000), wk =   0.0480000
        k(   14) = (   0.3000000  -0.1000000   0.3000000), wk =   0.0480000
        k(   15) = (   0.2000000   0.0000000   0.2000000), wk =   0.0240000
        k(   16) = (   0.0000000   0.4000000   0.0000000), wk =   0.0120000
        k(   17) = (  -0.1000000   0.5000000  -0.1000000), wk =   0.0480000
        k(   18) = (  -0.2000000   0.6000000  -0.2000000), wk =   0.0480000
        k(   19) = (   0.7000000  -0.3000000   0.7000000), wk =   0.0480000
        k(   20) = (   0.6000000  -0.2000000   0.6000000), wk =   0.0480000
        k(   21) = (   0.5000000  -0.1000000   0.5000000), wk =   0.0480000
        k(   22) = (   0.4000000   0.0000000   0.4000000), wk =   0.0240000
        k(   23) = (   0.0000000   0.6000000   0.0000000), wk =   0.0120000
        k(   24) = (  -0.1000000   0.7000000  -0.1000000), wk =   0.0480000
        k(   25) = (   0.8000000  -0.2000000   0.8000000), wk =   0.0480000
        k(   26) = (   0.7000000  -0.1000000   0.7000000), wk =   0.0480000
        k(   27) = (   0.6000000  -0.0000000   0.6000000), wk =   0.0240000
        k(   28) = (   0.0000000   0.8000000   0.0000000), wk =   0.0120000
        k(   29) = (   0.9000000  -0.1000000   0.9000000), wk =   0.0480000
        k(   30) = (   0.8000000   0.0000000   0.8000000), wk =   0.0240000
        k(   31) = (   0.0000000  -1.0000000   0.0000000), wk =   0.0060000
        k(   32) = (  -0.2000000   0.4000000   0.0000000), wk =   0.0480000
        k(   33) = (  -0.3000000   0.5000000  -0.1000000), wk =   0.0960000
        k(   34) = (   0.6000000  -0.4000000   0.8000000), wk =   0.0960000
        k(   35) = (   0.5000000  -0.3000000   0.7000000), wk =   0.0480000
        k(   36) = (  -0.2000000   0.6000000   0.0000000), wk =   0.0480000
        k(   37) = (   0.7000000  -0.3000000   0.9000000), wk =   0.0960000
        k(   38) = (   0.6000000  -0.2000000   0.8000000), wk =   0.0960000
        k(   39) = (   0.5000000  -0.1000000   0.7000000), wk =   0.0960000
        k(   40) = (   0.4000000   0.0000000   0.6000000), wk =   0.0480000
        k(   41) = (   0.8000000  -0.2000000   1.0000000), wk =   0.0480000
        k(   42) = (   0.7000000  -0.1000000   0.9000000), wk =   0.0960000
        k(   43) = (   0.6000000   0.0000000   0.8000000), wk =   0.0480000
        k(   44) = (  -0.2000000  -1.0000000   0.0000000), wk =   0.0240000
        k(   45) = (   0.6000000  -0.2000000   1.0000000), wk =   0.0480000
        k(   46) = (   0.5000000  -0.1000000   0.9000000), wk =   0.0480000
        k(   47) = (  -0.4000000  -1.0000000   0.0000000), wk =   0.0240000

     Dense  grid:    72377 G-vectors     FFT dimensions: (  60,  60,  60)

     Smooth grid:    16625 G-vectors     FFT dimensions: (  36,  36,  36)

     Estimated max dynamical RAM per process >      70.46 MB

     Estimated total dynamical RAM >     281.85 MB

     Initial potential from superposition of free atoms

     starting charge       7.9989, renormalised to       8.0000
     Starting wfcs are    8 randomized atomic wfcs

     total cpu time spent up to now is       14.2 secs

     per-process dynamical memory:    25.6 Mb

     Self-consistent Calculation

     iteration #  1     ecut=    60.00 Ry     beta= 0.70
     Davidson diagonalization with overlap
     ethr =  1.00E-02,  avg # of iterations =  2.0

     Threshold (ethr) on eigenvalues was too large:
     Diagonalizing with lowered threshold

     Davidson diagonalization with overlap
     ethr =  6.39E-04,  avg # of iterations =  1.4

     total cpu time spent up to now is       54.2 secs

     total energy              =     -22.83598618 Ry
     estimated scf accuracy    <       0.05527225 Ry

     iteration #  2     ecut=    60.00 Ry     beta= 0.70
     Davidson diagonalization with overlap
     ethr =  6.91E-04,  avg # of iterations =  1.0

     total cpu time spent up to now is       76.4 secs

     total energy              =     -22.83791574 Ry
     estimated scf accuracy    <       0.00286180 Ry

     iteration #  3     ecut=    60.00 Ry     beta= 0.70
     Davidson diagonalization with overlap
     ethr =  3.58E-05,  avg # of iterations =  2.9

     total cpu time spent up to now is      107.5 secs

     total energy              =     -22.83875742 Ry
     estimated scf accuracy    <       0.00011726 Ry

     iteration #  4     ecut=    60.00 Ry     beta= 0.70
     Davidson diagonalization with overlap
     ethr =  1.47E-06,  avg # of iterations =  3.7

     total cpu time spent up to now is      116.5 secs

     total energy              =     -22.83882098 Ry
     estimated scf accuracy    <       0.00002095 Ry

     iteration #  5     ecut=    60.00 Ry     beta= 0.70
     Davidson diagonalization with overlap
     ethr =  2.62E-07,  avg # of iterations =  2.8

     total cpu time spent up to now is      117.3 secs

     total energy              =     -22.83882707 Ry
     estimated scf accuracy    <       0.00000030 Ry

     iteration #  6     ecut=    60.00 Ry     beta= 0.70
     Davidson diagonalization with overlap
     ethr =  3.74E-09,  avg # of iterations =  6.2

     total cpu time spent up to now is      118.4 secs

     total energy              =     -22.83882780 Ry
     estimated scf accuracy    <       0.00000007 Ry

     iteration #  7     ecut=    60.00 Ry     beta= 0.70
     Davidson diagonalization with overlap
     ethr =  9.26E-10,  avg # of iterations =  2.5

     total cpu time spent up to now is      119.5 secs

     total energy              =     -22.83882781 Ry
     estimated scf accuracy    <       0.00000001 Ry

     iteration #  8     ecut=    60.00 Ry     beta= 0.70
     Davidson diagonalization with overlap
     ethr =  1.30E-10,  avg # of iterations =  2.7

     total cpu time spent up to now is      120.2 secs

     End of self-consistent calculation

          k = 0.0000 0.0000 0.0000 (  2085 PWs)   bands (ev):

    -5.6936   6.3957   6.3957   6.3957

          k =-0.1000 0.1000-0.1000 (  2079 PWs)   bands (ev):

    -5.5606   5.2466   6.1931   6.1931

          k =-0.2000 0.2000-0.2000 (  2079 PWs)   bands (ev):

    -5.1680   3.3631   5.8060   5.8060

          k =-0.3000 0.3000-0.3000 (  2072 PWs)   bands (ev):

    -4.5420   1.5517   5.4667   5.4667

          k =-0.4000 0.4000-0.4000 (  2078 PWs)   bands (ev):

    -3.7798   0.0507   5.2520   5.2520

          k = 0.5000-0.5000 0.5000 (  2060 PWs)   bands (ev):

    -3.3160  -0.6629   5.1797   5.1797

          k = 0.0000 0.2000 0.0000 (  2073 PWs)   bands (ev):

    -5.5160   5.4720   5.8058   5.8058

          k =-0.1000 0.3000-0.1000 (  2072 PWs)   bands (ev):

    -5.2087   3.9351   5.3632   5.5469

          k =-0.2000 0.4000-0.2000 (  2073 PWs)   bands (ev):

    -4.6561   2.1477   5.0400   5.1085

          k =-0.3000 0.5000-0.3000 (  2081 PWs)   bands (ev):

    -3.9185   0.5483   4.6908   4.8917

          k = 0.6000-0.4000 0.6000 (  2076 PWs)   bands (ev):

    -3.2619  -0.5106   4.3950   4.9268

          k = 0.5000-0.3000 0.5000 (  2077 PWs)   bands (ev):

    -3.4339  -0.2559   4.2624   5.1312

          k = 0.4000-0.2000 0.4000 (  2075 PWs)   bands (ev):

    -4.1791   1.0509   4.3201   5.4722

          k = 0.3000-0.1000 0.3000 (  2075 PWs)   bands (ev):

    -4.8670   2.7272   4.5952   5.8855

          k = 0.2000 0.0000 0.2000 (  2071 PWs)   bands (ev):

    -5.3406   4.3614   5.2097   6.2180

          k = 0.0000 0.4000 0.0000 (  2073 PWs)   bands (ev):

    -4.9872   3.7822   4.8781   4.8781

          k =-0.1000 0.5000-0.1000 (  2065 PWs)   bands (ev):

    -4.5140   2.5130   4.3672   4.5246

          k =-0.2000 0.6000-0.2000 (  2072 PWs)   bands (ev):

    -3.8267   1.0477   3.7317   4.3633

          k = 0.7000-0.3000 0.7000 (  2078 PWs)   bands (ev):

    -3.0796  -0.1621   3.2143   4.4091

          k = 0.6000-0.2000 0.6000 (  2092 PWs)   bands (ev):

    -2.9219  -0.3764   2.9088   4.6525

          k = 0.5000-0.1000 0.5000 (  2084 PWs)   bands (ev):

    -3.5913   0.6335   2.8826   5.0579

          k = 0.4000 0.0000 0.4000 (  2085 PWs)   bands (ev):

    -4.3227   1.8947   3.3371   5.5378

          k = 0.0000 0.6000 0.0000 (  2060 PWs)   bands (ev):

    -4.1199   1.9704   4.1252   4.1252

          k =-0.1000 0.7000-0.1000 (  2086 PWs)   bands (ev):

    -3.4969   0.9493   3.4857   3.9175

          k = 0.8000-0.2000 0.8000 (  2097 PWs)   bands (ev):

    -2.7320  -0.0752   2.6397   3.9248

          k = 0.7000-0.1000 0.7000 (  2090 PWs)   bands (ev):

    -2.3007  -0.5638   2.0746   4.1446

          k = 0.6000-0.0000 0.6000 (  2095 PWs)   bands (ev):

    -2.8508   0.0367   2.0471   4.5486

          k = 0.0000 0.8000 0.0000 (  2084 PWs)   bands (ev):

    -2.9383   0.1822   3.6533   3.6533

          k = 0.9000-0.1000 0.9000 (  2091 PWs)   bands (ev):

    -2.1966  -0.6709   3.0521   3.6042

          k = 0.8000 0.0000 0.8000 (  2097 PWs)   bands (ev):

    -1.7072  -1.1007   2.2490   3.7745

          k = 0.0000-1.0000 0.0000 (  2100 PWs)   bands (ev):

    -1.4830  -1.4830   3.4934   3.4934

          k =-0.2000 0.4000 0.0000 (  2075 PWs)   bands (ev):

    -4.8192   3.0109   4.2732   5.4111

          k =-0.3000 0.5000-0.1000 (  2081 PWs)   bands (ev):

    -4.1972   1.5781   3.6810   5.0272

          k = 0.6000-0.4000 0.8000 (  2072 PWs)   bands (ev):

    -3.4354   0.1883   3.4523   4.6685

          k = 0.5000-0.3000 0.7000 (  2084 PWs)   bands (ev):

    -2.9641  -0.5056   3.3940   4.5269

          k =-0.2000 0.6000 0.0000 (  2078 PWs)   bands (ev):

    -3.9673   1.6050   3.5345   4.2718

          k = 0.7000-0.3000 0.9000 (  2080 PWs)   bands (ev):

    -3.2338   0.4840   2.9076   3.9344

          k = 0.6000-0.2000 0.8000 (  2086 PWs)   bands (ev):

    -2.5683  -0.3995   2.4939   3.8776

          k = 0.5000-0.1000 0.7000 (  2084 PWs)   bands (ev):

    -2.7743  -0.1339   2.3378   4.1233

          k = 0.4000 0.0000 0.6000 (  2089 PWs)   bands (ev):

    -3.5253   0.8340   2.6399   4.5734

          k = 0.8000-0.2000 1.0000 (  2079 PWs)   bands (ev):

    -2.8170   0.0964   3.1163   3.4470

          k = 0.7000-0.1000 0.9000 (  2097 PWs)   bands (ev):

    -2.0635  -0.6906   2.3964   3.3550

          k = 0.6000 0.0000 0.8000 (  2099 PWs)   bands (ev):

    -2.0658  -0.6665   1.9709   3.6302

          k =-0.2000-1.0000 0.0000 (  2094 PWs)   bands (ev):

    -1.4274  -1.4274   3.0717   3.0717

          k = 0.6000-0.2000 1.0000 (  2077 PWs)   bands (ev):

    -2.4878  -0.2067   2.3380   3.3424

          k = 0.5000-0.1000 0.9000 (  2096 PWs)   bands (ev):

    -1.9653  -0.7248   2.1762   3.0857

          k =-0.4000-1.0000 0.0000 (  2102 PWs)   bands (ev):

    -1.3288  -1.3288   2.5435   2.5435

     highest occupied level (ev):     6.3957

!    total energy              =     -22.83882782 Ry
     estimated scf accuracy    <          2.2E-12 Ry

     The total energy is the sum of the following terms:
     one-electron contribution =       5.30796071 Ry
     hartree contribution      =       1.08447742 Ry
     xc contribution           =     -12.33150738 Ry
     ewald contribution        =     -16.89975857 Ry

     convergence has been achieved in   8 iterations

     Forces acting on atoms (cartesian axes, Ry/au):

     atom    1 type  1   force =     0.00000000    0.00000000    0.00000000
     atom    2 type  1   force =     0.00000000    0.00000000    0.00000000

     Total force =     0.000000     Total SCF correction =     0.000000


     Computing stress (Cartesian axis) and pressure

          total   stress  (Ry/bohr**3)                   (kbar)     P=       38.36
   0.00026073   0.00000000  -0.00000000           38.36        0.00       -0.00
  -0.00000000   0.00026073   0.00000000           -0.00       38.36        0.00
  -0.00000000   0.00000000   0.00026073           -0.00        0.00       38.36


     Writing all to output data dir ./tmp/si.save/ :
     XML data file, charge density, pseudopotentials, collected wavefunctions

     init_run     :      3.66s CPU     12.92s WALL (       1 calls)
     electrons    :     36.86s CPU    105.99s WALL (       1 calls)
     forces       :      0.23s CPU      0.26s WALL (       1 calls)
     stress       :      1.19s CPU      1.29s WALL (       1 calls)

     Called by init_run:
     wfcinit      :      2.62s CPU      9.16s WALL (       1 calls)
     potinit      :      0.21s CPU      0.76s WALL (       1 calls)
     hinit0       :      0.44s CPU      1.52s WALL (       1 calls)

     Called by electrons:
     c_bands      :     30.72s CPU     89.89s WALL (       9 calls)
     sum_band     :      4.88s CPU     13.17s WALL (       9 calls)
     v_of_rho     :      0.46s CPU      1.16s WALL (       9 calls)
     newd         :      0.80s CPU      1.99s WALL (       9 calls)
     mix_rho      :      0.06s CPU      0.15s WALL (       9 calls)

     Called by c_bands:
     init_us_2    :      0.20s CPU      0.25s WALL (     987 calls)
     cegterg      :     29.02s CPU     85.20s WALL (     423 calls)

     Called by *egterg:
     cdiaghg      :      1.07s CPU      3.28s WALL (    1564 calls)
     h_psi        :     20.21s CPU     59.85s WALL (    1658 calls)
     s_psi        :      0.35s CPU      0.41s WALL (    1658 calls)
     g_psi        :      0.01s CPU      0.01s WALL (    1188 calls)

     Called by h_psi:
     h_psi:calbec :      4.58s CPU     13.71s WALL (    1658 calls)
     vloc_psi     :     15.26s CPU     45.65s WALL (    1658 calls)
                                        0.00s GPU  (    1658 calls)
     add_vuspsi   :      0.36s CPU      0.47s WALL (    1658 calls)

     General routines
     calbec       :      6.09s CPU     17.83s WALL (    2880 calls)
     fft          :      0.48s CPU      1.41s WALL (     141 calls)
     ffts         :      0.15s CPU      0.49s WALL (      18 calls)
     fftw         :     17.46s CPU     52.19s WALL (   13014 calls)
     interpolate  :      0.15s CPU      0.51s WALL (       9 calls)

     Parallel routines

     PWSCF        :     42.34s CPU   2m 1.80s WALL


   This run was terminated on:  21:36:48  22Sep2026            

=------------------------------------------------------------------------------=
   JOB DONE.
=------------------------------------------------------------------------------=
