
     Program PWSCF v.7.5 starts on 22Sep2026 at 21:40:42 

     This program is part of the open-source Quantum ESPRESSO suite
     for quantum simulation of materials; please cite
         "P. Giannozzi et al., J. Phys.:Condens. Matter 21 395502 (2009);
         "P. Giannozzi et al., J. Phys.:Condens. Matter 29 465901 (2017);
         "P. Giannozzi et al., J. Chem. Phys. 152 154105 (2020);
          URL http://www.quantum-espresso.org", 
     in publications or presentations arising from this work. More details at
     http://www.quantum-espresso.org/quote

     Parallel version (MPI), running on     8 processors

     MPI processes distributed on     1 nodes
     9107 MiB available memory on the printing compute node when the environment starts
 
     Reading input from al.scf.in

     Current dimensions of program PWSCF are:
     Max number of different atomic species (ntypx) = 10
     Max number of k-points (npk) =  40000
     Max angular momentum in pseudopotentials (lmaxx) =  4
     Message from routine setup:
     using ibrav=0 with symmetry is DISCOURAGED, use correct ibrav instead
 
     R & G space division:  proc/nbgrp/npool/nimage =       8
     Subspace diagonalization in iterative solution of the eigenvalue problem:
     a serial algorithm will be used

 
     Parallelization info
     --------------------
     sticks:   dense  smooth     PW     G-vecs:    dense   smooth      PW
     Min         346     346     96                12043    12043    1769
     Max         347     347     97                12045    12045    1771
     Sum        2773    2773    769                96353    96353   14163
 
     Using Slab Decomposition
 


     bravais-lattice index     =            0
     lattice parameter (alat)  =      15.8587  a.u.
     unit-cell volume          =    2820.2756 (a.u.)^3
     number of atoms/cell      =           27
     number of atomic types    =            1
     number of electrons       =        81.00
     number of Kohn-Sham states=           46
     kinetic-energy cutoff     =      40.0000  Ry
     charge density cutoff     =     160.0000  Ry
     scf convergence threshold =      1.0E-12
     mixing beta               =       0.7000
     number of iterations used =            8  plain     mixing
     Exchange-correlation= SLA  PZ   NOGX NOGC
                           (   1   1   0   0   0   0   0)

     celldm(1)=  15.858746  celldm(2)=   0.000000  celldm(3)=   0.000000
     celldm(4)=   0.000000  celldm(5)=   0.000000  celldm(6)=   0.000000

     crystal axes: (cart. coord. in units of alat)
               a(1) = (  -0.707107   0.000000   0.707107 )  
               a(2) = (   0.000000   0.707107   0.707107 )  
               a(3) = (  -0.707107   0.707107   0.000000 )  

     reciprocal axes: (cart. coord. in units 2 pi/alat)
               b(1) = ( -0.707107 -0.707107  0.707107 )  
               b(2) = (  0.707107  0.707107  0.707107 )  
               b(3) = ( -0.707107  0.707107 -0.707107 )  


     PseudoPot. # 1 for Al read from file:
     <工作目录>/pseudo/Al.pz-vbc.UPF
     MD5 check sum: f06ceae8da0fe5c02c98e3688433298c
     Pseudo is Norm-conserving, Zval =  3.0
     Generated by new atomic code, or converted to UPF format
     Using radial grid of  171 points,  2 beta functions with: 
                l(1) =   0
                l(2) =   1

     atomic species   valence    mass     pseudopotential
     Al                3.00    26.98154     Al( 1.00)

      4 Sym. Ops. (no inversion) found


                                    s                        frac. trans.

      isym =  1     identity                                     

 cryst.   s( 1) = (     1          0          0      )
                  (     0          1          0      )
                  (     0          0          1      )

 cart.    s( 1) = (  1.0000000  0.0000000  0.0000000 )
                  (  0.0000000  1.0000000  0.0000000 )
                  (  0.0000000  0.0000000  1.0000000 )


      isym =  2     180 deg rotation - cart. axis [-1,0,1]       

 cryst.   s( 2) = (     1          0          0      )
                  (     1         -1          0      )
                  (     1          0         -1      )

 cart.    s( 2) = (  0.0000000  0.0000000 -1.0000000 )
                  (  0.0000000 -1.0000000  0.0000000 )
                  ( -1.0000000  0.0000000  0.0000000 )


      isym =  3     inv. 180 deg rotation - cart. axis [0,1,0]   

 cryst.   s( 3) = (     1          0          0      )
                  (     1          0         -1      )
                  (     1         -1          0      )

 cart.    s( 3) = (  1.0000000  0.0000000  0.0000000 )
                  (  0.0000000 -1.0000000  0.0000000 )
                  (  0.0000000  0.0000000  1.0000000 )


      isym =  4     inv. 180 deg rotation - cart. axis [1,0,1]   

 cryst.   s( 4) = (     1          0          0      )
                  (     0          0          1      )
                  (     0          1          0      )

 cart.    s( 4) = (  0.0000000  0.0000000 -1.0000000 )
                  (  0.0000000  1.0000000  0.0000000 )
                  ( -1.0000000  0.0000000  0.0000000 )


   Cartesian axes

     site n.     atom                  positions (alat units)
         1        Al     tau(   1) = (   0.0008426   0.0000000  -0.0008426  )
         2        Al     tau(   2) = (  -0.2357023   0.0000000   0.2357023  )
         3        Al     tau(   3) = (  -0.4714045   0.0000000   0.4714045  )
         4        Al     tau(   4) = (   0.0000000   0.2357023   0.2357023  )
         5        Al     tau(   5) = (  -0.2357023   0.2357023   0.4714045  )
         6        Al     tau(   6) = (  -0.4714045   0.2357023   0.7071068  )
         7        Al     tau(   7) = (   0.0000000   0.4714045   0.4714045  )
         8        Al     tau(   8) = (  -0.2357023   0.4714045   0.7071068  )
         9        Al     tau(   9) = (  -0.4714045   0.4714045   0.9428090  )
        10        Al     tau(  10) = (  -0.2357023   0.2357023   0.0000000  )
        11        Al     tau(  11) = (  -0.4714045   0.2357023   0.2357023  )
        12        Al     tau(  12) = (  -0.7071068   0.2357023   0.4714045  )
        13        Al     tau(  13) = (  -0.2357023   0.4714045   0.2357023  )
        14        Al     tau(  14) = (  -0.4714045   0.4714045   0.4714045  )
        15        Al     tau(  15) = (  -0.7071068   0.4714045   0.7071068  )
        16        Al     tau(  16) = (  -0.2357023   0.7071068   0.4714045  )
        17        Al     tau(  17) = (  -0.4714045   0.7071068   0.7071068  )
        18        Al     tau(  18) = (  -0.7071068   0.7071068   0.9428090  )
        19        Al     tau(  19) = (  -0.4714045   0.4714045   0.0000000  )
        20        Al     tau(  20) = (  -0.7071068   0.4714045   0.2357023  )
        21        Al     tau(  21) = (  -0.9428090   0.4714045   0.4714045  )
        22        Al     tau(  22) = (  -0.4714045   0.7071068   0.2357023  )
        23        Al     tau(  23) = (  -0.7071068   0.7071068   0.4714045  )
        24        Al     tau(  24) = (  -0.9428090   0.7071068   0.7071068  )
        25        Al     tau(  25) = (  -0.4714045   0.9428090   0.4714045  )
        26        Al     tau(  26) = (  -0.7071068   0.9428090   0.7071068  )
        27        Al     tau(  27) = (  -0.9428090   0.9428090   0.9428090  )

   Crystallographic axes

     site n.     atom                  positions (cryst. coord.)
         1        Al     tau(   1) = ( -0.0011916  0.0000000  0.0000000  )
         2        Al     tau(   2) = (  0.3333333  0.0000000  0.0000000  )
         3        Al     tau(   3) = (  0.6666667  0.0000000  0.0000000  )
         4        Al     tau(   4) = (  0.0000000  0.3333333  0.0000000  )
         5        Al     tau(   5) = (  0.3333333  0.3333333  0.0000000  )
         6        Al     tau(   6) = (  0.6666667  0.3333333 -0.0000000  )
         7        Al     tau(   7) = (  0.0000000  0.6666667  0.0000000  )
         8        Al     tau(   8) = (  0.3333333  0.6666667 -0.0000000  )
         9        Al     tau(   9) = (  0.6666667  0.6666667  0.0000000  )
        10        Al     tau(  10) = (  0.0000000  0.0000000  0.3333333  )
        11        Al     tau(  11) = (  0.3333333  0.0000000  0.3333333  )
        12        Al     tau(  12) = (  0.6666667 -0.0000000  0.3333333  )
        13        Al     tau(  13) = (  0.0000000  0.3333333  0.3333333  )
        14        Al     tau(  14) = (  0.3333333  0.3333333  0.3333333  )
        15        Al     tau(  15) = (  0.6666667  0.3333333  0.3333333  )
        16        Al     tau(  16) = ( -0.0000000  0.6666667  0.3333333  )
        17        Al     tau(  17) = (  0.3333333  0.6666667  0.3333333  )
        18        Al     tau(  18) = (  0.6666667  0.6666667  0.3333333  )
        19        Al     tau(  19) = (  0.0000000  0.0000000  0.6666667  )
        20        Al     tau(  20) = (  0.3333333 -0.0000000  0.6666667  )
        21        Al     tau(  21) = (  0.6666667  0.0000000  0.6666667  )
        22        Al     tau(  22) = ( -0.0000000  0.3333333  0.6666667  )
        23        Al     tau(  23) = (  0.3333333  0.3333333  0.6666667  )
        24        Al     tau(  24) = (  0.6666667  0.3333333  0.6666667  )
        25        Al     tau(  25) = (  0.0000000  0.6666667  0.6666667  )
        26        Al     tau(  26) = (  0.3333333  0.6666667  0.6666667  )
        27        Al     tau(  27) = (  0.6666667  0.6666667  0.6666667  )

     number of k points=    46  Marzari-Vanderbilt smearing, width (Ry)=  0.0200
                       cart. coord. in units 2pi/alat
        k(    1) = (   0.0000000   0.0000000   0.0000000), wk =   0.0092593
        k(    2) = (  -0.1178511   0.1178511  -0.1178511), wk =   0.0370370
        k(    3) = (  -0.2357023   0.2357023  -0.2357023), wk =   0.0370370
        k(    4) = (   0.3535534  -0.3535534   0.3535534), wk =   0.0185185
        k(    5) = (   0.0000000   0.2357023   0.0000000), wk =   0.0185185
        k(    6) = (  -0.1178511   0.3535534  -0.1178511), wk =   0.0370370
        k(    7) = (   0.4714045  -0.2357023   0.4714045), wk =   0.0370370
        k(    8) = (   0.3535534  -0.1178511   0.3535534), wk =   0.0370370
        k(    9) = (   0.2357023  -0.0000000   0.2357023), wk =   0.0185185
        k(   10) = (   0.0000000   0.4714045   0.0000000), wk =   0.0185185
        k(   11) = (   0.5892557  -0.1178511   0.5892557), wk =   0.0370370
        k(   12) = (   0.4714045  -0.0000000   0.4714045), wk =   0.0185185
        k(   13) = (   0.0000000  -0.7071068   0.0000000), wk =   0.0092593
        k(   14) = (   0.4714045  -0.2357023   0.7071068), wk =   0.0740741
        k(   15) = (   0.3535534  -0.1178511   0.5892557), wk =   0.0740741
        k(   16) = (  -0.2357023  -0.7071068   0.0000000), wk =   0.0370370
        k(   17) = (  -0.1178511   0.1178511   0.1178511), wk =   0.0370370
        k(   18) = (  -0.2357023   0.2357023   0.2357023), wk =   0.0370370
        k(   19) = (   0.3535534  -0.3535534  -0.3535534), wk =   0.0185185
        k(   20) = (   0.2357023   0.0000000   0.0000000), wk =   0.0370370
        k(   21) = (   0.3535534  -0.1178511   0.1178511), wk =   0.0740741
        k(   22) = (  -0.3535534   0.1178511   0.1178511), wk =   0.0740741
        k(   23) = (   0.1178511  -0.3535534  -0.1178511), wk =   0.0370370
        k(   24) = (  -0.2357023   0.4714045  -0.4714045), wk =   0.0740741
        k(   25) = (   0.2357023  -0.4714045  -0.4714045), wk =   0.0740741
        k(   26) = (  -0.4714045   0.2357023   0.4714045), wk =   0.0370370
        k(   27) = (  -0.1178511   0.3535534  -0.3535534), wk =   0.0740741
        k(   28) = (   0.1178511  -0.3535534  -0.3535534), wk =   0.0740741
        k(   29) = (  -0.3535534   0.1178511   0.3535534), wk =   0.0370370
        k(   30) = (  -0.0000000   0.2357023  -0.2357023), wk =   0.0740741
        k(   31) = (  -0.2357023   0.0000000   0.2357023), wk =   0.0185185
        k(   32) = (   0.4714045   0.0000000   0.0000000), wk =   0.0370370
        k(   33) = (  -0.1178511   0.5892557  -0.5892557), wk =   0.0740741
        k(   34) = (   0.1178511  -0.5892557  -0.5892557), wk =   0.0740741
        k(   35) = (  -0.5892557   0.1178511   0.5892557), wk =   0.0370370
        k(   36) = (  -0.0000000   0.4714045  -0.4714045), wk =   0.0740741
        k(   37) = (  -0.4714045   0.0000000   0.4714045), wk =   0.0185185
        k(   38) = (  -0.7071068   0.0000000   0.0000000), wk =   0.0185185
        k(   39) = (  -0.2357023   0.4714045  -0.7071068), wk =   0.0740741
        k(   40) = (  -0.4714045   0.7071068  -0.2357023), wk =   0.0370370
        k(   41) = (  -0.4714045  -0.7071068   0.2357023), wk =   0.0370370
        k(   42) = (  -0.1178511   0.3535534  -0.5892557), wk =   0.0370370
        k(   43) = (   0.1178511  -0.3535534  -0.5892557), wk =   0.0370370
        k(   44) = (  -0.3535534   0.1178511   0.5892557), wk =   0.0740741
        k(   45) = (  -0.7071068  -0.2357023   0.0000000), wk =   0.0370370
        k(   46) = (   0.2357023  -0.0000000  -0.7071068), wk =   0.0370370

                       cryst. coord.
        k(    1) = (   0.0000000   0.0000000   0.0000000), wk =   0.0092593
        k(    2) = (   0.0000000   0.0000000   0.1666667), wk =   0.0370370
        k(    3) = (   0.0000000   0.0000000   0.3333333), wk =   0.0370370
        k(    4) = (   0.0000000   0.0000000  -0.5000000), wk =   0.0185185
        k(    5) = (   0.0000000   0.1666667   0.1666667), wk =   0.0185185
        k(    6) = (   0.0000000   0.1666667   0.3333333), wk =   0.0370370
        k(    7) = (   0.0000000   0.1666667  -0.5000000), wk =   0.0370370
        k(    8) = (   0.0000000   0.1666667  -0.3333333), wk =   0.0370370
        k(    9) = (   0.0000000   0.1666667  -0.1666667), wk =   0.0185185
        k(   10) = (   0.0000000   0.3333333   0.3333333), wk =   0.0185185
        k(   11) = (   0.0000000   0.3333333  -0.5000000), wk =   0.0370370
        k(   12) = (   0.0000000   0.3333333  -0.3333333), wk =   0.0185185
        k(   13) = (   0.0000000  -0.5000000  -0.5000000), wk =   0.0092593
        k(   14) = (   0.1666667   0.3333333  -0.5000000), wk =   0.0740741
        k(   15) = (   0.1666667   0.3333333  -0.3333333), wk =   0.0740741
        k(   16) = (   0.1666667  -0.5000000  -0.3333333), wk =   0.0370370
        k(   17) = (   0.1666667   0.1666667   0.1666667), wk =   0.0370370
        k(   18) = (   0.3333333   0.3333333   0.3333333), wk =   0.0370370
        k(   19) = (  -0.5000000  -0.5000000  -0.5000000), wk =   0.0185185
        k(   20) = (  -0.1666667   0.0000000  -0.1666667), wk =   0.0370370
        k(   21) = (  -0.1666667   0.0000000  -0.3333333), wk =   0.0740741
        k(   22) = (   0.3333333   0.1666667   0.3333333), wk =   0.0740741
        k(   23) = (  -0.1666667  -0.3333333  -0.3333333), wk =   0.0370370
        k(   24) = (  -0.1666667   0.0000000   0.5000000), wk =   0.0740741
        k(   25) = (  -0.5000000  -0.6666667  -0.5000000), wk =   0.0740741
        k(   26) = (   0.6666667   0.5000000   0.5000000), wk =   0.0370370
        k(   27) = (  -0.1666667   0.0000000   0.3333333), wk =   0.0740741
        k(   28) = (  -0.3333333  -0.5000000  -0.3333333), wk =   0.0740741
        k(   29) = (   0.5000000   0.3333333   0.3333333), wk =   0.0370370
        k(   30) = (  -0.1666667   0.0000000   0.1666667), wk =   0.0740741
        k(   31) = (   0.3333333   0.1666667   0.1666667), wk =   0.0185185
        k(   32) = (  -0.3333333   0.0000000  -0.3333333), wk =   0.0370370
        k(   33) = (  -0.3333333   0.0000000   0.5000000), wk =   0.0740741
        k(   34) = (  -0.5000000  -0.8333333  -0.5000000), wk =   0.0740741
        k(   35) = (   0.8333333   0.5000000   0.5000000), wk =   0.0370370
        k(   36) = (  -0.3333333   0.0000000   0.3333333), wk =   0.0740741
        k(   37) = (   0.6666667   0.3333333   0.3333333), wk =   0.0185185
        k(   38) = (   0.5000000   0.0000000   0.5000000), wk =   0.0185185
        k(   39) = (  -0.3333333  -0.1666667   0.5000000), wk =   0.0740741
        k(   40) = (   0.1666667   0.3333333   0.8333333), wk =   0.0370370
        k(   41) = (   0.5000000  -0.3333333  -0.1666667), wk =   0.0370370
        k(   42) = (  -0.3333333  -0.1666667   0.3333333), wk =   0.0370370
        k(   43) = (  -0.5000000  -0.6666667  -0.3333333), wk =   0.0370370
        k(   44) = (   0.6666667   0.5000000   0.3333333), wk =   0.0740741
        k(   45) = (   0.5000000  -0.1666667   0.3333333), wk =   0.0370370
        k(   46) = (  -0.6666667  -0.5000000  -0.1666667), wk =   0.0370370

     Dense  grid:    96353 G-vectors     FFT dimensions: (  64,  64,  64)

     Dynamical RAM for                 wfc:       1.06 MB

     Dynamical RAM for     wfc (w. buffer):      49.68 MB

     Dynamical RAM for           str. fact:       0.18 MB

     Dynamical RAM for           local pot:       0.00 MB

     Dynamical RAM for          nlocal pot:       2.48 MB

     Dynamical RAM for                qrad:       0.09 MB

     Dynamical RAM for          rho,v,vnew:       1.30 MB

     Dynamical RAM for               rhoin:       0.43 MB

     Dynamical RAM for            rho*nmix:       2.94 MB

     Dynamical RAM for           G-vectors:       0.78 MB

     Dynamical RAM for          h,s,v(r/c):       0.39 MB

     Dynamical RAM for          <psi|beta>:       0.08 MB

     Dynamical RAM for                 psi:       2.11 MB

     Dynamical RAM for                hpsi:       2.11 MB

     Dynamical RAM for      wfcinit/wfcrot:       2.16 MB

     Estimated static dynamical RAM per process >      56.57 MB

     Estimated max dynamical RAM per process >      64.20 MB

     Estimated total dynamical RAM >     513.60 MB

     Initial potential from superposition of free atoms

     starting charge      80.9445, renormalised to      81.0000

     negative rho (up, down):  3.788E-04 0.000E+00
     Starting wfcs are  108 randomized atomic wfcs

     total cpu time spent up to now is        5.8 secs

     Self-consistent Calculation

     iteration #  1     ecut=    40.00 Ry     beta= 0.70
     Davidson diagonalization with overlap

---- Real-time Memory Report at c_bands before calling an iterative solver
           126 MiB given to the printing process from OS
             0 MiB allocation reported by mallinfo(arena+hblkhd)
          8490 MiB available memory on the node where the printing process lives
------------------
     ethr =  1.00E-02,  avg # of iterations =  3.5

     Threshold (ethr) on eigenvalues was too large:
     Diagonalizing with lowered threshold

     Davidson diagonalization with overlap

---- Real-time Memory Report at c_bands before calling an iterative solver
           130 MiB given to the printing process from OS
             0 MiB allocation reported by mallinfo(arena+hblkhd)
          8427 MiB available memory on the node where the printing process lives
------------------
     ethr =  1.63E-04,  avg # of iterations =  5.0

     negative rho (up, down):  5.869E-05 0.000E+00

     total cpu time spent up to now is       25.7 secs

     total energy              =    -113.13837403 Ry
     estimated scf accuracy    <       0.15532815 Ry

     iteration #  2     ecut=    40.00 Ry     beta= 0.70
     Davidson diagonalization with overlap

---- Real-time Memory Report at c_bands before calling an iterative solver
           130 MiB given to the printing process from OS
             0 MiB allocation reported by mallinfo(arena+hblkhd)
          8384 MiB available memory on the node where the printing process lives
------------------
     ethr =  1.92E-04,  avg # of iterations =  1.1

     total cpu time spent up to now is       31.6 secs

     total energy              =    -113.13961770 Ry
     estimated scf accuracy    <       0.01216840 Ry

     iteration #  3     ecut=    40.00 Ry     beta= 0.70
     Davidson diagonalization with overlap

---- Real-time Memory Report at c_bands before calling an iterative solver
           132 MiB given to the printing process from OS
             0 MiB allocation reported by mallinfo(arena+hblkhd)
          8345 MiB available memory on the node where the printing process lives
------------------
     ethr =  1.50E-05,  avg # of iterations =  2.3

     total cpu time spent up to now is       38.0 secs

     total energy              =    -113.13974548 Ry
     estimated scf accuracy    <       0.00031894 Ry

     iteration #  4     ecut=    40.00 Ry     beta= 0.70
     Davidson diagonalization with overlap

---- Real-time Memory Report at c_bands before calling an iterative solver
           132 MiB given to the printing process from OS
             0 MiB allocation reported by mallinfo(arena+hblkhd)
          8313 MiB available memory on the node where the printing process lives
------------------
     c_bands:  2 eigenvalues not converged
     ethr =  3.94E-07,  avg # of iterations =  6.7

     total cpu time spent up to now is       48.3 secs

     total energy              =    -113.13986032 Ry
     estimated scf accuracy    <       0.00004735 Ry

     iteration #  5     ecut=    40.00 Ry     beta= 0.70
     Davidson diagonalization with overlap

---- Real-time Memory Report at c_bands before calling an iterative solver
           134 MiB given to the printing process from OS
             0 MiB allocation reported by mallinfo(arena+hblkhd)
          8246 MiB available memory on the node where the printing process lives
------------------
     ethr =  5.85E-08,  avg # of iterations =  3.8

     total cpu time spent up to now is       56.9 secs

     total energy              =    -113.13986973 Ry
     estimated scf accuracy    <       0.00001369 Ry

     iteration #  6     ecut=    40.00 Ry     beta= 0.70
     Davidson diagonalization with overlap

---- Real-time Memory Report at c_bands before calling an iterative solver
           134 MiB given to the printing process from OS
             0 MiB allocation reported by mallinfo(arena+hblkhd)
          8180 MiB available memory on the node where the printing process lives
------------------
     ethr =  1.69E-08,  avg # of iterations =  2.9

     total cpu time spent up to now is       64.8 secs

     total energy              =    -113.13987232 Ry
     estimated scf accuracy    <       0.00000164 Ry

     iteration #  7     ecut=    40.00 Ry     beta= 0.70
     Davidson diagonalization with overlap

---- Real-time Memory Report at c_bands before calling an iterative solver
           135 MiB given to the printing process from OS
             0 MiB allocation reported by mallinfo(arena+hblkhd)
          8122 MiB available memory on the node where the printing process lives
------------------
     c_bands:  1 eigenvalues not converged
     ethr =  2.02E-09,  avg # of iterations =  5.4

     total cpu time spent up to now is       73.0 secs

     total energy              =    -113.13987259 Ry
     estimated scf accuracy    <       0.00000092 Ry

     iteration #  8     ecut=    40.00 Ry     beta= 0.70
     Davidson diagonalization with overlap

---- Real-time Memory Report at c_bands before calling an iterative solver
           135 MiB given to the printing process from OS
             0 MiB allocation reported by mallinfo(arena+hblkhd)
          8053 MiB available memory on the node where the printing process lives
------------------
     ethr =  1.13E-09,  avg # of iterations =  2.4

     total cpu time spent up to now is       79.5 secs

     total energy              =    -113.13987255 Ry
     estimated scf accuracy    <       0.00000038 Ry

     iteration #  9     ecut=    40.00 Ry     beta= 0.70
     Davidson diagonalization with overlap

---- Real-time Memory Report at c_bands before calling an iterative solver
           135 MiB given to the printing process from OS
             0 MiB allocation reported by mallinfo(arena+hblkhd)
          8014 MiB available memory on the node where the printing process lives
------------------
     ethr =  4.64E-10,  avg # of iterations =  3.3

     total cpu time spent up to now is       87.5 secs

     total energy              =    -113.13987261 Ry
     estimated scf accuracy    <       0.00000005 Ry

     iteration # 10     ecut=    40.00 Ry     beta= 0.70
     Davidson diagonalization with overlap

---- Real-time Memory Report at c_bands before calling an iterative solver
           136 MiB given to the printing process from OS
             0 MiB allocation reported by mallinfo(arena+hblkhd)
          7941 MiB available memory on the node where the printing process lives
------------------
     c_bands:  2 eigenvalues not converged
     ethr =  5.88E-11,  avg # of iterations =  5.1

     total cpu time spent up to now is       97.1 secs

     total energy              =    -113.13987261 Ry
     estimated scf accuracy    <       0.00000008 Ry

     iteration # 11     ecut=    40.00 Ry     beta= 0.70
     Davidson diagonalization with overlap

---- Real-time Memory Report at c_bands before calling an iterative solver
           136 MiB given to the printing process from OS
             0 MiB allocation reported by mallinfo(arena+hblkhd)
          7899 MiB available memory on the node where the printing process lives
------------------
     c_bands:  1 eigenvalues not converged
     ethr =  5.88E-11,  avg # of iterations =  3.3

     total cpu time spent up to now is      105.4 secs

     total energy              =    -113.13987263 Ry
     estimated scf accuracy    <       0.00000001 Ry

     iteration # 12     ecut=    40.00 Ry     beta= 0.70
     Davidson diagonalization with overlap

---- Real-time Memory Report at c_bands before calling an iterative solver
           136 MiB given to the printing process from OS
             0 MiB allocation reported by mallinfo(arena+hblkhd)
          7851 MiB available memory on the node where the printing process lives
------------------
     c_bands:  1 eigenvalues not converged
     ethr =  1.24E-11,  avg # of iterations =  3.9

     total cpu time spent up to now is      113.5 secs

     total energy              =    -113.13987263 Ry
     estimated scf accuracy    <          6.4E-09 Ry

     iteration # 13     ecut=    40.00 Ry     beta= 0.70
     Davidson diagonalization with overlap

---- Real-time Memory Report at c_bands before calling an iterative solver
           136 MiB given to the printing process from OS
             0 MiB allocation reported by mallinfo(arena+hblkhd)
          7793 MiB available memory on the node where the printing process lives
------------------
     ethr =  7.91E-12,  avg # of iterations =  2.2

     total cpu time spent up to now is      120.9 secs

     total energy              =    -113.13987263 Ry
     estimated scf accuracy    <          4.6E-10 Ry

     iteration # 14     ecut=    40.00 Ry     beta= 0.70
     Davidson diagonalization with overlap

---- Real-time Memory Report at c_bands before calling an iterative solver
           136 MiB given to the printing process from OS
             0 MiB allocation reported by mallinfo(arena+hblkhd)
          7747 MiB available memory on the node where the printing process lives
------------------
     c_bands:  1 eigenvalues not converged
     c_bands:  1 eigenvalues not converged
     ethr =  5.62E-13,  avg # of iterations =  5.6

     total cpu time spent up to now is      130.9 secs

     total energy              =    -113.13987263 Ry
     estimated scf accuracy    <          3.1E-10 Ry

     iteration # 15     ecut=    40.00 Ry     beta= 0.70
     Davidson diagonalization with overlap

---- Real-time Memory Report at c_bands before calling an iterative solver
           136 MiB given to the printing process from OS
             0 MiB allocation reported by mallinfo(arena+hblkhd)
          7643 MiB available memory on the node where the printing process lives
------------------
     ethr =  3.80E-13,  avg # of iterations =  1.9

     total cpu time spent up to now is      137.4 secs

     total energy              =    -113.13987263 Ry
     estimated scf accuracy    <          1.0E-10 Ry

     iteration # 16     ecut=    40.00 Ry     beta= 0.70
     Davidson diagonalization with overlap

---- Real-time Memory Report at c_bands before calling an iterative solver
           136 MiB given to the printing process from OS
             0 MiB allocation reported by mallinfo(arena+hblkhd)
          7618 MiB available memory on the node where the printing process lives
------------------
     ethr =  1.28E-13,  avg # of iterations =  2.9

     total cpu time spent up to now is      145.1 secs

     total energy              =    -113.13987263 Ry
     estimated scf accuracy    <          1.1E-10 Ry

     iteration # 17     ecut=    40.00 Ry     beta= 0.70
     Davidson diagonalization with overlap

---- Real-time Memory Report at c_bands before calling an iterative solver
           136 MiB given to the printing process from OS
             0 MiB allocation reported by mallinfo(arena+hblkhd)
          7580 MiB available memory on the node where the printing process lives
------------------
     ethr =  1.28E-13,  avg # of iterations =  1.9

     total cpu time spent up to now is      151.6 secs

     total energy              =    -113.13987263 Ry
     estimated scf accuracy    <          1.9E-11 Ry

     iteration # 18     ecut=    40.00 Ry     beta= 0.70
     Davidson diagonalization with overlap

---- Real-time Memory Report at c_bands before calling an iterative solver
           136 MiB given to the printing process from OS
             0 MiB allocation reported by mallinfo(arena+hblkhd)
          7542 MiB available memory on the node where the printing process lives
------------------
     ethr =  1.00E-13,  avg # of iterations =  1.4

     total cpu time spent up to now is      157.5 secs

     total energy              =    -113.13987263 Ry
     estimated scf accuracy    <          6.0E-12 Ry

     iteration # 19     ecut=    40.00 Ry     beta= 0.70
     Davidson diagonalization with overlap

---- Real-time Memory Report at c_bands before calling an iterative solver
           136 MiB given to the printing process from OS
             0 MiB allocation reported by mallinfo(arena+hblkhd)
          7500 MiB available memory on the node where the printing process lives
------------------
     ethr =  1.00E-13,  avg # of iterations =  1.0

     total cpu time spent up to now is      163.4 secs

     total energy              =    -113.13987263 Ry
     estimated scf accuracy    <          4.1E-12 Ry

     iteration # 20     ecut=    40.00 Ry     beta= 0.70
     Davidson diagonalization with overlap

---- Real-time Memory Report at c_bands before calling an iterative solver
           136 MiB given to the printing process from OS
             0 MiB allocation reported by mallinfo(arena+hblkhd)
          7477 MiB available memory on the node where the printing process lives
------------------
     ethr =  1.00E-13,  avg # of iterations =  1.0

     total cpu time spent up to now is      169.2 secs

     total energy              =    -113.13987263 Ry
     estimated scf accuracy    <          1.7E-12 Ry

     iteration # 21     ecut=    40.00 Ry     beta= 0.70
     Davidson diagonalization with overlap

---- Real-time Memory Report at c_bands before calling an iterative solver
           136 MiB given to the printing process from OS
             0 MiB allocation reported by mallinfo(arena+hblkhd)
          7428 MiB available memory on the node where the printing process lives
------------------
     ethr =  1.00E-13,  avg # of iterations =  1.0

     total cpu time spent up to now is      175.1 secs

     End of self-consistent calculation

          k = 0.0000 0.0000 0.0000 ( 12039 PWs)   bands (ev):

    -3.1662  -0.0322  -0.0276  -0.0276  -0.0275  -0.0272  -0.0269  -0.0264
    -0.0222   0.9932   0.9955   0.9966   0.9967   0.9976   1.0006   4.9735
     4.9749   4.9754   4.9769   4.9774   4.9777   4.9778   4.9784   4.9785
     4.9803   4.9810   4.9826   7.2505   7.2508   7.2549   7.2550   7.2552
     7.2552   7.2555   7.2555   7.2558   7.2558   7.2599   7.2604   8.8411
     8.8426   8.8441   8.8444   8.8447   8.8451   8.8468

     occupation numbers 
     1.0000   1.0000   1.0000   1.0000   1.0000   1.0000   1.0000   1.0000
     1.0000   1.0000   1.0000   1.0000   1.0000   1.0000   1.0000   1.0000
     1.0000   1.0000   1.0000   1.0000   1.0000   1.0000   1.0000   1.0000
     1.0000   1.0000   1.0000   1.0000   1.0000   1.0000   1.0000   1.0000
     1.0000   1.0000   1.0000   1.0000   1.0000   1.0000   1.0000   0.0015
     0.0014   0.0014   0.0014   0.0014   0.0014   0.0013

          k =-0.1179 0.1179-0.1179 ( 12026 PWs)   bands (ev):

    -3.0776  -0.9757  -0.2872  -0.2850  -0.2826   0.3970   0.4007   0.4009
     0.4011   0.4016   0.4052   1.0821   1.7538   1.7560   1.7584   3.7536
     3.7558   3.7583   5.0528   5.0531   5.0551   5.0557   5.0578   5.0580
     6.1270   6.1293   6.1317   6.4378   6.4402   6.4427   6.8701   6.8703
     6.8725   6.8729   6.8750   6.8753   7.0441   7.5011   7.5021   7.5031
     8.3245   8.3253   8.3260   8.7431   8.7436   8.7443

     occupation numbers 
     1.0000   1.0000   1.0000   1.0000   1.0000   1.0000   1.0000   1.0000
     1.0000   1.0000   1.0000   1.0000   1.0000   1.0000   1.0000   1.0000
     1.0000   1.0000   1.0000   1.0000   1.0000   1.0000   1.0000   1.0000
     1.0000   1.0000   1.0000   1.0000   1.0000   1.0000   1.0000   1.0000
     1.0000   1.0000   1.0000   1.0000   1.0000   1.0005   1.0006   1.0006
     0.5375   0.5354   0.5334   0.0077   0.0076   0.0075

          k =-0.2357 0.2357-0.2357 ( 12020 PWs)   bands (ev):

    -2.8123  -1.7585  -0.3731  -0.3709  -0.3686  -0.0290  -0.0269  -0.0245
     0.9950   0.9971   0.9995   2.3462   2.6715   2.6737   2.6760   2.6776
     2.6797   2.6822   4.9359   4.9382   4.9406   5.2780   5.2782   5.2805
     5.2809   5.2831   5.2834   5.3400   6.2705   6.2708   6.2726   6.2733
     6.2751   6.2754   7.5350   7.5358   7.5366   7.8397   7.8422   7.8450
     7.9153   7.9161   7.9168   9.2103   9.2107   9.2112

     occupation numbers 
     1.0000   1.0000   1.0000   1.0000   1.0000   1.0000   1.0000   1.0000
     1.0000   1.0000   1.0000   1.0000   1.0000   1.0000   1.0000   1.0000
     1.0000   1.0000   1.0000   1.0000   1.0000   1.0000   1.0000   1.0000
     1.0000   1.0000   1.0000   1.0000   1.0000   1.0000   1.0000   1.0000
     1.0000   1.0000   1.0010   1.0010   1.0010   1.0438   1.0446   1.0455
     1.0693   1.0695   1.0697   0.0000   0.0000   0.0000

          k = 0.3536-0.3536 0.3536 ( 12014 PWs)   bands (ev):

    -2.3718  -2.3718  -0.2894  -0.2855  -0.2847  -0.2845  -0.2838  -0.2798
     1.7549   1.7569   1.7582   1.7582   1.7597   1.7616   3.6449   3.7384
     3.7391   3.7409   3.7409   3.7430   3.7436   3.8949   5.5274   5.5275
     5.5302   5.5304   5.5331   5.5331   5.8829   5.8832   5.8846   5.8852
     5.8866   5.8869   7.6541   7.6544   7.6567   7.6567   7.6590   7.6594
     9.3644   9.3648   9.3673   9.3673   9.3699   9.3703

     occupation numbers 
     1.0000   1.0000   1.0000   1.0000   1.0000   1.0000   1.0000   1.0000
     1.0000   1.0000   1.0000   1.0000   1.0000   1.0000   1.0000   1.0000
     1.0000   1.0000   1.0000   1.0000   1.0000   1.0000   1.0000   1.0000
     1.0000   1.0000   1.0000   1.0000   1.0000   1.0000   1.0000   1.0000
     1.0000   1.0000   1.0061   1.0061   1.0063   1.0063   1.0065   1.0065
     0.0000   0.0000   0.0000   0.0000   0.0000   0.0000

          k = 0.0000 0.2357 0.0000 ( 12035 PWs)   bands (ev):

    -3.0480  -0.6035  -0.6010  -0.6010  -0.5980  -0.2557   0.7679   0.7704
     0.7704   0.7734   1.1072   1.1085   1.1107   1.1125   2.4516   3.7804
     3.7817   3.7840   3.7858   5.0698   5.0714   5.0714   5.0731   6.0568
     6.0592   6.0592   6.0621   6.3412   6.3424   6.3451   6.3469   6.7341
     6.7363   6.7369   6.7392   7.7109   7.7127   7.7127   7.7145   7.9807
     7.9830   7.9835   7.9859   8.3095   8.3113   8.3117

     occupation numbers 
     1.0000   1.0000   1.0000   1.0000   1.0000   1.0000   1.0000   1.0000
     1.0000   1.0000   1.0000   1.0000   1.0000   1.0000   1.0000   1.0000
     1.0000   1.0000   1.0000   1.0000   1.0000   1.0000   1.0000   1.0000
     1.0000   1.0000   1.0000   1.0000   1.0000   1.0000   1.0000   1.0000
     1.0000   1.0000   1.0000   1.0125   1.0127   1.0127   1.0130   1.0830
     1.0831   1.0831   1.0832   0.5791   0.5739   0.5729

          k =-0.1179 0.3536-0.1179 ( 12039 PWs)   bands (ev):

    -2.8417  -1.4388  -0.7475  -0.7446  -0.7418  -0.0557   0.6257   0.6285
     0.6313   1.3062   1.3099   1.9777   1.9811   1.9842   2.6498   2.6536
     3.3022   3.9707   3.9722   3.9745   4.6078   5.1104   5.1141   5.4584
     5.4598   5.7888   5.7926   5.9430   5.9637   6.3364   6.3396   6.5992
     6.6392   6.6417   7.2531   7.2543   7.6881   7.6925   7.7099   7.7137
     8.3445   8.3462   8.4331   8.4341   8.5323   8.9365

     occupation numbers 
     1.0000   1.0000   1.0000   1.0000   1.0000   1.0000   1.0000   1.0000
     1.0000   1.0000   1.0000   1.0000   1.0000   1.0000   1.0000   1.0000
     1.0000   1.0000   1.0000   1.0000   1.0000   1.0000   1.0000   1.0000
     1.0000   1.0000   1.0000   1.0000   1.0000   1.0000   1.0000   1.0000
     1.0000   1.0000   1.0000   1.0000   1.0095   1.0100   1.0123   1.0129
     0.4832   0.4787   0.2699   0.2678   0.1124   0.0002

          k = 0.4714-0.2357 0.4714 ( 12047 PWs)   bands (ev):

    -2.4597  -2.1085  -1.0620  -0.7177  -0.7139   0.3138   0.3175   0.6570
     0.6570   1.6720   1.6758   2.0087   2.0124   3.0042   3.0079   3.0123
     3.3371   3.3379   4.2926   4.3201   4.3240   4.3646   4.6147   4.6185
     4.6322   4.6363   5.6716   5.6725   5.8861   5.8879   5.9806   6.8984
     6.9021   6.9494   6.9506   7.2114   7.2153   8.2040   8.4447   8.4924
     8.4937   8.6924   8.6949   9.4484   9.4952   9.5459

     occupation numbers 
     1.0000   1.0000   1.0000   1.0000   1.0000   1.0000   1.0000   1.0000
     1.0000   1.0000   1.0000   1.0000   1.0000   1.0000   1.0000   1.0000
     1.0000   1.0000   1.0000   1.0000   1.0000   1.0000   1.0000   1.0000
     1.0000   1.0000   1.0000   1.0000   1.0000   1.0000   1.0000   1.0000
     1.0000   1.0000   1.0000   1.0000   1.0000   0.8549   0.2467   0.1646
     0.1626   0.0162   0.0157   0.0000   0.0000   0.0000

          k = 0.3536-0.1179 0.3536 ( 12041 PWs)   bands (ev):

    -2.6065  -1.9042  -1.2067  -0.5161  -0.5124   0.1711   0.1748   0.8534
     0.8555   0.8577   1.5333   2.2036   2.2065   2.8718   2.8736   2.8757
     3.5200   3.5238   4.1753   4.1791   4.1859   4.1898   4.8224   4.8263
     4.8777   5.3709   5.4700   5.4715   6.1578   6.1590   6.1761   6.7942
     6.7979   6.7989   6.8000   7.2889   7.2930   7.7379   8.0484   8.0526
     8.7223   8.7236   9.1894   9.3979   9.5491   9.5509

     occupation numbers 
     1.0000   1.0000   1.0000   1.0000   1.0000   1.0000   1.0000   1.0000
     1.0000   1.0000   1.0000   1.0000   1.0000   1.0000   1.0000   1.0000
     1.0000   1.0000   1.0000   1.0000   1.0000   1.0000   1.0000   1.0000
     1.0000   1.0000   1.0000   1.0000   1.0000   1.0000   1.0000   1.0000
     1.0000   1.0000   1.0000   1.0000   1.0000   1.0170   1.0706   1.0685
     0.0105   0.0103   0.0000   0.0000   0.0000   0.0000

          k = 0.2357-0.0000 0.2357 ( 12026 PWs)   bands (ev):

    -2.9301  -1.1781  -1.1777  -0.1431  -0.1393   0.1981   0.2011   0.2022
     0.2045   1.2226   1.2227   1.5615   1.5619   2.5608   2.5646   2.5686
     3.8897   3.8898   3.8935   3.8938   5.1872   5.1887   5.4565   5.4592
     5.4607   5.4627   6.2191   6.5180   6.5185   6.5219   6.5224   6.5309
     6.5311   6.7888   6.7903   6.7904   6.7912   7.3691   7.4607   7.4652
     8.1052   8.7133   9.0430   9.0457   9.0862   9.0872

     occupation numbers 
     1.0000   1.0000   1.0000   1.0000   1.0000   1.0000   1.0000   1.0000
     1.0000   1.0000   1.0000   1.0000   1.0000   1.0000   1.0000   1.0000
     1.0000   1.0000   1.0000   1.0000   1.0000   1.0000   1.0000   1.0000
     1.0000   1.0000   1.0000   1.0000   1.0000   1.0000   1.0000   1.0000
     1.0000   1.0000   1.0000   1.0000   1.0000   1.0000   1.0003   1.0003
     1.0255   0.0120   0.0000   0.0000   0.0000   0.0000

          k = 0.0000 0.4714 0.0000 ( 12050 PWs)   bands (ev):

    -2.6945  -1.2934  -0.9493  -0.9468  -0.9468  -0.9438   1.4455   1.4468
     1.4490   1.4508   1.7837   1.7862   1.7862   1.7893   2.7872   2.7885
     2.7908   2.7926   4.0758   4.4152   4.4178   4.4179   4.4210   5.4596
     5.4613   5.4613   5.4629   6.4233   6.4256   6.4261   6.4284   6.7423
     6.7440   6.7440   6.7458   7.5817   7.5825   7.5862   7.5864   8.2397
     8.2556   8.2559   8.2577   8.2585   8.9198   8.9226

     occupation numbers 
     1.0000   1.0000   1.0000   1.0000   1.0000   1.0000   1.0000   1.0000
     1.0000   1.0000   1.0000   1.0000   1.0000   1.0000   1.0000   1.0000
     1.0000   1.0000   1.0000   1.0000   1.0000   1.0000   1.0000   1.0000
     1.0000   1.0000   1.0000   1.0000   1.0000   1.0000   1.0000   1.0000
     1.0000   1.0000   1.0000   1.0021   1.0021   1.0023   1.0023   0.7682
     0.7265   0.7258   0.7209   0.7187   0.0003   0.0003

          k = 0.5893-0.1179 0.5893 ( 12071 PWs)   bands (ev):

    -2.3717  -1.6711  -1.6709  -0.9773  -0.9736  -0.2848   1.0799   1.0836
     1.7557   1.7579   1.7599   2.4241   2.4278   2.4280   2.4318   3.0903
     3.0924   3.0937   3.0952   3.7487   3.7526   4.2745   4.5781   4.9475
     5.0962   5.5806   5.5843   5.7451   5.7462   6.2118   6.2136   6.3905
     6.3916   7.0289   7.3316   7.6748   7.9537   7.9557   8.0440   8.0485
     8.6885   8.6923   8.7604   8.7643   9.4346   9.4388

     occupation numbers 
     1.0000   1.0000   1.0000   1.0000   1.0000   1.0000   1.0000   1.0000
     1.0000   1.0000   1.0000   1.0000   1.0000   1.0000   1.0000   1.0000
     1.0000   1.0000   1.0000   1.0000   1.0000   1.0000   1.0000   1.0000
     1.0000   1.0000   1.0000   1.0000   1.0000   1.0000   1.0000   1.0000
     1.0000   1.0000   1.0000   1.0080   1.0793   1.0797   1.0726   1.0706
     0.0171   0.0163   0.0058   0.0055   0.0000   0.0000

          k = 0.4714-0.0000 0.4714 ( 12054 PWs)   bands (ev):

    -2.2254  -1.8751  -1.8747  -0.8329  -0.8291   0.5433   0.8805   0.8835
     0.8846   0.8869   1.8973   1.8974   3.2301   3.2302   3.2338   3.2341
     3.5538   3.5563   3.5563   3.5570   3.5581   3.5603   4.5070   4.5108
     4.5847   4.5847   5.5996   5.7936   5.7952   6.1950   6.1963   6.1964
     6.1971   6.9520   8.0843   8.0889   8.3693   8.3695   8.3733   8.3736
     8.6514   8.6531   8.7465   8.7467   9.3338   9.3380

     occupation numbers 
     1.0000   1.0000   1.0000   1.0000   1.0000   1.0000   1.0000   1.0000
     1.0000   1.0000   1.0000   1.0000   1.0000   1.0000   1.0000   1.0000
     1.0000   1.0000   1.0000   1.0000   1.0000   1.0000   1.0000   1.0000
     1.0000   1.0000   1.0000   1.0000   1.0000   1.0000   1.0000   1.0000
     1.0000   1.0000   1.0464   1.0423   0.4182   0.4175   0.4078   0.4070
     0.0284   0.0277   0.0073   0.0072   0.0000   0.0000

          k = 0.0000-0.7071 0.0000 ( 12086 PWs)   bands (ev):

    -2.1085  -2.1081  -1.0648  -1.0623  -1.0623  -1.0593   2.0048   2.0071
     2.0088   2.0091   2.0097   2.0105   2.0109   2.0137   3.0082   3.0085
     3.0109   3.0109   3.0110   3.0110   3.0137   3.0143   5.3934   5.9848
     5.9876   5.9878   5.9878   5.9882   5.9882   5.9887   5.9907   6.3199
     6.3221   6.3226   6.3250   6.7307   7.6963   7.6985   7.6995   7.7011
     9.1255   9.1276   9.1299   9.1326  10.0710  10.0723

     occupation numbers 
     1.0000   1.0000   1.0000   1.0000   1.0000   1.0000   1.0000   1.0000
     1.0000   1.0000   1.0000   1.0000   1.0000   1.0000   1.0000   1.0000
     1.0000   1.0000   1.0000   1.0000   1.0000   1.0000   1.0000   1.0000
     1.0000   1.0000   1.0000   1.0000   1.0000   1.0000   1.0000   1.0000
     1.0000   1.0000   1.0000   1.0000   1.0105   1.0107   1.0109   1.0111
     0.0000   0.0000   0.0000   0.0000   0.0000   0.0000

          k = 0.4714-0.2357 0.7071 ( 12069 PWs)   bands (ev):

    -2.5771  -1.5268  -1.5248  -1.1776  -0.1425  -0.1405   0.2017   1.2222
     1.2242   1.5593   1.5608   1.5625   2.5677   2.5697   2.8951   2.9001
     2.9016   3.8841   3.8862   4.1842   4.2074   4.2088   4.2143   5.1522
     5.1544   5.2357   5.2377   5.5553   5.5569   5.9091   6.7324   6.8356
     6.8373   7.1512   7.2684   7.7458   7.7480   8.0174   8.0190   8.1252
     8.1270   8.3445   8.3996   8.6716   9.3822   9.3849

     occupation numbers 
     1.0000   1.0000   1.0000   1.0000   1.0000   1.0000   1.0000   1.0000
     1.0000   1.0000   1.0000   1.0000   1.0000   1.0000   1.0000   1.0000
     1.0000   1.0000   1.0000   1.0000   1.0000   1.0000   1.0000   1.0000
     1.0000   1.0000   1.0000   1.0000   1.0000   1.0000   1.0000   1.0000
     1.0000   1.0000   1.0000   1.0185   1.0189   1.0809   1.0806   1.0004
     0.9979   0.4831   0.3437   0.0217   0.0000   0.0000

          k = 0.3536-0.1179 0.5893 ( 12084 PWs)   bands (ev):

    -2.1377  -2.1377  -1.4400  -1.4371  -0.0570  -0.0541   0.6278   0.6294
     1.3062   1.3091   1.9817   1.9826   2.6489   2.6494   3.3130   3.3132
     3.3139   3.3154   3.8548   3.9596   3.9599   4.1243   4.4843   4.6120
     4.6123   4.8023   5.1593   5.1598   5.3098   5.3129   6.9476   7.1655
     7.2242   7.2245   7.5453   7.5464   7.8672   7.8689   8.3323   8.3323
     8.4934   8.4936   9.0953   9.1377   9.1381   9.5176

     occupation numbers 
     1.0000   1.0000   1.0000   1.0000   1.0000   1.0000   1.0000   1.0000
     1.0000   1.0000   1.0000   1.0000   1.0000   1.0000   1.0000   1.0000
     1.0000   1.0000   1.0000   1.0000   1.0000   1.0000   1.0000   1.0000
     1.0000   1.0000   1.0000   1.0000   1.0000   1.0000   1.0000   1.0000
     1.0000   1.0000   1.0012   1.0012   1.0531   1.0537   0.5162   0.5161
     0.1631   0.1628   0.0000   0.0000   0.0000   0.0000

          k =-0.2357-0.7071 0.0000 ( 12060 PWs)   bands (ev):

    -1.9917  -1.9914  -1.6430  -1.6410  -0.2571  -0.2551   0.7703   0.7707
     2.1198   2.1211   2.1217   2.1224   2.4551   2.4552   2.4570   2.4573
     3.4472   3.4475   3.7722   3.7725   3.7742   3.7746   4.8038   4.8054
     4.8057   4.8066   5.0463   5.0485   5.4965   5.8058   6.8424   7.0473
     7.1729   7.3729   7.3744   7.3750   7.3758   7.9823   8.3039   8.9090
     8.9092   8.9112   8.9116   9.1180   9.1200   9.2330

     occupation numbers 
     1.0000   1.0000   1.0000   1.0000   1.0000   1.0000   1.0000   1.0000
     1.0000   1.0000   1.0000   1.0000   1.0000   1.0000   1.0000   1.0000
     1.0000   1.0000   1.0000   1.0000   1.0000   1.0000   1.0000   1.0000
     1.0000   1.0000   1.0000   1.0000   1.0000   1.0000   1.0000   1.0000
     1.0000   1.0000   1.0000   1.0000   1.0000   1.0831   0.5944   0.0004
     0.0004   0.0004   0.0004   0.0000   0.0000   0.0000

          k =-0.1179 0.1179 0.1179 ( 12026 PWs)   bands (ev):

    -3.0776  -0.9757  -0.2862  -0.2850  -0.2836   0.3973   0.4002   0.4006
     0.4015   0.4016   0.4051   1.0821   1.7548   1.7559   1.7574   3.7546
     3.7558   3.7573   5.0540   5.0540   5.0552   5.0556   5.0568   5.0569
     6.1281   6.1292   6.1308   6.4389   6.4401   6.4417   6.8703   6.8721
     6.8726   6.8728   6.8731   6.8751   7.0441   7.5015   7.5021   7.5027
     8.3248   8.3253   8.3257   8.7433   8.7436   8.7440

     occupation numbers 
     1.0000   1.0000   1.0000   1.0000   1.0000   1.0000   1.0000   1.0000
     1.0000   1.0000   1.0000   1.0000   1.0000   1.0000   1.0000   1.0000
     1.0000   1.0000   1.0000   1.0000   1.0000   1.0000   1.0000   1.0000
     1.0000   1.0000   1.0000   1.0000   1.0000   1.0000   1.0000   1.0000
     1.0000   1.0000   1.0000   1.0000   1.0000   1.0005   1.0006   1.0006
     0.5366   0.5355   0.5343   0.0076   0.0076   0.0076

          k =-0.2357 0.2357 0.2357 ( 12020 PWs)   bands (ev):

    -2.8123  -1.7585  -0.3721  -0.3710  -0.3695  -0.0280  -0.0269  -0.0254
     0.9960   0.9971   0.9986   2.3462   2.6721   2.6735   2.6747   2.6789
     2.6797   2.6816   4.9370   4.9381   4.9396   5.2791   5.2794   5.2805
     5.2809   5.2821   5.2822   5.3400   6.2708   6.2723   6.2729   6.2731
     6.2734   6.2751   7.5353   7.5358   7.5363   7.8408   7.8422   7.8438
     7.9157   7.9161   7.9165   9.2105   9.2107   9.2110

     occupation numbers 
     1.0000   1.0000   1.0000   1.0000   1.0000   1.0000   1.0000   1.0000
     1.0000   1.0000   1.0000   1.0000   1.0000   1.0000   1.0000   1.0000
     1.0000   1.0000   1.0000   1.0000   1.0000   1.0000   1.0000   1.0000
     1.0000   1.0000   1.0000   1.0000   1.0000   1.0000   1.0000   1.0000
     1.0000   1.0000   1.0010   1.0010   1.0010   1.0441   1.0446   1.0451
     1.0694   1.0695   1.0696   0.0000   0.0000   0.0000

          k = 0.3536-0.3536-0.3536 ( 12014 PWs)   bands (ev):

    -2.3733  -2.3704  -0.2875  -0.2854  -0.2847  -0.2845  -0.2841  -0.2815
     1.7547   1.7577   1.7577   1.7586   1.7588   1.7620   3.6449   3.7390
     3.7401   3.7405   3.7416   3.7416   3.7432   3.8948   5.5278   5.5295
     5.5301   5.5304   5.5311   5.5327   5.8825   5.8841   5.8848   5.8851
     5.8855   5.8874   7.6546   7.6561   7.6565   7.6569   7.6574   7.6589
     9.3655   9.3658   9.3663   9.3682   9.3690   9.3693

     occupation numbers 
     1.0000   1.0000   1.0000   1.0000   1.0000   1.0000   1.0000   1.0000
     1.0000   1.0000   1.0000   1.0000   1.0000   1.0000   1.0000   1.0000
     1.0000   1.0000   1.0000   1.0000   1.0000   1.0000   1.0000   1.0000
     1.0000   1.0000   1.0000   1.0000   1.0000   1.0000   1.0000   1.0000
     1.0000   1.0000   1.0061   1.0062   1.0063   1.0063   1.0063   1.0065
     0.0000   0.0000   0.0000   0.0000   0.0000   0.0000

          k = 0.2357 0.0000 0.0000 ( 12035 PWs)   bands (ev):

    -3.0480  -0.6030  -0.6008  -0.6006  -0.5992  -0.2557   0.7684   0.7706
     0.7708   0.7722   1.1078   1.1096   1.1097   1.1118   2.4516   3.7810
     3.7829   3.7829   3.7851   5.0702   5.0711   5.0717   5.0725   6.0573
     6.0593   6.0596   6.0610   6.3418   6.3438   6.3439   6.3461   6.7349
     6.7365   6.7366   6.7385   7.7115   7.7121   7.7133   7.7138   7.9816
     7.9831   7.9833   7.9852   8.3100   8.3115   8.3116

     occupation numbers 
     1.0000   1.0000   1.0000   1.0000   1.0000   1.0000   1.0000   1.0000
     1.0000   1.0000   1.0000   1.0000   1.0000   1.0000   1.0000   1.0000
     1.0000   1.0000   1.0000   1.0000   1.0000   1.0000   1.0000   1.0000
     1.0000   1.0000   1.0000   1.0000   1.0000   1.0000   1.0000   1.0000
     1.0000   1.0000   1.0000   1.0126   1.0127   1.0128   1.0129   1.0830
     1.0831   1.0831   1.0832   0.5777   0.5735   0.5733

          k = 0.3536-0.1179 0.1179 ( 12039 PWs)   bands (ev):

    -2.8417  -1.4388  -0.7464  -0.7446  -0.7429  -0.0557   0.6268   0.6285
     0.6303   1.3071   1.3090   1.9788   1.9806   1.9835   2.6508   2.6526
     3.3022   3.9716   3.9722   3.9736   4.6078   5.1114   5.1132   5.4587
     5.4594   5.7898   5.7916   5.9430   5.9637   6.3372   6.3388   6.5992
     6.6399   6.6411   7.2534   7.2540   7.6892   7.6913   7.7108   7.7127
     8.3449   8.3457   8.4334   8.4338   8.5323   8.9381

     occupation numbers 
     1.0000   1.0000   1.0000   1.0000   1.0000   1.0000   1.0000   1.0000
     1.0000   1.0000   1.0000   1.0000   1.0000   1.0000   1.0000   1.0000
     1.0000   1.0000   1.0000   1.0000   1.0000   1.0000   1.0000   1.0000
     1.0000   1.0000   1.0000   1.0000   1.0000   1.0000   1.0000   1.0000
     1.0000   1.0000   1.0000   1.0000   1.0096   1.0098   1.0125   1.0127
     0.4821   0.4799   0.2693   0.2683   0.1124   0.0002

          k =-0.3536 0.1179 0.1179 ( 12039 PWs)   bands (ev):

    -2.8417  -1.4388  -0.7464  -0.7446  -0.7429  -0.0557   0.6268   0.6285
     0.6303   1.3071   1.3090   1.9788   1.9806   1.9835   2.6508   2.6526
     3.3022   3.9717   3.9722   3.9735   4.6078   5.1114   5.1132   5.4587
     5.4594   5.7898   5.7916   5.9430   5.9637   6.3372   6.3388   6.5992
     6.6399   6.6411   7.2534   7.2540   7.6892   7.6913   7.7108   7.7127
     8.3449   8.3458   8.4333   8.4338   8.5323   8.9382

     occupation numbers 
     1.0000   1.0000   1.0000   1.0000   1.0000   1.0000   1.0000   1.0000
     1.0000   1.0000   1.0000   1.0000   1.0000   1.0000   1.0000   1.0000
     1.0000   1.0000   1.0000   1.0000   1.0000   1.0000   1.0000   1.0000
     1.0000   1.0000   1.0000   1.0000   1.0000   1.0000   1.0000   1.0000
     1.0000   1.0000   1.0000   1.0000   1.0096   1.0098   1.0125   1.0127
     0.4821   0.4798   0.2693   0.2684   0.1124   0.0002

          k = 0.1179-0.3536-0.1179 ( 12039 PWs)   bands (ev):

    -2.8417  -1.4388  -0.7449  -0.7446  -0.7443  -0.0557   0.6284   0.6285
     0.6287   1.3079   1.3082   1.9799   1.9802   1.9829   2.6516   2.6518
     3.3022   3.9721   3.9725   3.9728   4.6078   5.1122   5.1124   5.4590
     5.4591   5.7906   5.7908   5.9430   5.9638   6.3380   6.3381   6.5992
     6.6404   6.6406   7.2537   7.2537   7.6901   7.6904   7.7117   7.7119
     8.3453   8.3453   8.4335   8.4337   8.5323   8.9383

     occupation numbers 
     1.0000   1.0000   1.0000   1.0000   1.0000   1.0000   1.0000   1.0000
     1.0000   1.0000   1.0000   1.0000   1.0000   1.0000   1.0000   1.0000
     1.0000   1.0000   1.0000   1.0000   1.0000   1.0000   1.0000   1.0000
     1.0000   1.0000   1.0000   1.0000   1.0000   1.0000   1.0000   1.0000
     1.0000   1.0000   1.0000   1.0000   1.0097   1.0097   1.0126   1.0126
     0.4811   0.4810   0.2690   0.2686   0.1124   0.0002

          k =-0.2357 0.4714-0.4714 ( 12047 PWs)   bands (ev):

    -2.4597  -2.1085  -1.0619  -0.7167  -0.7149   0.3147   0.3166   0.6557
     0.6583   1.6730   1.6748   2.0096   2.0115   3.0051   3.0070   3.0123
     3.3371   3.3379   4.2925   4.3211   4.3230   4.3646   4.6156   4.6175
     4.6333   4.6354   5.6718   5.6723   5.8865   5.8874   5.9806   6.8993
     6.9011   6.9497   6.9503   7.2124   7.2143   8.2040   8.4447   8.4927
     8.4934   8.6930   8.6942   9.4484   9.4953   9.5468

     occupation numbers 
     1.0000   1.0000   1.0000   1.0000   1.0000   1.0000   1.0000   1.0000
     1.0000   1.0000   1.0000   1.0000   1.0000   1.0000   1.0000   1.0000
     1.0000   1.0000   1.0000   1.0000   1.0000   1.0000   1.0000   1.0000
     1.0000   1.0000   1.0000   1.0000   1.0000   1.0000   1.0000   1.0000
     1.0000   1.0000   1.0000   1.0000   1.0000   0.8549   0.2467   0.1641
     0.1631   0.0161   0.0158   0.0000   0.0000   0.0000

          k = 0.2357-0.4714-0.4714 ( 12047 PWs)   bands (ev):

    -2.4598  -2.1085  -1.0619  -0.7167  -0.7149   0.3147   0.3166   0.6569
     0.6570   1.6730   1.6748   2.0096   2.0115   3.0051   3.0070   3.0122
     3.3371   3.3380   4.2925   4.3211   4.3230   4.3646   4.6157   4.6176
     4.6333   4.6353   5.6718   5.6723   5.8865   5.8874   5.9806   6.8993
     6.9011   6.9497   6.9503   7.2124   7.2143   8.2040   8.4447   8.4927
     8.4934   8.6930   8.6942   9.4484   9.4952   9.5467

     occupation numbers 
     1.0000   1.0000   1.0000   1.0000   1.0000   1.0000   1.0000   1.0000
     1.0000   1.0000   1.0000   1.0000   1.0000   1.0000   1.0000   1.0000
     1.0000   1.0000   1.0000   1.0000   1.0000   1.0000   1.0000   1.0000
     1.0000   1.0000   1.0000   1.0000   1.0000   1.0000   1.0000   1.0000
     1.0000   1.0000   1.0000   1.0000   1.0000   0.8549   0.2467   0.1641
     0.1631   0.0161   0.0158   0.0000   0.0000   0.0000

          k =-0.4714 0.2357 0.4714 ( 12047 PWs)   bands (ev):

    -2.4598  -2.1085  -1.0619  -0.7159  -0.7157   0.3155   0.3158   0.6557
     0.6583   1.6737   1.6740   2.0104   2.0107   3.0059   3.0061   3.0123
     3.3371   3.3380   4.2926   4.3219   4.3222   4.3646   4.6165   4.6166
     4.6342   4.6346   5.6720   5.6720   5.8870   5.8870   5.9806   6.9001
     6.9003   6.9499   6.9499   7.2133   7.2135   8.2040   8.4447   8.4930
     8.4930   8.6936   8.6937   9.4484   9.4953   9.5475

     occupation numbers 
     1.0000   1.0000   1.0000   1.0000   1.0000   1.0000   1.0000   1.0000
     1.0000   1.0000   1.0000   1.0000   1.0000   1.0000   1.0000   1.0000
     1.0000   1.0000   1.0000   1.0000   1.0000   1.0000   1.0000   1.0000
     1.0000   1.0000   1.0000   1.0000   1.0000   1.0000   1.0000   1.0000
     1.0000   1.0000   1.0000   1.0000   1.0000   0.8549   0.2467   0.1637
     0.1637   0.0160   0.0159   0.0000   0.0000   0.0000

          k =-0.1179 0.3536-0.3536 ( 12041 PWs)   bands (ev):

    -2.6065  -1.9042  -1.2067  -0.5151  -0.5133   0.1721   0.1739   0.8536
     0.8555   0.8575   1.5333   2.2030   2.2071   2.8728   2.8736   2.8747
     3.5210   3.5228   4.1763   4.1781   4.1869   4.1889   4.8234   4.8252
     4.8778   5.3709   5.4704   5.4711   6.1581   6.1587   6.1762   6.7951
     6.7970   6.7990   6.7998   7.2899   7.2919   7.7379   8.0495   8.0515
     8.7226   8.7233   9.1894   9.3979   9.5495   9.5505

     occupation numbers 
     1.0000   1.0000   1.0000   1.0000   1.0000   1.0000   1.0000   1.0000
     1.0000   1.0000   1.0000   1.0000   1.0000   1.0000   1.0000   1.0000
     1.0000   1.0000   1.0000   1.0000   1.0000   1.0000   1.0000   1.0000
     1.0000   1.0000   1.0000   1.0000   1.0000   1.0000   1.0000   1.0000
     1.0000   1.0000   1.0000   1.0000   1.0000   1.0170   1.0701   1.0691
     0.0105   0.0104   0.0000   0.0000   0.0000   0.0000

          k = 0.1179-0.3536-0.3536 ( 12041 PWs)   bands (ev):

    -2.6065  -1.9042  -1.2067  -0.5151  -0.5133   0.1721   0.1739   0.8536
     0.8555   0.8575   1.5333   2.2034   2.2067   2.8725   2.8736   2.8750
     3.5210   3.5228   4.1761   4.1780   4.1871   4.1890   4.8234   4.8253
     4.8778   5.3709   5.4704   5.4711   6.1581   6.1587   6.1761   6.7952
     6.7971   6.7990   6.7996   7.2899   7.2919   7.7379   8.0495   8.0515
     8.7226   8.7233   9.1894   9.3979   9.5495   9.5504

     occupation numbers 
     1.0000   1.0000   1.0000   1.0000   1.0000   1.0000   1.0000   1.0000
     1.0000   1.0000   1.0000   1.0000   1.0000   1.0000   1.0000   1.0000
     1.0000   1.0000   1.0000   1.0000   1.0000   1.0000   1.0000   1.0000
     1.0000   1.0000   1.0000   1.0000   1.0000   1.0000   1.0000   1.0000
     1.0000   1.0000   1.0000   1.0000   1.0000   1.0170   1.0701   1.0691
     0.0105   0.0104   0.0000   0.0000   0.0000   0.0000

          k =-0.3536 0.1179 0.3536 ( 12041 PWs)   bands (ev):

    -2.6065  -1.9042  -1.2067  -0.5144  -0.5141   0.1728   0.1731   0.8554
     0.8554   0.8557   1.5334   2.2035   2.2067   2.8730   2.8736   2.8744
     3.5218   3.5220   4.1771   4.1773   4.1877   4.1880   4.8242   4.8245
     4.8777   5.3709   5.4708   5.4708   6.1584   6.1584   6.1761   6.7961
     6.7964   6.7992   6.7993   7.2908   7.2911   7.7379   8.0504   8.0506
     8.7229   8.7229   9.1894   9.3979   9.5500   9.5500

     occupation numbers 
     1.0000   1.0000   1.0000   1.0000   1.0000   1.0000   1.0000   1.0000
     1.0000   1.0000   1.0000   1.0000   1.0000   1.0000   1.0000   1.0000
     1.0000   1.0000   1.0000   1.0000   1.0000   1.0000   1.0000   1.0000
     1.0000   1.0000   1.0000   1.0000   1.0000   1.0000   1.0000   1.0000
     1.0000   1.0000   1.0000   1.0000   1.0000   1.0170   1.0697   1.0695
     0.0104   0.0104   0.0000   0.0000   0.0000   0.0000

          k =-0.0000 0.2357-0.2357 ( 12026 PWs)   bands (ev):

    -2.9301  -1.1789  -1.1769  -0.1421  -0.1403   0.1992   0.2013   0.2015
     0.2038   1.2218   1.2234   1.5607   1.5627   2.5618   2.5636   2.5686
     3.8900   3.8915   3.8919   3.8934   5.1876   5.1883   5.4576   5.4596
     5.4598   5.4621   6.2191   6.5184   6.5200   6.5204   6.5220   6.5301
     6.5318   6.7886   6.7895   6.7908   6.7918   7.3691   7.4618   7.4640
     8.1052   8.7133   9.0437   9.0450   9.0861   9.0870

     occupation numbers 
     1.0000   1.0000   1.0000   1.0000   1.0000   1.0000   1.0000   1.0000
     1.0000   1.0000   1.0000   1.0000   1.0000   1.0000   1.0000   1.0000
     1.0000   1.0000   1.0000   1.0000   1.0000   1.0000   1.0000   1.0000
     1.0000   1.0000   1.0000   1.0000   1.0000   1.0000   1.0000   1.0000
     1.0000   1.0000   1.0000   1.0000   1.0000   1.0000   1.0003   1.0003
     1.0255   0.0120   0.0000   0.0000   0.0000   0.0000

          k =-0.2357 0.0000 0.2357 ( 12026 PWs)   bands (ev):

    -2.9301  -1.1781  -1.1777  -0.1413  -0.1411   0.2011   0.2014   0.2015
     0.2018   1.2226   1.2226   1.5616   1.5619   2.5626   2.5627   2.5686
     3.8915   3.8916   3.8918   3.8919   5.1879   5.1880   5.4595   5.4597
     5.4598   5.4601   6.2191   6.5201   6.5201   6.5201   6.5204   6.5309
     6.5312   6.7900   6.7900   6.7903   6.7903   7.3691   7.4628   7.4631
     8.1052   8.7133   9.0442   9.0445   9.0871   9.0871

     occupation numbers 
     1.0000   1.0000   1.0000   1.0000   1.0000   1.0000   1.0000   1.0000
     1.0000   1.0000   1.0000   1.0000   1.0000   1.0000   1.0000   1.0000
     1.0000   1.0000   1.0000   1.0000   1.0000   1.0000   1.0000   1.0000
     1.0000   1.0000   1.0000   1.0000   1.0000   1.0000   1.0000   1.0000
     1.0000   1.0000   1.0000   1.0000   1.0000   1.0000   1.0003   1.0003
     1.0255   0.0120   0.0000   0.0000   0.0000   0.0000

          k = 0.4714 0.0000 0.0000 ( 12050 PWs)   bands (ev):

    -2.6945  -1.2934  -0.9487  -0.9466  -0.9464  -0.9449   1.4461   1.4479
     1.4480   1.4501   1.7842   1.7864   1.7866   1.7881   2.7878   2.7897
     2.7897   2.7919   4.0758   4.4158   4.4181   4.4182   4.4198   5.4602
     5.4608   5.4619   5.4623   6.4242   6.4257   6.4259   6.4278   6.7429
     6.7435   6.7446   6.7451   7.5821   7.5843   7.5843   7.5862   8.2397
     8.2557   8.2569   8.2570   8.2581   8.9216   8.9220

     occupation numbers 
     1.0000   1.0000   1.0000   1.0000   1.0000   1.0000   1.0000   1.0000
     1.0000   1.0000   1.0000   1.0000   1.0000   1.0000   1.0000   1.0000
     1.0000   1.0000   1.0000   1.0000   1.0000   1.0000   1.0000   1.0000
     1.0000   1.0000   1.0000   1.0000   1.0000   1.0000   1.0000   1.0000
     1.0000   1.0000   1.0000   1.0021   1.0022   1.0022   1.0023   0.7682
     0.7262   0.7231   0.7229   0.7199   0.0003   0.0003

          k =-0.1179 0.5893-0.5893 ( 12071 PWs)   bands (ev):

    -2.3717  -1.6725  -1.6696  -0.9764  -0.9745  -0.2848   1.0809   1.0827
     1.7559   1.7578   1.7598   2.4247   2.4268   2.4290   2.4311   3.0909
     3.0924   3.0931   3.0953   3.7497   3.7516   4.2745   4.5781   4.9475
     5.0962   5.5816   5.5834   5.7454   5.7459   6.2123   6.2132   6.3908
     6.3913   7.0289   7.3317   7.6748   7.9541   7.9551   8.0452   8.0474
     8.6895   8.6913   8.7614   8.7633   9.4355   9.4369

     occupation numbers 
     1.0000   1.0000   1.0000   1.0000   1.0000   1.0000   1.0000   1.0000
     1.0000   1.0000   1.0000   1.0000   1.0000   1.0000   1.0000   1.0000
     1.0000   1.0000   1.0000   1.0000   1.0000   1.0000   1.0000   1.0000
     1.0000   1.0000   1.0000   1.0000   1.0000   1.0000   1.0000   1.0000
     1.0000   1.0000   1.0000   1.0080   1.0794   1.0796   1.0721   1.0711
     0.0169   0.0165   0.0057   0.0056   0.0000   0.0000

          k = 0.1179-0.5893-0.5893 ( 12071 PWs)   bands (ev):

    -2.3717  -1.6711  -1.6709  -0.9764  -0.9745  -0.2848   1.0809   1.0827
     1.7559   1.7578   1.7598   2.4255   2.4274   2.4285   2.4303   3.0903
     3.0922   3.0936   3.0956   3.7497   3.7516   4.2745   4.5781   4.9475
     5.0962   5.5816   5.5834   5.7454   5.7459   6.2123   6.2132   6.3907
     6.3913   7.0289   7.3316   7.6748   7.9541   7.9551   8.0452   8.0473
     8.6895   8.6913   8.7614   8.7633   9.3979   9.4360

     occupation numbers 
     1.0000   1.0000   1.0000   1.0000   1.0000   1.0000   1.0000   1.0000
     1.0000   1.0000   1.0000   1.0000   1.0000   1.0000   1.0000   1.0000
     1.0000   1.0000   1.0000   1.0000   1.0000   1.0000   1.0000   1.0000
     1.0000   1.0000   1.0000   1.0000   1.0000   1.0000   1.0000   1.0000
     1.0000   1.0000   1.0000   1.0080   1.0794   1.0796   1.0721   1.0711
     0.0169   0.0165   0.0057   0.0056   0.0000   0.0000

          k =-0.5893 0.1179 0.5893 ( 12071 PWs)   bands (ev):

    -2.3717  -1.6725  -1.6696  -0.9756  -0.9753  -0.2848   1.0817   1.0819
     1.7577   1.7578   1.7579   2.4254   2.4263   2.4292   2.4306   3.0904
     3.0925   3.0941   3.0947   3.7505   3.7508   4.2745   4.5781   4.9475
     5.0963   5.5824   5.5825   5.7457   5.7457   6.2127   6.2127   6.3910
     6.3910   7.0289   7.3316   7.6748   7.9546   7.9547   8.0461   8.0464
     8.6902   8.6906   8.7623   8.7624   9.3979   9.4367

     occupation numbers 
     1.0000   1.0000   1.0000   1.0000   1.0000   1.0000   1.0000   1.0000
     1.0000   1.0000   1.0000   1.0000   1.0000   1.0000   1.0000   1.0000
     1.0000   1.0000   1.0000   1.0000   1.0000   1.0000   1.0000   1.0000
     1.0000   1.0000   1.0000   1.0000   1.0000   1.0000   1.0000   1.0000
     1.0000   1.0000   1.0000   1.0080   1.0795   1.0795   1.0717   1.0716
     0.0167   0.0167   0.0057   0.0057   0.0000   0.0000

          k =-0.0000 0.4714-0.4714 ( 12054 PWs)   bands (ev):

    -2.2254  -1.8759  -1.8739  -0.8319  -0.8301   0.5433   0.8816   0.8837
     0.8839   0.8862   1.8966   1.8982   3.2303   3.2319   3.2322   3.2338
     3.5547   3.5556   3.5570   3.5571   3.5576   3.5597   4.5080   4.5098
     4.5839   4.5855   5.5995   5.7940   5.7948   6.1947   6.1956   6.1968
     6.1978   6.9521   8.0854   8.0877   8.3695   8.3714   8.3715   8.3734
     8.6519   8.6527   8.7454   8.7477   9.3349   9.3369

     occupation numbers 
     1.0000   1.0000   1.0000   1.0000   1.0000   1.0000   1.0000   1.0000
     1.0000   1.0000   1.0000   1.0000   1.0000   1.0000   1.0000   1.0000
     1.0000   1.0000   1.0000   1.0000   1.0000   1.0000   1.0000   1.0000
     1.0000   1.0000   1.0000   1.0000   1.0000   1.0000   1.0000   1.0000
     1.0000   1.0000   1.0454   1.0434   0.4176   0.4128   0.4124   0.4077
     0.0282   0.0279   0.0074   0.0071   0.0000   0.0000

          k =-0.4714 0.0000 0.4714 ( 12054 PWs)   bands (ev):

    -2.2254  -1.8751  -1.8747  -0.8312  -0.8309   0.5433   0.8836   0.8838
     0.8839   0.8842   1.8973   1.8974   3.2319   3.2319   3.2321   3.2322
     3.5557   3.5563   3.5569   3.5573   3.5578   3.5579   4.5088   4.5090
     4.5847   4.5847   5.5996   5.7944   5.7944   6.1960   6.1960   6.1964
     6.1964   6.9520   8.0865   8.0867   8.3713   8.3714   8.3715   8.3716
     8.6523   8.6523   8.7464   8.7467   9.3357   9.3360

     occupation numbers 
     1.0000   1.0000   1.0000   1.0000   1.0000   1.0000   1.0000   1.0000
     1.0000   1.0000   1.0000   1.0000   1.0000   1.0000   1.0000   1.0000
     1.0000   1.0000   1.0000   1.0000   1.0000   1.0000   1.0000   1.0000
     1.0000   1.0000   1.0000   1.0000   1.0000   1.0000   1.0000   1.0000
     1.0000   1.0000   1.0445   1.0443   0.4130   0.4129   0.4124   0.4123
     0.0280   0.0280   0.0073   0.0072   0.0000   0.0000

          k =-0.7071 0.0000 0.0000 ( 12086 PWs)   bands (ev):

    -2.1093  -2.1073  -1.0643  -1.0621  -1.0619  -1.0604   2.0052   2.0084
     2.0086   2.0090   2.0094   2.0102   2.0102   2.0137   3.0076   3.0101
     3.0106   3.0112   3.0113   3.0116   3.0119   3.0142   5.3934   5.9855
     5.9863   5.9875   5.9878   5.9881   5.9885   5.9898   5.9904   6.3207
     6.3222   6.3224   6.3243   6.7307   7.6970   7.6990   7.6990   7.7004
     9.1263   9.1287   9.1288   9.1315  10.0714  10.0727

     occupation numbers 
     1.0000   1.0000   1.0000   1.0000   1.0000   1.0000   1.0000   1.0000
     1.0000   1.0000   1.0000   1.0000   1.0000   1.0000   1.0000   1.0000
     1.0000   1.0000   1.0000   1.0000   1.0000   1.0000   1.0000   1.0000
     1.0000   1.0000   1.0000   1.0000   1.0000   1.0000   1.0000   1.0000
     1.0000   1.0000   1.0000   1.0000   1.0106   1.0108   1.0108   1.0110
     0.0000   0.0000   0.0000   0.0000   0.0000   0.0000

          k =-0.2357 0.4714-0.7071 ( 12069 PWs)   bands (ev):

    -2.5771  -1.5268  -1.5248  -1.1776  -0.1425  -0.1405   0.2016   1.2222
     1.2242   1.5593   1.5608   1.5625   2.5677   2.5697   2.8951   2.9001
     2.9016   3.8841   3.8862   4.1842   4.2074   4.2088   4.2143   5.1523
     5.1544   5.2357   5.2376   5.5553   5.5569   5.9091   6.7324   6.8356
     6.8373   7.1512   7.2684   7.7459   7.7481   8.0173   8.0190   8.1253
     8.1270   8.3446   8.3996   8.6716   9.3823   9.3854

     occupation numbers 
     1.0000   1.0000   1.0000   1.0000   1.0000   1.0000   1.0000   1.0000
     1.0000   1.0000   1.0000   1.0000   1.0000   1.0000   1.0000   1.0000
     1.0000   1.0000   1.0000   1.0000   1.0000   1.0000   1.0000   1.0000
     1.0000   1.0000   1.0000   1.0000   1.0000   1.0000   1.0000   1.0000
     1.0000   1.0000   1.0000   1.0185   1.0189   1.0809   1.0806   1.0004
     0.9979   0.4830   0.3438   0.0217   0.0000   0.0000

          k =-0.4714 0.7071-0.2357 ( 12069 PWs)   bands (ev):

    -2.5771  -1.5260  -1.5256  -1.1776  -0.1417  -0.1413   0.2017   1.2231
     1.2234   1.5605   1.5606   1.5614   2.5685   2.5689   2.8955   2.9007
     2.9007   3.8849   3.8853   4.1842   4.2081   4.2081   4.2143   5.1531
     5.1535   5.2365   5.2368   5.5561   5.5562   5.9091   6.7324   6.8364
     6.8364   7.1512   7.2683   7.7468   7.7471   8.0181   8.0182   8.1261
     8.1262   8.3446   8.3996   8.6715   9.3817   9.3851

     occupation numbers 
     1.0000   1.0000   1.0000   1.0000   1.0000   1.0000   1.0000   1.0000
     1.0000   1.0000   1.0000   1.0000   1.0000   1.0000   1.0000   1.0000
     1.0000   1.0000   1.0000   1.0000   1.0000   1.0000   1.0000   1.0000
     1.0000   1.0000   1.0000   1.0000   1.0000   1.0000   1.0000   1.0000
     1.0000   1.0000   1.0000   1.0187   1.0188   1.0808   1.0807   0.9992
     0.9991   0.4831   0.3437   0.0217   0.0000   0.0000

          k =-0.4714-0.7071 0.2357 ( 12069 PWs)   bands (ev):

    -2.5771  -1.5260  -1.5256  -1.1776  -0.1417  -0.1413   0.2016   1.2231
     1.2234   1.5591   1.5605   1.5629   2.5685   2.5689   2.8949   2.9007
     2.9013   3.8850   3.8853   4.1841   4.2081   4.2082   4.2143   5.1531
     5.1535   5.2365   5.2368   5.5561   5.5562   5.9091   6.7324   6.8364
     6.8364   7.1512   7.2683   7.7468   7.7471   8.0181   8.0182   8.1261
     8.1261   8.3446   8.3996   8.6715   9.3822   9.3849

     occupation numbers 
     1.0000   1.0000   1.0000   1.0000   1.0000   1.0000   1.0000   1.0000
     1.0000   1.0000   1.0000   1.0000   1.0000   1.0000   1.0000   1.0000
     1.0000   1.0000   1.0000   1.0000   1.0000   1.0000   1.0000   1.0000
     1.0000   1.0000   1.0000   1.0000   1.0000   1.0000   1.0000   1.0000
     1.0000   1.0000   1.0000   1.0187   1.0188   1.0808   1.0807   0.9992
     0.9992   0.4830   0.3437   0.0217   0.0000   0.0000

          k =-0.1179 0.3536-0.5893 ( 12084 PWs)   bands (ev):

    -2.1377  -2.1377  -1.4386  -1.4386  -0.0556  -0.0555   0.6286   0.6286
     1.3077   1.3077   1.9821   1.9822   2.6491   2.6492   3.3128   3.3130
     3.3147   3.3149   3.8548   3.9597   3.9597   4.1243   4.4843   4.6121
     4.6121   4.8023   5.1595   5.1596   5.3114   5.3114   6.9476   7.1654
     7.2244   7.2244   7.5458   7.5459   7.8680   7.8681   8.3323   8.3323
     8.4935   8.4935   9.0953   9.1379   9.1379   9.5175

     occupation numbers 
     1.0000   1.0000   1.0000   1.0000   1.0000   1.0000   1.0000   1.0000
     1.0000   1.0000   1.0000   1.0000   1.0000   1.0000   1.0000   1.0000
     1.0000   1.0000   1.0000   1.0000   1.0000   1.0000   1.0000   1.0000
     1.0000   1.0000   1.0000   1.0000   1.0000   1.0000   1.0000   1.0000
     1.0000   1.0000   1.0012   1.0012   1.0534   1.0534   0.5162   0.5162
     0.1629   0.1629   0.0000   0.0000   0.0000   0.0000

          k = 0.1179-0.3536-0.5893 ( 12084 PWs)   bands (ev):

    -2.1391  -2.1362  -1.4400  -1.4371  -0.0563  -0.0548   0.6279   0.6293
     1.3062   1.3091   1.9814   1.9829   2.6485   2.6499   3.3118   3.3138
     3.3147   3.3152   3.8548   3.9595   3.9600   4.1243   4.4843   4.6119
     4.6124   4.8023   5.1590   5.1601   5.3106   5.3122   6.9476   7.1654
     7.2241   7.2247   7.5452   7.5465   7.8671   7.8690   8.3308   8.3338
     8.4926   8.4944   9.0953   9.1376   9.1382   9.5179

     occupation numbers 
     1.0000   1.0000   1.0000   1.0000   1.0000   1.0000   1.0000   1.0000
     1.0000   1.0000   1.0000   1.0000   1.0000   1.0000   1.0000   1.0000
     1.0000   1.0000   1.0000   1.0000   1.0000   1.0000   1.0000   1.0000
     1.0000   1.0000   1.0000   1.0000   1.0000   1.0000   1.0000   1.0000
     1.0000   1.0000   1.0012   1.0012   1.0531   1.0537   0.5202   0.5122
     0.1643   0.1616   0.0000   0.0000   0.0000   0.0000

          k =-0.3536 0.1179 0.5893 ( 12084 PWs)   bands (ev):

    -2.1391  -2.1362  -1.4386  -1.4386  -0.0563  -0.0548   0.6271   0.6301
     1.3077   1.3077   1.9819   1.9824   2.6487   2.6496   3.3117   3.3131
     3.3146   3.3161   3.8548   3.9596   3.9598   4.1243   4.4843   4.6120
     4.6123   4.8023   5.1592   5.1599   5.3106   5.3121   6.9476   7.1654
     7.2242   7.2245   7.5458   7.5459   7.8679   7.8681   8.3308   8.3338
     8.4927   8.4943   9.0953   9.1378   9.1380   9.5172

     occupation numbers 
     1.0000   1.0000   1.0000   1.0000   1.0000   1.0000   1.0000   1.0000
     1.0000   1.0000   1.0000   1.0000   1.0000   1.0000   1.0000   1.0000
     1.0000   1.0000   1.0000   1.0000   1.0000   1.0000   1.0000   1.0000
     1.0000   1.0000   1.0000   1.0000   1.0000   1.0000   1.0000   1.0000
     1.0000   1.0000   1.0012   1.0012   1.0534   1.0534   0.5202   0.5122
     0.1641   0.1618   0.0000   0.0000   0.0000   0.0000

          k =-0.7071-0.2357 0.0000 ( 12060 PWs)   bands (ev):

    -1.9925  -1.9905  -1.6430  -1.6410  -0.2571  -0.2551   0.7695   0.7715
     2.1193   2.1209   2.1216   2.1232   2.4543   2.4558   2.4565   2.4581
     3.4463   3.4484   3.7715   3.7730   3.7737   3.7752   4.8034   4.8050
     4.8057   4.8073   5.0463   5.0485   5.4965   5.8058   6.8425   7.0473
     7.1729   7.3725   7.3742   7.3749   7.3766   7.9823   8.3039   8.9080
     8.9099   8.9106   8.9126   9.1180   9.1200   9.2328

     occupation numbers 
     1.0000   1.0000   1.0000   1.0000   1.0000   1.0000   1.0000   1.0000
     1.0000   1.0000   1.0000   1.0000   1.0000   1.0000   1.0000   1.0000
     1.0000   1.0000   1.0000   1.0000   1.0000   1.0000   1.0000   1.0000
     1.0000   1.0000   1.0000   1.0000   1.0000   1.0000   1.0000   1.0000
     1.0000   1.0000   1.0000   1.0000   1.0000   1.0831   0.5944   0.0004
     0.0004   0.0004   0.0004   0.0000   0.0000   0.0000

          k = 0.2357-0.0000-0.7071 ( 12060 PWs)   bands (ev):

    -1.9925  -1.9905  -1.6422  -1.6418  -0.2562  -0.2559   0.7695   0.7715
     2.1202   2.1203   2.1221   2.1224   2.4547   2.4560   2.4566   2.4573
     3.4463   3.4484   3.7721   3.7732   3.7739   3.7743   4.8043   4.8045
     4.8063   4.8064   5.0472   5.0476   5.4965   5.8059   6.8425   7.0474
     7.1729   7.3734   7.3735   7.3755   7.3757   7.9823   8.3039   8.9085
     8.9101   8.9107   8.9117   9.1189   9.1192   9.2336

     occupation numbers 
     1.0000   1.0000   1.0000   1.0000   1.0000   1.0000   1.0000   1.0000
     1.0000   1.0000   1.0000   1.0000   1.0000   1.0000   1.0000   1.0000
     1.0000   1.0000   1.0000   1.0000   1.0000   1.0000   1.0000   1.0000
     1.0000   1.0000   1.0000   1.0000   1.0000   1.0000   1.0000   1.0000
     1.0000   1.0000   1.0000   1.0000   1.0000   1.0831   0.5945   0.0004
     0.0004   0.0004   0.0004   0.0000   0.0000   0.0000

     the Fermi energy is     8.3762 ev

!    total energy              =    -113.13987263 Ry
     estimated scf accuracy    <          5.1E-13 Ry
     smearing contrib. (-TS)   =      -0.00168715 Ry
     internal energy E=F+TS    =    -113.13818548 Ry

     The total energy is F=E-TS. E is the sum of the following terms:
     one-electron contribution =      79.89192391 Ry
     hartree contribution      =       0.27140418 Ry
     xc contribution           =     -44.27292300 Ry
     ewald contribution        =    -149.02859057 Ry

     convergence has been achieved in  21 iterations

     Forces acting on atoms (cartesian axes, Ry/au):

     atom    1 type  1   force =    -0.00127333    0.00000000    0.00127333
     atom    2 type  1   force =     0.00033199    0.00000000   -0.00033199
     atom    3 type  1   force =     0.00026967    0.00000000   -0.00026967
     atom    4 type  1   force =     0.00000533   -0.00013491   -0.00017711
     atom    5 type  1   force =    -0.00005751    0.00005606    0.00000381
     atom    6 type  1   force =     0.00011937    0.00017025   -0.00005806
     atom    7 type  1   force =     0.00005806   -0.00017025   -0.00011937
     atom    8 type  1   force =     0.00017711    0.00013491   -0.00000533
     atom    9 type  1   force =    -0.00000381   -0.00005606    0.00005751
     atom   10 type  1   force =     0.00017711   -0.00013491   -0.00000533
     atom   11 type  1   force =    -0.00000381    0.00005606    0.00005751
     atom   12 type  1   force =     0.00005806    0.00017025   -0.00011937
     atom   13 type  1   force =    -0.00005165   -0.00009519    0.00005165
     atom   14 type  1   force =    -0.00005175   -0.00001742    0.00005175
     atom   15 type  1   force =     0.00009602    0.00002480   -0.00009602
     atom   16 type  1   force =    -0.00000730    0.00000000    0.00003713
     atom   17 type  1   force =    -0.00011764   -0.00000000   -0.00014023
     atom   18 type  1   force =     0.00008762    0.00000000   -0.00002354
     atom   19 type  1   force =     0.00011937   -0.00017025   -0.00005806
     atom   20 type  1   force =     0.00000533    0.00013491   -0.00017711
     atom   21 type  1   force =    -0.00005751   -0.00005606    0.00000381
     atom   22 type  1   force =    -0.00003713    0.00000000    0.00000730
     atom   23 type  1   force =     0.00014023   -0.00000000    0.00011764
     atom   24 type  1   force =     0.00002354    0.00000000   -0.00008762
     atom   25 type  1   force =    -0.00005175    0.00001742    0.00005175
     atom   26 type  1   force =     0.00009602   -0.00002480   -0.00009602
     atom   27 type  1   force =    -0.00005165    0.00009519    0.00005165
     The non-local contrib.  to forces
     atom    1 type  1   force =    -0.00348420    0.00000000    0.00348420
     atom    2 type  1   force =     0.00083848   -0.00000000   -0.00083848
     atom    3 type  1   force =     0.00080070    0.00000000   -0.00080070
     atom    4 type  1   force =    -0.00019185   -0.00043660   -0.00043934
     atom    5 type  1   force =     0.00005809    0.00002441   -0.00022737
     atom    6 type  1   force =     0.00041414    0.00034704    0.00010098
     atom    7 type  1   force =    -0.00010098   -0.00034704   -0.00041414
     atom    8 type  1   force =     0.00043934    0.00043660    0.00019185
     atom    9 type  1   force =     0.00022737   -0.00002441   -0.00005809
     atom   10 type  1   force =     0.00043934   -0.00043660    0.00019185
     atom   11 type  1   force =     0.00022737    0.00002441   -0.00005809
     atom   12 type  1   force =    -0.00010098    0.00034704   -0.00041414
     atom   13 type  1   force =    -0.00000984   -0.00016667    0.00000984
     atom   14 type  1   force =     0.00006794    0.00012101   -0.00006794
     atom   15 type  1   force =    -0.00002924    0.00012074    0.00002924
     atom   16 type  1   force =    -0.00000997    0.00000000   -0.00001473
     atom   17 type  1   force =    -0.00004082    0.00000000   -0.00004858
     atom   18 type  1   force =    -0.00004400   -0.00000000   -0.00013594
     atom   19 type  1   force =     0.00041414   -0.00034704    0.00010098
     atom   20 type  1   force =    -0.00019185    0.00043660   -0.00043934
     atom   21 type  1   force =     0.00005809   -0.00002441   -0.00022737
     atom   22 type  1   force =     0.00001473    0.00000000    0.00000997
     atom   23 type  1   force =     0.00004858    0.00000000    0.00004082
     atom   24 type  1   force =     0.00013594    0.00000000    0.00004400
     atom   25 type  1   force =     0.00006794   -0.00012101   -0.00006794
     atom   26 type  1   force =    -0.00002924   -0.00012074    0.00002924
     atom   27 type  1   force =    -0.00000984    0.00016667    0.00000984
     The ionic contribution  to forces
     atom    1 type  1   force =    -0.00928813   -0.00000000    0.00928813
     atom    2 type  1   force =     0.00371927   -0.00000000   -0.00371927
     atom    3 type  1   force =     0.00375256    0.00000000   -0.00375256
     atom    4 type  1   force =    -0.00127723   -0.00255511   -0.00118485
     atom    5 type  1   force =     0.00068589    0.00000409   -0.00068220
     atom    6 type  1   force =     0.00117242    0.00255912    0.00129407
     atom    7 type  1   force =    -0.00129407   -0.00255912   -0.00117242
     atom    8 type  1   force =     0.00118485    0.00255511    0.00127723
     atom    9 type  1   force =     0.00068220   -0.00000409   -0.00068589
     atom   10 type  1   force =     0.00118485   -0.00255511    0.00127723
     atom   11 type  1   force =     0.00068220    0.00000409   -0.00068589
     atom   12 type  1   force =    -0.00129407    0.00255912   -0.00117242
     atom   13 type  1   force =     0.00002981   -0.00065198   -0.00002981
     atom   14 type  1   force =     0.00003104    0.00065525   -0.00003104
     atom   15 type  1   force =    -0.00006972   -0.00000356    0.00006972
     atom   16 type  1   force =    -0.00137023   -0.00000000    0.00138667
     atom   17 type  1   force =     0.00120937   -0.00000000    0.00006617
     atom   18 type  1   force =    -0.00007330    0.00000000   -0.00121293
     atom   19 type  1   force =     0.00117242   -0.00255912    0.00129407
     atom   20 type  1   force =    -0.00127723    0.00255511   -0.00118485
     atom   21 type  1   force =     0.00068589   -0.00000409   -0.00068220
     atom   22 type  1   force =    -0.00138667   -0.00000000    0.00137023
     atom   23 type  1   force =    -0.00006617   -0.00000000   -0.00120937
     atom   24 type  1   force =     0.00121293    0.00000000    0.00007330
     atom   25 type  1   force =     0.00003104   -0.00065525   -0.00003104
     atom   26 type  1   force =    -0.00006972    0.00000356    0.00006972
     atom   27 type  1   force =     0.00002981    0.00065198   -0.00002981
     The local contribution  to forces
     atom    1 type  1   force =     0.01149889    0.00000000   -0.01149889
     atom    2 type  1   force =    -0.00422564    0.00000000    0.00422564
     atom    3 type  1   force =    -0.00428358    0.00000000    0.00428358
     atom    4 type  1   force =     0.00147428    0.00285687    0.00144696
     atom    5 type  1   force =    -0.00080136    0.00002761    0.00091338
     atom    6 type  1   force =    -0.00146721   -0.00273583   -0.00145300
     atom    7 type  1   force =     0.00145300    0.00273583    0.00146721
     atom    8 type  1   force =    -0.00144696   -0.00285687   -0.00147428
     atom    9 type  1   force =    -0.00091338   -0.00002761    0.00080136
     atom   10 type  1   force =    -0.00144696    0.00285687   -0.00147428
     atom   11 type  1   force =    -0.00091338    0.00002761    0.00080136
     atom   12 type  1   force =     0.00145300   -0.00273583    0.00146721
     atom   13 type  1   force =    -0.00007149    0.00072331    0.00007149
     atom   14 type  1   force =    -0.00015075   -0.00079371    0.00015075
     atom   15 type  1   force =     0.00019489   -0.00009247   -0.00019489
     atom   16 type  1   force =     0.00137299   -0.00000000   -0.00133472
     atom   17 type  1   force =    -0.00128618   -0.00000000   -0.00015774
     atom   18 type  1   force =     0.00020488   -0.00000000    0.00132522
     atom   19 type  1   force =    -0.00146721    0.00273583   -0.00145300
     atom   20 type  1   force =     0.00147428   -0.00285687    0.00144696
     atom   21 type  1   force =    -0.00080136   -0.00002761    0.00091338
     atom   22 type  1   force =     0.00133472   -0.00000000   -0.00137299
     atom   23 type  1   force =     0.00015774   -0.00000000    0.00128618
     atom   24 type  1   force =    -0.00132522   -0.00000000   -0.00020488
     atom   25 type  1   force =    -0.00015075    0.00079371    0.00015075
     atom   26 type  1   force =     0.00019489    0.00009247   -0.00019489
     atom   27 type  1   force =    -0.00007149   -0.00072331    0.00007149
     The core correction contribution to forces
     atom    1 type  1   force =     0.00000000    0.00000000    0.00000000
     atom    2 type  1   force =     0.00000000    0.00000000    0.00000000
     atom    3 type  1   force =     0.00000000    0.00000000    0.00000000
     atom    4 type  1   force =     0.00000000    0.00000000    0.00000000
     atom    5 type  1   force =     0.00000000    0.00000000    0.00000000
     atom    6 type  1   force =     0.00000000    0.00000000    0.00000000
     atom    7 type  1   force =     0.00000000    0.00000000    0.00000000
     atom    8 type  1   force =     0.00000000    0.00000000    0.00000000
     atom    9 type  1   force =     0.00000000    0.00000000    0.00000000
     atom   10 type  1   force =     0.00000000    0.00000000    0.00000000
     atom   11 type  1   force =     0.00000000    0.00000000    0.00000000
     atom   12 type  1   force =     0.00000000    0.00000000    0.00000000
     atom   13 type  1   force =     0.00000000    0.00000000    0.00000000
     atom   14 type  1   force =     0.00000000    0.00000000    0.00000000
     atom   15 type  1   force =     0.00000000    0.00000000    0.00000000
     atom   16 type  1   force =     0.00000000    0.00000000    0.00000000
     atom   17 type  1   force =     0.00000000    0.00000000    0.00000000
     atom   18 type  1   force =     0.00000000    0.00000000    0.00000000
     atom   19 type  1   force =     0.00000000    0.00000000    0.00000000
     atom   20 type  1   force =     0.00000000    0.00000000    0.00000000
     atom   21 type  1   force =     0.00000000    0.00000000    0.00000000
     atom   22 type  1   force =     0.00000000    0.00000000    0.00000000
     atom   23 type  1   force =     0.00000000    0.00000000    0.00000000
     atom   24 type  1   force =     0.00000000    0.00000000    0.00000000
     atom   25 type  1   force =     0.00000000    0.00000000    0.00000000
     atom   26 type  1   force =     0.00000000    0.00000000    0.00000000
     atom   27 type  1   force =     0.00000000    0.00000000    0.00000000
     The Hubbard contrib.    to forces
     atom    1 type  1   force =     0.00000000    0.00000000    0.00000000
     atom    2 type  1   force =     0.00000000    0.00000000    0.00000000
     atom    3 type  1   force =     0.00000000    0.00000000    0.00000000
     atom    4 type  1   force =     0.00000000    0.00000000    0.00000000
     atom    5 type  1   force =     0.00000000    0.00000000    0.00000000
     atom    6 type  1   force =     0.00000000    0.00000000    0.00000000
     atom    7 type  1   force =     0.00000000    0.00000000    0.00000000
     atom    8 type  1   force =     0.00000000    0.00000000    0.00000000
     atom    9 type  1   force =     0.00000000    0.00000000    0.00000000
     atom   10 type  1   force =     0.00000000    0.00000000    0.00000000
     atom   11 type  1   force =     0.00000000    0.00000000    0.00000000
     atom   12 type  1   force =     0.00000000    0.00000000    0.00000000
     atom   13 type  1   force =     0.00000000    0.00000000    0.00000000
     atom   14 type  1   force =     0.00000000    0.00000000    0.00000000
     atom   15 type  1   force =     0.00000000    0.00000000    0.00000000
     atom   16 type  1   force =     0.00000000    0.00000000    0.00000000
     atom   17 type  1   force =     0.00000000    0.00000000    0.00000000
     atom   18 type  1   force =     0.00000000    0.00000000    0.00000000
     atom   19 type  1   force =     0.00000000    0.00000000    0.00000000
     atom   20 type  1   force =     0.00000000    0.00000000    0.00000000
     atom   21 type  1   force =     0.00000000    0.00000000    0.00000000
     atom   22 type  1   force =     0.00000000    0.00000000    0.00000000
     atom   23 type  1   force =     0.00000000    0.00000000    0.00000000
     atom   24 type  1   force =     0.00000000    0.00000000    0.00000000
     atom   25 type  1   force =     0.00000000    0.00000000    0.00000000
     atom   26 type  1   force =     0.00000000    0.00000000    0.00000000
     atom   27 type  1   force =     0.00000000    0.00000000    0.00000000
     The SCF correction term to forces
     atom    1 type  1   force =     0.00000011    0.00000000   -0.00000011
     atom    2 type  1   force =    -0.00000011    0.00000000    0.00000011
     atom    3 type  1   force =     0.00000000   -0.00000000   -0.00000000
     atom    4 type  1   force =     0.00000012   -0.00000007    0.00000012
     atom    5 type  1   force =    -0.00000013   -0.00000006    0.00000000
     atom    6 type  1   force =     0.00000003   -0.00000008   -0.00000010
     atom    7 type  1   force =     0.00000010    0.00000008   -0.00000003
     atom    8 type  1   force =    -0.00000012    0.00000007   -0.00000012
     atom    9 type  1   force =    -0.00000000    0.00000006    0.00000013
     atom   10 type  1   force =    -0.00000012   -0.00000007   -0.00000012
     atom   11 type  1   force =    -0.00000000   -0.00000006    0.00000013
     atom   12 type  1   force =     0.00000010   -0.00000008   -0.00000003
     atom   13 type  1   force =    -0.00000012    0.00000015    0.00000012
     atom   14 type  1   force =     0.00000003    0.00000004   -0.00000003
     atom   15 type  1   force =     0.00000010    0.00000009   -0.00000010
     atom   16 type  1   force =    -0.00000009   -0.00000000   -0.00000008
     atom   17 type  1   force =    -0.00000000    0.00000000   -0.00000009
     atom   18 type  1   force =     0.00000004   -0.00000000    0.00000011
     atom   19 type  1   force =     0.00000003    0.00000008   -0.00000010
     atom   20 type  1   force =     0.00000012    0.00000007    0.00000012
     atom   21 type  1   force =    -0.00000013    0.00000006    0.00000000
     atom   22 type  1   force =     0.00000008   -0.00000000    0.00000009
     atom   23 type  1   force =     0.00000009    0.00000000    0.00000000
     atom   24 type  1   force =    -0.00000011    0.00000000   -0.00000004
     atom   25 type  1   force =     0.00000003   -0.00000004   -0.00000003
     atom   26 type  1   force =     0.00000010   -0.00000009   -0.00000010
     atom   27 type  1   force =    -0.00000012   -0.00000015    0.00000012

     Total force =     0.002045     Total SCF correction =     0.000001


     Computing stress (Cartesian axis) and pressure

          total   stress  (Ry/bohr**3)                   (kbar)     P=       -0.95
  -0.00000512   0.00000000  -0.00000003           -0.75        0.00       -0.00
   0.00000000  -0.00000916   0.00000000            0.00       -1.35        0.00
  -0.00000003   0.00000000  -0.00000512           -0.00        0.00       -0.75

     kinetic stress (kbar)   1706.85     -0.00     -0.00
                                0.00   1706.37      0.00
                               -0.00      0.00   1706.85

     local   stress (kbar)   -102.85      0.00     -0.00
                                0.00   -103.16      0.00
                               -0.00      0.00   -102.85

     nonloc. stress (kbar)   1681.39      0.00     -0.00
                               -0.00   1681.59      0.00
                               -0.00      0.00   1681.39

     hartree stress (kbar)      4.72     -0.00      0.00
                               -0.00      4.71      0.00
                                0.00      0.00      4.72

     exc-cor stress (kbar)   -699.76      0.00      0.00
                                0.00   -699.76      0.00
                                0.00      0.00   -699.76

     corecor stress (kbar)      0.00      0.00      0.00
                                0.00      0.00      0.00
                                0.00      0.00      0.00

     ewald   stress (kbar)  -2591.10     -0.00      0.00
                               -0.00  -2591.10     -0.00
                                0.00     -0.00  -2591.10

     hubbard stress (kbar)      0.00      0.00      0.00
                                0.00      0.00      0.00
                                0.00      0.00      0.00

     DFT-D   stress (kbar)      0.00      0.00      0.00
                                0.00      0.00      0.00
                                0.00      0.00      0.00

     XDM     stress (kbar)      0.00      0.00      0.00
                                0.00      0.00      0.00
                                0.00      0.00      0.00

     dft-nl  stress (kbar)      0.00      0.00      0.00
                                0.00      0.00      0.00
                                0.00      0.00      0.00

     TS-vdW  stress (kbar)      0.00      0.00      0.00
                                0.00      0.00      0.00
                                0.00      0.00      0.00

     MDB     stress (kbar)      0.00      0.00      0.00
                                0.00      0.00      0.00
                                0.00      0.00      0.00

     3D-RISM stress (kbar)      0.00      0.00      0.00
                                0.00      0.00      0.00
                                0.00      0.00      0.00


     Writing all to output data dir ./tmp/al.save/ :
     XML data file, charge density, pseudopotentials, collected wavefunctions
 
     init_run     :      5.66s CPU      5.80s WALL (       1 calls)
     electrons    :    167.84s CPU    169.29s WALL (       1 calls)
     forces       :      0.85s CPU      0.86s WALL (       1 calls)
     stress       :      3.06s CPU      3.07s WALL (       1 calls)

     Called by init_run:
     wfcinit      :      5.56s CPU      5.70s WALL (       1 calls)
     wfcinit:atom :      0.06s CPU      0.08s WALL (      46 calls)
     wfcinit:wfcr :      5.28s CPU      5.39s WALL (      46 calls)
     potinit      :      0.00s CPU      0.01s WALL (       1 calls)
     hinit0       :      0.00s CPU      0.01s WALL (       1 calls)

     Called by electrons:
     c_bands      :    148.11s CPU    149.34s WALL (      22 calls)
     sum_band     :     19.55s CPU     19.74s WALL (      22 calls)
     v_of_rho     :      0.05s CPU      0.05s WALL (      22 calls)
     v_h          :      0.02s CPU      0.02s WALL (      22 calls)
     v_xc         :      0.03s CPU      0.03s WALL (      22 calls)
     mix_rho      :      0.12s CPU      0.12s WALL (      22 calls)

     Called by c_bands:
     init_us_2    :      4.53s CPU      4.56s WALL (    2162 calls)
     cegterg      :    142.47s CPU    143.64s WALL (    1012 calls)

     Called by sum_band:
     sum_band:wei :      0.07s CPU      0.07s WALL (      22 calls)
     sum_band:loo :     19.43s CPU     19.63s WALL (      22 calls)
     sum_band:buf :      0.63s CPU      0.64s WALL (    1012 calls)
     sum_band:ini :      2.09s CPU      2.10s WALL (    1012 calls)

     Called by *egterg:
     cdiaghg      :      6.19s CPU      6.20s WALL (    4077 calls)
     cegterg:over :      8.25s CPU      8.27s WALL (    3111 calls)
     cegterg:upda :      6.34s CPU      6.35s WALL (    3111 calls)
     cegterg:last :     11.00s CPU     11.02s WALL (    1894 calls)
     h_psi        :    109.74s CPU    110.94s WALL (    4169 calls)
     g_psi        :      0.26s CPU      0.26s WALL (    3111 calls)

     Called by h_psi:
     h_psi:calbec :     10.16s CPU     10.20s WALL (    4169 calls)
     vloc_psi     :     84.74s CPU     85.83s WALL (    4169 calls)
                                        0.00s GPU  (    4169 calls)
     add_vuspsi   :     13.51s CPU     13.54s WALL (    4169 calls)

     General routines
     calbec       :     12.19s CPU     12.24s WALL (    4951 calls)
     fft          :      0.04s CPU      0.04s WALL (      71 calls)
     ffts         :      0.01s CPU      0.01s WALL (      22 calls)
     fftw         :     90.84s CPU     91.95s WALL (  284200 calls)
 
     Parallel routines
 
     PWSCF        :   2m57.56s CPU   2m59.30s WALL

 
   This run was terminated on:  21:43:41  22Sep2026            

=------------------------------------------------------------------------------=
   JOB DONE.
=------------------------------------------------------------------------------=
