
     Program PWSCF v.7.5 starts on 22Sep2026 at 22:32:44 

     This program is part of the open-source Quantum ESPRESSO suite
     for quantum simulation of materials; please cite
         "P. Giannozzi et al., J. Phys.:Condens. Matter 21 395502 (2009);
         "P. Giannozzi et al., J. Phys.:Condens. Matter 29 465901 (2017);
         "P. Giannozzi et al., J. Chem. Phys. 152 154105 (2020);
          URL http://www.quantum-espresso.org", 
     in publications or presentations arising from this work. More details at
     http://www.quantum-espresso.org/quote

     Parallel version (MPI), running on     4 processors

     MPI processes distributed on     1 nodes
     5773 MiB available memory on the printing compute node when the environment starts

     Reading input from vc-relax.in

     Current dimensions of program PWSCF are:
     Max number of different atomic species (ntypx) = 10
     Max number of k-points (npk) =  40000
     Max angular momentum in pseudopotentials (lmaxx) =  4

     R & G space division:  proc/nbgrp/npool/nimage =       4
     Subspace diagonalization in iterative solution of the eigenvalue problem:
     a serial algorithm will be used


     Parallelization info
     --------------------
     sticks:   dense  smooth     PW     G-vecs:    dense   smooth      PW
     Min         321     124     40                 7681     1779     322
     Max         322     126     42                 7686     1781     323
     Sum        1285     499    163                30731     7119    1291

     Using Slab Decomposition



     bravais-lattice index     =            2
     lattice parameter (alat)  =       7.6534  a.u.
     unit-cell volume          =     112.0732 (a.u.)^3
     number of atoms/cell      =            1
     number of atomic types    =            1
     number of electrons       =         3.00
     number of Kohn-Sham states=            6
     kinetic-energy cutoff     =      60.0000  Ry
     charge density cutoff     =     640.0000  Ry
     scf convergence threshold =      1.0E-10
     mixing beta               =       0.7000
     number of iterations used =            8  plain     mixing
     energy convergence thresh.=      1.0E-06
     force convergence thresh. =      1.0E-04
     press convergence thresh. =      1.0E-01
     Exchange-correlation= PBE
                           (   1   4   3   4   0   0   0)
     nstep                     =           60


     celldm(1)=   7.653391  celldm(2)=   0.000000  celldm(3)=   0.000000
     celldm(4)=   0.000000  celldm(5)=   0.000000  celldm(6)=   0.000000

     crystal axes: (cart. coord. in units of alat)
               a(1) = (  -0.500000   0.000000   0.500000 )  
               a(2) = (   0.000000   0.500000   0.500000 )  
               a(3) = (  -0.500000   0.500000   0.000000 )  

     reciprocal axes: (cart. coord. in units 2 pi/alat)
               b(1) = ( -1.000000 -1.000000  1.000000 )  
               b(2) = (  1.000000  1.000000  1.000000 )  
               b(3) = ( -1.000000  1.000000 -1.000000 )  


     PseudoPot. # 1 for Al read from file:
     ../pseudo/Al.pbe-n-rrkjus_psl.1.0.0.UPF
     MD5 check sum: bbe9f3f15d9b3b5ab9a58e4859ebdbfe
     Pseudo is Ultrasoft + core correction, Zval =  3.0
     Generated using &quot;atomic&quot; code by A. Dal Corso  v.6.3
     Using radial grid of 1135 points,  6 beta functions with: 
                l(1) =   0
                l(2) =   0
                l(3) =   1
                l(4) =   1
                l(5) =   2
                l(6) =   2
     Q(r) pseudized with 0 coefficients 


     atomic species   valence    mass     pseudopotential
     Al                3.00    26.98154     Al( 1.00)

     48 Sym. Ops., with inversion, found



   Cartesian axes

     site n.     atom                  positions (alat units)
         1        Al     tau(   1) = (   0.0000000   0.0000000   0.0000000  )

     number of k points=    72  Marzari-Vanderbilt smearing, width (Ry)=  0.0100
                       cart. coord. in units 2pi/alat
        k(    1) = (   0.0000000   0.0000000   0.0000000), wk =   0.0011574
        k(    2) = (  -0.0833333   0.0833333  -0.0833333), wk =   0.0092593
        k(    3) = (  -0.1666667   0.1666667  -0.1666667), wk =   0.0092593
        k(    4) = (  -0.2500000   0.2500000  -0.2500000), wk =   0.0092593
        k(    5) = (  -0.3333333   0.3333333  -0.3333333), wk =   0.0092593
        k(    6) = (  -0.4166667   0.4166667  -0.4166667), wk =   0.0092593
        k(    7) = (   0.5000000  -0.5000000   0.5000000), wk =   0.0046296
        k(    8) = (   0.0000000   0.1666667   0.0000000), wk =   0.0069444
        k(    9) = (  -0.0833333   0.2500000  -0.0833333), wk =   0.0277778
        k(   10) = (  -0.1666667   0.3333333  -0.1666667), wk =   0.0277778
        k(   11) = (  -0.2500000   0.4166667  -0.2500000), wk =   0.0277778
        k(   12) = (  -0.3333333   0.5000000  -0.3333333), wk =   0.0277778
        k(   13) = (   0.5833333  -0.4166667   0.5833333), wk =   0.0277778
        k(   14) = (   0.5000000  -0.3333333   0.5000000), wk =   0.0277778
        k(   15) = (   0.4166667  -0.2500000   0.4166667), wk =   0.0277778
        k(   16) = (   0.3333333  -0.1666667   0.3333333), wk =   0.0277778
        k(   17) = (   0.2500000  -0.0833333   0.2500000), wk =   0.0277778
        k(   18) = (   0.1666667  -0.0000000   0.1666667), wk =   0.0138889
        k(   19) = (   0.0000000   0.3333333   0.0000000), wk =   0.0069444
        k(   20) = (  -0.0833333   0.4166667  -0.0833333), wk =   0.0277778
        k(   21) = (  -0.1666667   0.5000000  -0.1666667), wk =   0.0277778
        k(   22) = (  -0.2500000   0.5833333  -0.2500000), wk =   0.0277778
        k(   23) = (   0.6666667  -0.3333333   0.6666667), wk =   0.0277778
        k(   24) = (   0.5833333  -0.2500000   0.5833333), wk =   0.0277778
        k(   25) = (   0.5000000  -0.1666667   0.5000000), wk =   0.0277778
        k(   26) = (   0.4166667  -0.0833333   0.4166667), wk =   0.0277778
        k(   27) = (   0.3333333   0.0000000   0.3333333), wk =   0.0138889
        k(   28) = (   0.0000000   0.5000000   0.0000000), wk =   0.0069444
        k(   29) = (  -0.0833333   0.5833333  -0.0833333), wk =   0.0277778
        k(   30) = (  -0.1666667   0.6666667  -0.1666667), wk =   0.0277778
        k(   31) = (   0.7500000  -0.2500000   0.7500000), wk =   0.0277778
        k(   32) = (   0.6666667  -0.1666667   0.6666667), wk =   0.0277778
        k(   33) = (   0.5833333  -0.0833333   0.5833333), wk =   0.0277778
        k(   34) = (   0.5000000   0.0000000   0.5000000), wk =   0.0138889
        k(   35) = (   0.0000000   0.6666667   0.0000000), wk =   0.0069444
        k(   36) = (  -0.0833333   0.7500000  -0.0833333), wk =   0.0277778
        k(   37) = (   0.8333333  -0.1666667   0.8333333), wk =   0.0277778
        k(   38) = (   0.7500000  -0.0833333   0.7500000), wk =   0.0277778
        k(   39) = (   0.6666667  -0.0000000   0.6666667), wk =   0.0138889
        k(   40) = (   0.0000000   0.8333333   0.0000000), wk =   0.0069444
        k(   41) = (   0.9166667  -0.0833333   0.9166667), wk =   0.0277778
        k(   42) = (   0.8333333   0.0000000   0.8333333), wk =   0.0138889
        k(   43) = (   0.0000000  -1.0000000   0.0000000), wk =   0.0034722
        k(   44) = (  -0.1666667   0.3333333   0.0000000), wk =   0.0277778
        k(   45) = (  -0.2500000   0.4166667  -0.0833333), wk =   0.0555556
        k(   46) = (  -0.3333333   0.5000000  -0.1666667), wk =   0.0555556
        k(   47) = (   0.5833333  -0.4166667   0.7500000), wk =   0.0555556
        k(   48) = (   0.5000000  -0.3333333   0.6666667), wk =   0.0277778
        k(   49) = (  -0.1666667   0.5000000   0.0000000), wk =   0.0277778
        k(   50) = (  -0.2500000   0.5833333  -0.0833333), wk =   0.0555556
        k(   51) = (   0.6666667  -0.3333333   0.8333333), wk =   0.0555556
        k(   52) = (   0.5833333  -0.2500000   0.7500000), wk =   0.0555556
        k(   53) = (   0.5000000  -0.1666667   0.6666667), wk =   0.0555556
        k(   54) = (   0.4166667  -0.0833333   0.5833333), wk =   0.0555556
        k(   55) = (   0.3333333   0.0000000   0.5000000), wk =   0.0277778
        k(   56) = (  -0.1666667   0.6666667  -0.0000000), wk =   0.0277778
        k(   57) = (   0.7500000  -0.2500000   0.9166667), wk =   0.0555556
        k(   58) = (   0.6666667  -0.1666667   0.8333333), wk =   0.0555556
        k(   59) = (   0.5833333  -0.0833333   0.7500000), wk =   0.0555556
        k(   60) = (   0.5000000   0.0000000   0.6666667), wk =   0.0277778
        k(   61) = (   0.8333333  -0.1666667   1.0000000), wk =   0.0277778
        k(   62) = (   0.7500000  -0.0833333   0.9166667), wk =   0.0555556
        k(   63) = (   0.6666667   0.0000000   0.8333333), wk =   0.0277778
        k(   64) = (  -0.1666667  -1.0000000  -0.0000000), wk =   0.0138889
        k(   65) = (   0.6666667  -0.3333333   1.0000000), wk =   0.0277778
        k(   66) = (   0.5833333  -0.2500000   0.9166667), wk =   0.0555556
        k(   67) = (   0.5000000  -0.1666667   0.8333333), wk =   0.0277778
        k(   68) = (   0.6666667  -0.1666667   1.0000000), wk =   0.0277778
        k(   69) = (   0.5833333  -0.0833333   0.9166667), wk =   0.0555556
        k(   70) = (   0.5000000   0.0000000   0.8333333), wk =   0.0277778
        k(   71) = (  -0.3333333  -1.0000000   0.0000000), wk =   0.0138889
        k(   72) = (  -0.5000000  -1.0000000   0.0000000), wk =   0.0069444

     Dense  grid:    30731 G-vectors     FFT dimensions: (  45,  45,  45)

     Smooth grid:     7119 G-vectors     FFT dimensions: (  27,  27,  27)

     Estimated max dynamical RAM per process >      33.97 MB

     Estimated total dynamical RAM >     135.89 MB

     Initial potential from superposition of free atoms

     starting charge       2.9977, renormalised to       3.0000
     Starting wfcs are    4 randomized atomic wfcs +    2 random wfcs

     total cpu time spent up to now is        0.7 secs

     per-process dynamical memory:    23.6 Mb

     Self-consistent Calculation

     iteration #  1     ecut=    60.00 Ry     beta= 0.70
     Davidson diagonalization with overlap
     ethr =  1.00E-02,  avg # of iterations =  6.1

     Threshold (ethr) on eigenvalues was too large:
     Diagonalizing with lowered threshold

     Davidson diagonalization with overlap
     ethr =  1.85E-04,  avg # of iterations =  3.2

     total cpu time spent up to now is        2.0 secs

     total energy              =      -5.04024209 Ry
     estimated scf accuracy    <       0.00543758 Ry

     iteration #  2     ecut=    60.00 Ry     beta= 0.70
     Davidson diagonalization with overlap
     ethr =  1.81E-04,  avg # of iterations =  1.0

     total cpu time spent up to now is        2.5 secs

     total energy              =      -5.04021372 Ry
     estimated scf accuracy    <       0.00039036 Ry

     iteration #  3     ecut=    60.00 Ry     beta= 0.70
     Davidson diagonalization with overlap
     ethr =  1.30E-05,  avg # of iterations =  2.9

     total cpu time spent up to now is        3.0 secs

     total energy              =      -5.04022261 Ry
     estimated scf accuracy    <       0.00000048 Ry

     iteration #  4     ecut=    60.00 Ry     beta= 0.70
     Davidson diagonalization with overlap
     ethr =  1.61E-08,  avg # of iterations =  3.6

     total cpu time spent up to now is        3.5 secs

     total energy              =      -5.04022320 Ry
     estimated scf accuracy    <          3.2E-09 Ry

     iteration #  5     ecut=    60.00 Ry     beta= 0.70
     Davidson diagonalization with overlap
     ethr =  1.07E-10,  avg # of iterations =  2.0

     total cpu time spent up to now is        4.0 secs

     End of self-consistent calculation

          k = 0.0000 0.0000 0.0000 (   893 PWs)   bands (ev):

    -3.2547  20.4170  20.4170  21.8585  21.8585  21.8585

          k =-0.0833 0.0833-0.0833 (   893 PWs)   bands (ev):

    -3.0667  17.8073  19.8407  19.8407  22.5513  22.7195

          k =-0.1667 0.1667-0.1667 (   899 PWs)   bands (ev):

    -2.5042  14.4578  19.1394  19.1394  22.3791  23.7707

          k =-0.2500 0.2500-0.2500 (   890 PWs)   bands (ev):

    -1.5717  11.2659  18.6981  18.6981  22.1514  22.5259

          k =-0.3333 0.3333-0.3333 (   878 PWs)   bands (ev):

    -0.2762   8.3320  18.5592  18.5592  21.1413  21.1413

          k =-0.4167 0.4167-0.4167 (   878 PWs)   bands (ev):

     1.3724   5.6938  18.7321  18.7321  20.0291  20.0292

          k = 0.5000-0.5000 0.5000 (   886 PWs)   bands (ev):

     3.2675   3.4680  19.1794  19.1794  19.2664  19.2664

          k = 0.0000 0.1667 0.0000 (   889 PWs)   bands (ev):

    -3.0041  18.6942  18.6942  19.0108  21.2889  23.9420

          k =-0.0833 0.2500-0.0833 (   894 PWs)   bands (ev):

    -2.5666  15.6596  17.8182  19.1049  21.6433  22.6068

          k =-0.1667 0.3333-0.1667 (   885 PWs)   bands (ev):

    -1.7577  12.4366  17.2490  18.7659  20.5555  23.4533

          k =-0.2500 0.4167-0.2500 (   880 PWs)   bands (ev):

    -0.5837   9.4255  16.9946  18.5655  19.0098  23.4072

          k =-0.3333 0.5000-0.3333 (   878 PWs)   bands (ev):

     0.9466   6.6929  17.0575  17.7394  18.6746  22.2260

          k = 0.5833-0.4167 0.5833 (   881 PWs)   bands (ev):

     2.8184   4.2720  16.8027  17.4391  19.0904  21.3297

          k = 0.5000-0.3333 0.5000 (   876 PWs)   bands (ev):

     2.1588   5.0410  16.1918  18.1394  19.8326  20.7407

          k = 0.4167-0.2500 0.4167 (   878 PWs)   bands (ev):

     0.3977   7.5686  15.9119  19.1503  20.4692  20.8899

          k = 0.3333-0.1667 0.3333 (   882 PWs)   bands (ev):

    -1.0151  10.3936  15.9660  20.3090  20.6581  22.2344

          k = 0.2500-0.0833 0.2500 (   897 PWs)   bands (ev):

    -2.0683  13.4637  16.3670  20.7338  22.0369  23.2885

          k = 0.1667-0.0000 0.1667 (   899 PWs)   bands (ev):

    -2.7539  16.4294  17.3623  20.9055  22.1301  23.1662

          k = 0.0000 0.3333 0.0000 (   877 PWs)   bands (ev):

    -2.2549  16.8113  16.8113  16.9938  20.0366  20.2876

          k =-0.0833 0.4167-0.0833 (   878 PWs)   bands (ev):

    -1.5717  13.8593  16.1240  17.4404  18.2473  20.4657

          k =-0.1667 0.5000-0.1667 (   875 PWs)   bands (ev):

    -0.5223  10.8294  15.7569  16.4923  17.4032  22.2770

          k =-0.2500 0.5833-0.2500 (   881 PWs)   bands (ev):

     0.8850   8.0261  15.1016  15.7097  17.4318  24.5213

          k = 0.6667-0.3333 0.6667 (   886 PWs)   bands (ev):

     2.6381   5.5123  14.0328  15.9830  17.7654  23.7459

          k = 0.5833-0.2500 0.5833 (   868 PWs)   bands (ev):

     3.2962   4.7419  13.3026  16.5770  18.4300  23.0642

          k = 0.5000-0.1667 0.5000 (   874 PWs)   bands (ev):

     1.4326   7.1377  12.9240  17.4910  19.4224  22.6841

          k = 0.4167-0.0833 0.4167 (   886 PWs)   bands (ev):

    -0.0922   9.7985  12.9350  18.7191  20.7203  22.5853

          k = 0.3333 0.0000 0.3333 (   887 PWs)   bands (ev):

    -1.2622  12.3122  13.7093  20.2372  22.2657  22.3642

          k = 0.0000 0.5000 0.0000 (   881 PWs)   bands (ev):

    -1.0152  15.3120  15.3234  15.3234  16.0694  18.7802

          k =-0.0833 0.5833-0.0833 (   873 PWs)   bands (ev):

    -0.0929  12.4830  14.2090  14.8455  16.1022  19.2940

          k =-0.1667 0.6667-0.1667 (   882 PWs)   bands (ev):

     1.1875   9.6666  12.6774  14.6890  16.2625  21.3127

          k = 0.7500-0.2500 0.7500 (   875 PWs)   bands (ev):

     2.8135   7.0857  11.4803  14.8534  16.5377  23.8618

          k = 0.6667-0.1667 0.6667 (   877 PWs)   bands (ev):

     4.6557   4.9098  10.6372  15.3391  17.1151  25.6855

          k = 0.5833-0.0833 0.5833 (   876 PWs)   bands (ev):

     2.8198   7.0064  10.1957  16.1466  18.0211  25.2142

          k = 0.5000 0.0000 0.5000 (   883 PWs)   bands (ev):

     1.1896   9.0767  10.5739  17.2750  19.2411  24.7659

          k = 0.0000 0.6667 0.0000 (   866 PWs)   bands (ev):

     0.7005  12.2023  14.0864  14.2582  14.2582  17.7366

          k =-0.0833 0.7500-0.0833 (   875 PWs)   bands (ev):

     1.8498  10.5173  11.5898  13.9929  15.1644  18.4557

          k = 0.8333-0.1667 0.8333 (   879 PWs)   bands (ev):

     3.3388   8.8708   9.3320  14.0488  15.5553  20.7031

          k = 0.7500-0.0833 0.7500 (   878 PWs)   bands (ev):

     5.1152   6.6022   8.3311  14.4258  16.0718  23.4945

          k = 0.6667-0.0000 0.6667 (   873 PWs)   bands (ev):

     4.5448   6.7685   8.2232  15.1247  16.8892  26.4310

          k = 0.0000 0.8333 0.0000 (   886 PWs)   bands (ev):

     2.8605   8.7415  13.3452  13.6194  13.6194  17.0696

          k = 0.9167-0.0833 0.9167 (   884 PWs)   bands (ev):

     4.1788   7.3325  11.1166  13.5671  14.6914  18.0210

          k = 0.8333 0.0000 0.8333 (   878 PWs)   bands (ev):

     5.3875   6.7133   8.7748  13.8356  15.3163  20.4955

          k = 0.0000-1.0000 0.0000 (   894 PWs)   bands (ev):

     4.9280   6.2393  13.0973  13.4067  13.4067  16.8410

          k =-0.1667 0.3333 0.0000 (   889 PWs)   bands (ev):

    -2.0061  14.3854  15.5428  19.7999  20.3705  21.6306

          k =-0.2500 0.4167-0.0833 (   876 PWs)   bands (ev):

    -1.0768  11.6386  14.6645  18.6233  19.9811  22.9156

          k =-0.3333 0.5000-0.1667 (   877 PWs)   bands (ev):

     0.2140   8.7712  14.4545  17.1431  19.9550  22.6640

          k = 0.5833-0.4167 0.7500 (   878 PWs)   bands (ev):

     1.8563   6.1576  14.6054  15.9844  20.1648  21.5604

          k = 0.5000-0.3333 0.6667 (   876 PWs)   bands (ev):

     3.7315   3.9561  14.9689  15.2851  20.5421  20.8740

          k =-0.1667 0.5000 0.0000 (   874 PWs)   bands (ev):

    -0.7686  12.7772  14.0225  16.3172  18.3006  20.3752

          k =-0.2500 0.5833-0.0833 (   874 PWs)   bands (ev):

     0.3968  10.2526  13.3127  14.7071  18.7502  21.9053

          k = 0.6667-0.3333 0.8333 (   880 PWs)   bands (ev):

     1.9149   7.6014  13.1485  13.5766  18.9708  23.8584

          k = 0.5833-0.2500 0.7500 (   877 PWs)   bands (ev):

     3.7666   5.2161  12.3727  13.7716  19.4214  23.2133

          k = 0.5000-0.1667 0.6667 (   873 PWs)   bands (ev):

     3.1179   5.9623  11.7791  14.4850  20.1688  22.6065

          k = 0.4167-0.0833 0.5833 (   880 PWs)   bands (ev):

     1.3714   8.4047  11.5717  15.5447  21.1987  22.2497

          k = 0.3333 0.0000 0.5000 (   876 PWs)   bands (ev):

    -0.0311  10.6953  12.1561  16.9316  21.6675  22.3871

          k =-0.1667 0.6667-0.0000 (   871 PWs)   bands (ev):

     0.9442  11.6227  12.3420  13.0474  17.1790  19.3906

          k = 0.7500-0.2500 0.9167 (   878 PWs)   bands (ev):

     2.3326   9.3145  10.9925  12.4930  17.8692  21.1353

          k = 0.6667-0.1667 0.8333 (   878 PWs)   bands (ev):

     4.0525   6.8935   9.9317  12.7028  18.3241  23.7176

          k = 0.5833-0.0833 0.7500 (   879 PWs)   bands (ev):

     4.7153   6.0755   9.2559  13.3063  19.0045  25.2244

          k = 0.5000 0.0000 0.6667 (   878 PWs)   bands (ev):

     2.8786   7.9219   9.4016  14.2592  19.9757  24.4300

          k = 0.8333-0.1667 1.0000 (   877 PWs)   bands (ev):

     3.0999   8.9680  10.9283  12.2997  16.4984  18.7637

          k = 0.7500-0.0833 0.9167 (   880 PWs)   bands (ev):

     4.6496   7.7829   8.8996  12.0181  17.4197  20.7316

          k = 0.6667 0.0000 0.8333 (   875 PWs)   bands (ev):

     6.0775   6.5955   7.5439  12.4708  18.1034  23.5506

          k =-0.1667-1.0000-0.0000 (   878 PWs)   bands (ev):

     5.1576   6.4813  10.6967  12.0705  16.2707  18.5495

          k = 0.6667-0.3333 1.0000 (   878 PWs)   bands (ev):

     1.6728   9.5396  10.9894  13.1868  20.6191  22.2260

          k = 0.5833-0.2500 0.9167 (   879 PWs)   bands (ev):

     3.2930   7.4704  10.6083  12.0146  21.4075  22.8448

          k = 0.5000-0.1667 0.8333 (   884 PWs)   bands (ev):

     5.1162   5.3741  10.8362  11.3891  21.8066  22.2923

          k = 0.6667-0.1667 1.0000 (   886 PWs)   bands (ev):

     3.8157   8.8462   9.5549  10.5001  19.9566  21.7239

          k = 0.5833-0.0833 0.9167 (   884 PWs)   bands (ev):

     5.5841   6.9944   8.7411  10.2809  21.0014  23.8320

          k = 0.5000 0.0000 0.8333 (   882 PWs)   bands (ev):

     4.9988   7.2297   8.6629  10.9326  21.8133  23.8245

          k =-0.3333-1.0000 0.0000 (   878 PWs)   bands (ev):

     5.8474   7.1883   8.6151  10.1702  19.7330  21.5389

          k =-0.5000-1.0000 0.0000 (   876 PWs)   bands (ev):

     6.9991   6.9991   8.0185   8.9134  23.6121  23.6121

     the Fermi energy is     7.6921 ev

!    total energy              =      -5.04022320 Ry
     estimated scf accuracy    <          2.8E-11 Ry
     smearing contrib. (-TS)   =       0.00009468 Ry
     internal energy E=F+TS    =      -5.04031788 Ry

     The total energy is F=E-TS. E is the sum of the following terms:
     one-electron contribution =       2.93276371 Ry
     hartree contribution      =       0.00593722 Ry
     xc contribution           =      -2.58745320 Ry
     ewald contribution        =      -5.39156561 Ry

     convergence has been achieved in   5 iterations

     Forces acting on atoms (cartesian axes, Ry/au):

     atom    1 type  1   force =     0.00000000    0.00000000    0.00000000

     Total force =     0.000000     Total SCF correction =     0.000000


     Computing stress (Cartesian axis) and pressure

          total   stress  (Ry/bohr**3)                   (kbar)     P=       -4.17
  -0.00002835   0.00000000   0.00000000           -4.17        0.00        0.00
   0.00000000  -0.00002835  -0.00000000            0.00       -4.17       -0.00
   0.00000000  -0.00000000  -0.00002835            0.00       -0.00       -4.17


     BFGS Geometry Optimization
     Energy error            =      6.8E-06 Ry
     Gradient error          =      0.0E+00 Ry/Bohr
     Cell gradient error     =      4.2E+00 kbar

     number of scf cycles    =   1
     number of bfgs steps    =   0

     enthalpy           new  =      -5.0402232004 Ry

     new trust radius        =       0.0015007801 bohr
ibrav =      2
 celldm(1) =      7.64796593
Input lattice vectors:
    -0.49964559    -0.00000000     0.49964559
     0.00000000     0.49964559     0.49964559
    -0.49964559     0.49964559    -0.00000000
New lattice vectors in INITIAL alat:
    -0.49964559     0.00000000     0.49964559
     0.00000000     0.49964559     0.49964559
    -0.49964559     0.49964559     0.00000000
New lattice vectors in NEW alat (for information only):
    -0.50000000     0.00000000     0.50000000
     0.00000000     0.50000000     0.50000000
    -0.50000000     0.50000000     0.00000000
Discrepancy in bohr =     0.000000    0.000000    0.000000

Atomic positions rescaled with new alat:
Al               0.0000000000        0.0000000000        0.0000000000
     new conv_thr            =            1.0E-10 Ry

     new unit-cell volume =    111.83503 a.u.^3 (    16.57224 Ang^3 )
     density =      2.70355 g/cm^3

CELL_PARAMETERS (alat=  7.65339080)
  -0.499645590   0.000000000   0.499645590
   0.000000000   0.499645590   0.499645590
  -0.499645590   0.499645590   0.000000000

ATOMIC_POSITIONS (alat)
Al               0.0000000000        0.0000000000        0.0000000000



     Writing config-only to output data dir ./tmp/al-fcc.save/ :
     XML data file
     NEW-OLD atomic charge density approx. for the potential
     New effective cutoffs (rho, wfc):  639.85   60.08

     total cpu time spent up to now is        4.6 secs

     per-process dynamical memory:    45.5 Mb

     Self-consistent Calculation

     iteration #  1     ecut=    60.00 Ry     beta= 0.70
     Davidson diagonalization with overlap
     ethr =  1.00E-06,  avg # of iterations =  2.0

     Threshold (ethr) on eigenvalues was too large:
     Diagonalizing with lowered threshold

     Davidson diagonalization with overlap
     ethr =  2.33E-10,  avg # of iterations =  3.4

     total cpu time spent up to now is        5.6 secs

     total energy              =      -5.04022862 Ry
     estimated scf accuracy    <          5.6E-09 Ry

     iteration #  2     ecut=    60.00 Ry     beta= 0.70
     Davidson diagonalization with overlap
     ethr =  1.85E-10,  avg # of iterations =  1.0

     total cpu time spent up to now is        6.0 secs

     total energy              =      -5.04022862 Ry
     estimated scf accuracy    <          3.7E-10 Ry

     iteration #  3     ecut=    60.00 Ry     beta= 0.70
     Davidson diagonalization with overlap
     ethr =  1.24E-11,  avg # of iterations =  1.2

     total cpu time spent up to now is        6.4 secs

     End of self-consistent calculation

          k = 0.0000 0.0000 0.0000 (   893 PWs)   bands (ev):

    -3.2475  20.4507  20.4507  21.9079  21.9080  21.9080

          k =-0.0834 0.0834-0.0834 (   893 PWs)   bands (ev):

    -3.0593  17.8412  19.8772  19.8772  22.5962  22.7669

          k =-0.1668 0.1668-0.1668 (   899 PWs)   bands (ev):

    -2.4960  14.4879  19.1766  19.1766  22.4220  23.8185

          k =-0.2502 0.2502-0.2502 (   890 PWs)   bands (ev):

    -1.5622  11.2921  18.7354  18.7354  22.1935  22.5681

          k =-0.3336 0.3336-0.3336 (   878 PWs)   bands (ev):

    -0.2650   8.3545  18.5966  18.5966  21.1813  21.1813

          k =-0.4170 0.4170-0.4170 (   878 PWs)   bands (ev):

     1.3858   5.7130  18.7700  18.7700  20.0676  20.0676

          k = 0.5004-0.5004 0.5004 (   886 PWs)   bands (ev):

     3.2809   3.4869  19.2237  19.2237  19.2981  19.2981

          k = 0.0000 0.1668 0.0000 (   889 PWs)   bands (ev):

    -2.9966  18.7307  18.7307  19.0420  21.3377  23.9895

          k =-0.0834 0.2502-0.0834 (   894 PWs)   bands (ev):

    -2.5585  15.6909  17.8542  19.1399  21.6925  22.6439

          k =-0.1668 0.3336-0.1668 (   885 PWs)   bands (ev):

    -1.7485  12.4641  17.2846  18.8020  20.5957  23.4988

          k =-0.2502 0.4170-0.2502 (   880 PWs)   bands (ev):

    -0.5729   9.4493  17.0300  18.6006  19.0488  23.4502

          k =-0.3336 0.5004-0.3336 (   878 PWs)   bands (ev):

     0.9595   6.7134  17.0931  17.7744  18.7125  22.2675

          k = 0.5837-0.4170 0.5837 (   881 PWs)   bands (ev):

     2.8334   4.2896  16.8371  17.4753  19.1284  21.3699

          k = 0.5004-0.3336 0.5004 (   876 PWs)   bands (ev):

     2.1731   5.0595  16.2256  18.1765  19.8714  20.7800

          k = 0.4170-0.2502 0.4170 (   878 PWs)   bands (ev):

     0.4098   7.5901  15.9455  19.1893  20.5073  20.9299

          k = 0.3336-0.1668 0.3336 (   882 PWs)   bands (ev):

    -1.0049  10.4185  15.9998  20.3537  20.6919  22.2758

          k = 0.2502-0.0834 0.2502 (   897 PWs)   bands (ev):

    -2.0595  13.4922  16.4014  20.7730  22.0795  23.3330

          k = 0.1668-0.0000 0.1668 (   899 PWs)   bands (ev):

    -2.7461  16.4606  17.3986  20.9399  22.1812  23.2117

          k = 0.0000 0.3336 0.0000 (   877 PWs)   bands (ev):

    -2.2464  16.8464  16.8464  17.0219  20.0866  20.3211

          k =-0.0834 0.4170-0.0834 (   878 PWs)   bands (ev):

    -1.5622  13.8881  16.1584  17.4724  18.2844  20.5095

          k =-0.1668 0.5004-0.1668 (   875 PWs)   bands (ev):

    -0.5114  10.8547  15.7909  16.5246  17.4394  22.3215

          k =-0.2502 0.5837-0.2502 (   881 PWs)   bands (ev):

     0.8978   8.0482  15.1331  15.7438  17.4676  24.5683

          k = 0.6671-0.3336 0.6671 (   886 PWs)   bands (ev):

     2.6530   5.5314  14.0634  16.0174  17.8015  23.7892

          k = 0.5837-0.2502 0.5837 (   868 PWs)   bands (ev):

     3.3118   4.7602  13.3325  16.6122  18.4670  23.1065

          k = 0.5004-0.1668 0.5004 (   874 PWs)   bands (ev):

     1.4461   7.1586  12.9537  17.5274  19.4606  22.7254

          k = 0.4170-0.0834 0.4170 (   886 PWs)   bands (ev):

    -0.0808   9.8223  12.9652  18.7573  20.7601  22.6253

          k = 0.3336 0.0000 0.3336 (   887 PWs)   bands (ev):

    -1.2523  12.3380  13.7416  20.2782  22.3073  22.4007

          k = 0.0000 0.5004 0.0000 (   881 PWs)   bands (ev):

    -1.0050  15.3377  15.3570  15.3570  16.1016  18.8247

          k =-0.0834 0.5837-0.0834 (   873 PWs)   bands (ev):

    -0.0814  12.5097  14.2391  14.8786  16.1340  19.3371

          k =-0.1668 0.6671-0.1668 (   882 PWs)   bands (ev):

     1.2006   9.6903  12.7060  14.7220  16.2958  21.3561

          k = 0.7505-0.2502 0.7505 (   875 PWs)   bands (ev):

     2.8287   7.1065  11.5077  14.8866  16.5718  23.9077

          k = 0.6671-0.1668 0.6671 (   877 PWs)   bands (ev):

     4.6709   4.9303  10.6638  15.3729  17.1501  25.7309

          k = 0.5837-0.0834 0.5837 (   876 PWs)   bands (ev):

     2.8350   7.0267  10.2222  16.1813  18.0574  25.2585

          k = 0.5004 0.0000 0.5004 (   883 PWs)   bands (ev):

     1.2027   9.0984  10.6022  17.3112  19.2791  24.8059

          k = 0.0000 0.6671 0.0000 (   866 PWs)   bands (ev):

     0.7130  12.2298  14.1103  14.2907  14.2907  17.7796

          k =-0.0834 0.7505-0.0834 (   875 PWs)   bands (ev):

     1.8638  10.5423  11.6161  14.0252  15.1948  18.4977

          k = 0.8339-0.1668 0.8339 (   879 PWs)   bands (ev):

     3.3546   8.8915   9.3588  14.0812  15.5875  20.7459

          k = 0.7505-0.0834 0.7505 (   878 PWs)   bands (ev):

     5.1327   6.6219   8.3557  14.4586  16.1051  23.5398

          k = 0.6671 0.0000 0.6671 (   873 PWs)   bands (ev):

     4.5619   6.7874   8.2485  15.1583  16.9238  26.4795

          k = 0.0000 0.8339 0.0000 (   886 PWs)   bands (ev):

     2.8757   8.7649  13.3680  13.6513  13.6513  17.1115

          k = 0.9173-0.0834 0.9173 (   884 PWs)   bands (ev):

     4.1954   7.3543  11.1419  13.5989  14.7212  18.0624

          k = 0.8339 0.0000 0.8339 (   878 PWs)   bands (ev):

     5.4047   6.7349   8.7985  13.8677  15.3480  20.5380

          k = 0.0000-1.0007 0.0000 (   894 PWs)   bands (ev):

     4.9446   6.2608  13.1198  13.4384  13.4384  16.8826

          k =-0.1668 0.3336 0.0000 (   889 PWs)   bands (ev):

    -1.9972  14.4139  15.5771  19.8349  20.4122  21.6739

          k =-0.2502 0.4170-0.0834 (   876 PWs)   bands (ev):

    -1.0667  11.6648  14.6969  18.6609  20.0183  22.9611

          k =-0.3336 0.5004-0.1668 (   877 PWs)   bands (ev):

     0.2258   8.7941  14.4861  17.1787  19.9935  22.7063

          k = 0.5837-0.4170 0.7505 (   878 PWs)   bands (ev):

     1.8703   6.1773  14.6367  16.0189  20.2042  21.6009

          k = 0.5004-0.3336 0.6671 (   876 PWs)   bands (ev):

     3.7455   3.9756  14.9978  15.3215  20.5838  20.9119

          k =-0.1668 0.5004 0.0000 (   874 PWs)   bands (ev):

    -0.7580  12.8035  14.0546  16.3514  18.3341  20.4198

          k =-0.2502 0.5837-0.0834 (   874 PWs)   bands (ev):

     0.4090  10.2769  13.3425  14.7401  18.7861  21.9499

          k = 0.6671-0.3336 0.8339 (   880 PWs)   bands (ev):

     1.9289   7.6228  13.1747  13.6113  19.0080  23.9038

          k = 0.5837-0.2502 0.7505 (   877 PWs)   bands (ev):

     3.7827   5.2350  12.4006  13.8040  19.4597  23.2562

          k = 0.5004-0.1668 0.6671 (   873 PWs)   bands (ev):

     3.1334   5.9818  11.8069  14.5177  20.2084  22.6480

          k = 0.4170-0.0834 0.5837 (   880 PWs)   bands (ev):

     1.3848   8.4267  11.5999  15.5785  21.2400  22.2896

          k = 0.3336 0.0000 0.5004 (   876 PWs)   bands (ev):

    -0.0195  10.7190  12.1864  16.9670  21.7052  22.4315

          k =-0.1668 0.6671-0.0000 (   871 PWs)   bands (ev):

     0.9570  11.6475  12.3677  13.0820  17.2113  19.4341

          k = 0.7505-0.2502 0.9173 (   878 PWs)   bands (ev):

     2.3472   9.3373  11.0184  12.5246  17.9040  21.1791

          k = 0.6671-0.1668 0.8339 (   878 PWs)   bands (ev):

     4.0690   6.9138   9.9572  12.7335  18.3605  23.7635

          k = 0.5837-0.0834 0.7505 (   879 PWs)   bands (ev):

     4.7325   6.0949   9.2811  13.3375  19.0422  25.2696

          k = 0.5004 0.0000 0.6671 (   878 PWs)   bands (ev):

     2.8939   7.9421   9.4282  14.2915  20.0149  24.4717

          k = 0.8339-0.1668 1.0007 (   877 PWs)   bands (ev):

     3.1154   8.9914  10.9522  12.3315  16.5299  18.8064

          k = 0.7505-0.0834 0.9173 (   880 PWs)   bands (ev):

     4.6667   7.8045   8.9233  12.0484  17.4538  20.7748

          k = 0.6671 0.0000 0.8339 (   875 PWs)   bands (ev):

     6.0956   6.6138   7.5694  12.5011  18.1395  23.5961

          k =-0.1668-1.0007 0.0000 (   878 PWs)   bands (ev):

     5.1746   6.5029  10.7202  12.1019  16.3020  18.5919

          k = 0.6671-0.3336 1.0007 (   878 PWs)   bands (ev):

     1.6866   9.5619  11.0173  13.2182  20.6559  22.2726

          k = 0.5837-0.2502 0.9173 (   879 PWs)   bands (ev):

     3.3087   7.4912  10.6340  12.0453  21.4475  22.8877

          k = 0.5004-0.1668 0.8339 (   884 PWs)   bands (ev):

     5.1319   5.3949  10.8590  11.4219  21.8494  22.3321

          k = 0.6671-0.1668 1.0007 (   886 PWs)   bands (ev):

     3.8320   8.8676   9.5765  10.5328  19.9926  21.7696

          k = 0.5837-0.0834 0.9173 (   884 PWs)   bands (ev):

     5.6021   7.0144   8.7642  10.3105  21.0407  23.8784

          k = 0.5004 0.0000 0.8339 (   882 PWs)   bands (ev):

     5.0165   7.2491   8.6877  10.9618  21.8548  23.8658

          k =-0.3336-1.0007-0.0000 (   878 PWs)   bands (ev):

     5.8652   7.2101   8.6362  10.2005  19.7688  21.5844

          k =-0.5004-1.0007 0.0000 (   876 PWs)   bands (ev):

     7.0182   7.0182   8.0366   8.9470  23.6531  23.6531

     the Fermi energy is     7.7140 ev

!    total energy              =      -5.04022862 Ry
     estimated scf accuracy    <          2.1E-12 Ry
     smearing contrib. (-TS)   =       0.00009317 Ry
     internal energy E=F+TS    =      -5.04032179 Ry

     The total energy is F=E-TS. E is the sum of the following terms:
     one-electron contribution =       2.93771783 Ry
     hartree contribution      =       0.00594728 Ry
     xc contribution           =      -2.58859692 Ry
     ewald contribution        =      -5.39538997 Ry

     convergence has been achieved in   3 iterations

     Forces acting on atoms (cartesian axes, Ry/au):

     atom    1 type  1   force =     0.00000000    0.00000000    0.00000000

     Total force =     0.000000     Total SCF correction =     0.000000


     Computing stress (Cartesian axis) and pressure

          total   stress  (Ry/bohr**3)                   (kbar)     P=       -2.52
  -0.00001713  -0.00000000   0.00000000           -2.52       -0.00        0.00
  -0.00000000  -0.00001713   0.00000000           -0.00       -2.52        0.00
   0.00000000   0.00000000  -0.00001713            0.00        0.00       -2.52

     Energy error            =      5.4E-06 Ry
     Gradient error          =      0.0E+00 Ry/Bohr
     Cell gradient error     =      2.5E+00 kbar

     number of scf cycles    =   2
     number of bfgs steps    =   1

     enthalpy           old  =      -5.0402232004 Ry
     enthalpy           new  =      -5.0402286200 Ry

     CASE: enthalpy          _new < enthalpy          _old

     new trust radius        =       0.0022503722 bohr
ibrav =      2
 celldm(1) =      7.63982861
Input lattice vectors:
    -0.49911397     0.00000000     0.49911397
    -0.00000000     0.49911397     0.49911397
    -0.49911397     0.49911397     0.00000000
New lattice vectors in INITIAL alat:
    -0.49911397     0.00000000     0.49911397
     0.00000000     0.49911397     0.49911397
    -0.49911397     0.49911397     0.00000000
New lattice vectors in NEW alat (for information only):
    -0.50000000     0.00000000     0.50000000
     0.00000000     0.50000000     0.50000000
    -0.50000000     0.50000000     0.00000000
Discrepancy in bohr =     0.000000    0.000000    0.000000

Atomic positions rescaled with new alat:
Al               0.0000000000        0.0000000000        0.0000000000
     new conv_thr            =            1.0E-12 Ry

     new unit-cell volume =    111.47843 a.u.^3 (    16.51940 Ang^3 )
     density =      2.71220 g/cm^3

CELL_PARAMETERS (alat=  7.65339080)
  -0.499113974   0.000000000   0.499113974
   0.000000000   0.499113974   0.499113974
  -0.499113974   0.499113974   0.000000000

ATOMIC_POSITIONS (alat)
Al               0.0000000000        0.0000000000        0.0000000000



     Writing config-only to output data dir ./tmp/al-fcc.save/ :
     XML data file
     NEW-OLD atomic charge density approx. for the potential
     New effective cutoffs (rho, wfc):  641.21   60.21

     total cpu time spent up to now is        7.0 secs

     per-process dynamical memory:    45.8 Mb

     Self-consistent Calculation

     iteration #  1     ecut=    60.00 Ry     beta= 0.70
     Davidson diagonalization with overlap
     ethr =  1.00E-06,  avg # of iterations =  2.0

     Threshold (ethr) on eigenvalues was too large:
     Diagonalizing with lowered threshold

     Davidson diagonalization with overlap
     ethr =  5.24E-10,  avg # of iterations =  3.5

     total cpu time spent up to now is        8.1 secs

     total energy              =      -5.04023170 Ry
     estimated scf accuracy    <       0.00000001 Ry

     iteration #  2     ecut=    60.00 Ry     beta= 0.70
     Davidson diagonalization with overlap
     ethr =  4.15E-10,  avg # of iterations =  1.0

     total cpu time spent up to now is        8.5 secs

     total energy              =      -5.04023170 Ry
     estimated scf accuracy    <          8.4E-10 Ry

     iteration #  3     ecut=    60.00 Ry     beta= 0.70
     Davidson diagonalization with overlap
     ethr =  2.80E-11,  avg # of iterations =  1.2

     total cpu time spent up to now is        8.9 secs

     total energy              =      -5.04023170 Ry
     estimated scf accuracy    <          4.8E-12 Ry

     iteration #  4     ecut=    60.00 Ry     beta= 0.70
     Davidson diagonalization with overlap
     ethr =  1.59E-13,  avg # of iterations =  3.9

     total cpu time spent up to now is        9.4 secs

     End of self-consistent calculation

          k = 0.0000 0.0000 0.0000 (   893 PWs)   bands (ev):

    -3.2368  20.5013  20.5013  21.9820  21.9825  21.9825

          k =-0.0835 0.0835-0.0835 (   893 PWs)   bands (ev):

    -3.0481  17.8923  19.9320  19.9320  22.6637  22.8383

          k =-0.1670 0.1670-0.1670 (   899 PWs)   bands (ev):

    -2.4837  14.5331  19.2325  19.2325  22.4867  23.8906

          k =-0.2504 0.2504-0.2504 (   890 PWs)   bands (ev):

    -1.5480  11.3314  18.7915  18.7915  22.2567  22.6315

          k =-0.3339 0.3339-0.3339 (   878 PWs)   bands (ev):

    -0.2481   8.3884  18.6529  18.6529  21.2415  21.2415

          k =-0.4174 0.4174-0.4174 (   878 PWs)   bands (ev):

     1.4060   5.7420  18.8269  18.8269  20.1256  20.1256

          k = 0.5009-0.5009 0.5009 (   886 PWs)   bands (ev):

     3.3009   3.5155  19.2904  19.2904  19.3457  19.3457

          k = 0.0000 0.1670 0.0000 (   889 PWs)   bands (ev):

    -2.9853  18.7855  18.7855  19.0890  21.4112  24.0609

          k =-0.0835 0.2504-0.0835 (   894 PWs)   bands (ev):

    -2.5463  15.7379  17.9083  19.1925  21.7667  22.6999

          k =-0.1670 0.3339-0.1670 (   885 PWs)   bands (ev):

    -1.7346  12.5054  17.3382  18.8562  20.6562  23.5674

          k =-0.2504 0.4174-0.2504 (   880 PWs)   bands (ev):

    -0.5566   9.4852  17.0833  18.6531  19.1078  23.5150

          k =-0.3339 0.5009-0.3339 (   878 PWs)   bands (ev):

     0.9788   6.7442  17.1466  17.8267  18.7698  22.3300

          k = 0.5844-0.4174 0.5844 (   881 PWs)   bands (ev):

     2.8560   4.3163  16.8886  17.5296  19.1857  21.4306

          k = 0.5009-0.3339 0.5009 (   876 PWs)   bands (ev):

     2.1947   5.0873  16.2764  18.2323  19.9297  20.8392

          k = 0.4174-0.2504 0.4174 (   878 PWs)   bands (ev):

     0.4280   7.6225  15.9960  19.2480  20.5646  20.9900

          k = 0.3339-0.1670 0.3339 (   882 PWs)   bands (ev):

    -0.9895  10.4561  16.0505  20.4209  20.7428  22.3381

          k = 0.2504-0.0835 0.2504 (   897 PWs)   bands (ev):

    -2.0462  13.5351  16.4532  20.8318  22.1437  23.4000

          k = 0.1670-0.0000 0.1670 (   899 PWs)   bands (ev):

    -2.7343  16.5076  17.4530  20.9917  22.2581  23.2806

          k = 0.0000 0.3339 0.0000 (   877 PWs)   bands (ev):

    -2.2335  16.8991  16.8991  17.0643  20.1617  20.3717

          k =-0.0835 0.4174-0.0835 (   878 PWs)   bands (ev):

    -1.5479  13.9314  16.2102  17.5205  18.3401  20.5756

          k =-0.1670 0.5009-0.1670 (   875 PWs)   bands (ev):

    -0.4950  10.8929  15.8422  16.5729  17.4939  22.3883

          k =-0.2504 0.5844-0.2504 (   881 PWs)   bands (ev):

     0.9170   8.0813  15.1805  15.7951  17.5215  24.6392

          k = 0.6679-0.3339 0.6679 (   886 PWs)   bands (ev):

     2.6755   5.5600  14.1093  16.0693  17.8560  23.8543

          k = 0.5844-0.2504 0.5844 (   868 PWs)   bands (ev):

     3.3352   4.7877  13.3774  16.6652  18.5227  23.1700

          k = 0.5009-0.1670 0.5009 (   874 PWs)   bands (ev):

     1.4663   7.1900  12.9983  17.5822  19.5182  22.7876

          k = 0.4174-0.0835 0.4174 (   886 PWs)   bands (ev):

    -0.0635   9.8580  13.0106  18.8147  20.8200  22.6854

          k = 0.3339 0.0000 0.3339 (   887 PWs)   bands (ev):

    -1.2374  12.3768  13.7903  20.3398  22.3700  22.4557

          k = 0.0000 0.5009 0.0000 (   881 PWs)   bands (ev):

    -0.9896  15.3763  15.4075  15.4075  16.1499  18.8918

          k =-0.0835 0.5844-0.0835 (   873 PWs)   bands (ev):

    -0.0642  12.5499  14.2844  14.9285  16.1820  19.4019

          k =-0.1670 0.6679-0.1670 (   882 PWs)   bands (ev):

     1.2204   9.7259  12.7490  14.7717  16.3460  21.4215

          k = 0.7513-0.2504 0.7513 (   875 PWs)   bands (ev):

     2.8515   7.1377  11.5489  14.9366  16.6232  23.9766

          k = 0.6679-0.1670 0.6679 (   877 PWs)   bands (ev):

     4.6936   4.9610  10.7038  15.4237  17.2029  25.7993

          k = 0.5844-0.0835 0.5844 (   876 PWs)   bands (ev):

     2.8578   7.0573  10.2622  16.2336  18.1121  25.3253

          k = 0.5009 0.0000 0.5009 (   883 PWs)   bands (ev):

     1.2225   9.1310  10.6448  17.3656  19.3362  24.8662

          k = 0.0000 0.6679 0.0000 (   866 PWs)   bands (ev):

     0.7319  12.2711  14.1462  14.3397  14.3397  17.8444

          k =-0.0835 0.7513-0.0835 (   875 PWs)   bands (ev):

     1.8849  10.5799  11.6557  14.0738  15.2405  18.5609

          k = 0.8348-0.1670 0.8348 (   879 PWs)   bands (ev):

     3.3784   8.9227   9.3990  14.1299  15.6358  20.8102

          k = 0.7513-0.0835 0.7513 (   878 PWs)   bands (ev):

     5.1590   6.6516   8.3927  14.5079  16.1553  23.6079

          k = 0.6679 0.0000 0.6679 (   873 PWs)   bands (ev):

     4.5878   6.8157   8.2866  15.2088  16.9760  26.5525

          k = 0.0000 0.8348 0.0000 (   886 PWs)   bands (ev):

     2.8986   8.8000  13.4022  13.6994  13.6994  17.1747

          k = 0.9183-0.0835 0.9183 (   884 PWs)   bands (ev):

     4.2204   7.3872  11.1800  13.6469  14.7659  18.1247

          k = 0.8348 0.0000 0.8348 (   878 PWs)   bands (ev):

     5.4305   6.7672   8.8343  13.9161  15.3958  20.6019

          k = 0.0000-1.0018 0.0000 (   894 PWs)   bands (ev):

     4.9697   6.2931  13.1535  13.4861  13.4861  16.9452

          k =-0.1670 0.3339 0.0000 (   889 PWs)   bands (ev):

    -1.9838  14.4568  15.6288  19.8874  20.4747  21.7393

          k =-0.2504 0.4174-0.0835 (   876 PWs)   bands (ev):

    -1.0514  11.7040  14.7455  18.7174  20.0742  23.0296

          k =-0.3339 0.5009-0.1670 (   877 PWs)   bands (ev):

     0.2437   8.8285  14.5337  17.2322  20.0514  22.7701

          k = 0.5844-0.4174 0.7513 (   878 PWs)   bands (ev):

     1.8913   6.2071  14.6838  16.0709  20.2635  21.6618

          k = 0.5009-0.3339 0.6679 (   876 PWs)   bands (ev):

     3.7664   4.0050  15.0414  15.3762  20.6465  20.9690

          k =-0.1670 0.5009 0.0000 (   874 PWs)   bands (ev):

    -0.7421  12.8432  14.1030  16.4029  18.3845  20.4870

          k =-0.2504 0.5844-0.0835 (   874 PWs)   bands (ev):

     0.4272  10.3133  13.3872  14.7898  18.8401  22.0171

          k = 0.6679-0.3339 0.8348 (   880 PWs)   bands (ev):

     1.9501   7.6549  13.2142  13.6635  19.0641  23.9723

          k = 0.5844-0.2504 0.7513 (   877 PWs)   bands (ev):

     3.8069   5.2633  12.4425  13.8528  19.5172  23.3206

          k = 0.5009-0.1670 0.6679 (   873 PWs)   bands (ev):

     3.1568   6.0111  11.8488  14.5668  20.2678  22.7105

          k = 0.4174-0.0835 0.5844 (   880 PWs)   bands (ev):

     1.4049   8.4598  11.6424  15.6293  21.3022  22.3497

          k = 0.3339 0.0000 0.5009 (   876 PWs)   bands (ev):

    -0.0021  10.7547  12.2320  17.0203  21.7619  22.4985

          k =-0.1670 0.6679-0.0000 (   871 PWs)   bands (ev):

     0.9763  11.6848  12.4061  13.1340  17.2599  19.4996

          k = 0.7513-0.2504 0.9183 (   878 PWs)   bands (ev):

     2.3691   9.3715  11.0573  12.5721  17.9563  21.2449

          k = 0.6679-0.1670 0.8348 (   878 PWs)   bands (ev):

     4.0940   6.9445   9.9954  12.7799  18.4152  23.8324

          k = 0.5844-0.0835 0.7513 (   879 PWs)   bands (ev):

     4.7584   6.1241   9.3190  13.3845  19.0988  25.3376

          k = 0.5009 0.0000 0.6679 (   878 PWs)   bands (ev):

     2.9169   7.9726   9.4683  14.3400  20.0739  24.5344

          k = 0.8348-0.1670 1.0018 (   877 PWs)   bands (ev):

     3.1387   9.0266  10.9881  12.3794  16.5773  18.8707

          k = 0.7513-0.0835 0.9183 (   880 PWs)   bands (ev):

     4.6925   7.8370   8.9590  12.0938  17.5053  20.8399

          k = 0.6679 0.0000 0.8348 (   875 PWs)   bands (ev):

     6.1227   6.6412   7.6077  12.5467  18.1938  23.6646

          k =-0.1670-1.0018 0.0000 (   878 PWs)   bands (ev):

     5.2000   6.5355  10.7556  12.1492  16.3491  18.6557

          k = 0.6679-0.3339 1.0018 (   878 PWs)   bands (ev):

     1.7073   9.5953  11.0592  13.2655  20.7112  22.3427

          k = 0.5844-0.2504 0.9183 (   879 PWs)   bands (ev):

     3.3324   7.5225  10.6726  12.0916  21.5078  22.9523

          k = 0.5009-0.1670 0.8348 (   884 PWs)   bands (ev):

     5.1556   5.4261  10.8934  11.4712  21.9137  22.3920

          k = 0.6679-0.1670 1.0018 (   886 PWs)   bands (ev):

     3.8566   8.8997   9.6090  10.5821  20.0468  21.8385

          k = 0.5844-0.0835 0.9183 (   884 PWs)   bands (ev):

     5.6293   7.0444   8.7990  10.3551  21.0997  23.9487

          k = 0.5009 0.0000 0.8348 (   882 PWs)   bands (ev):

     5.0430   7.2783   8.7248  11.0058  21.9173  23.9278

          k =-0.3339-1.0018 0.0000 (   878 PWs)   bands (ev):

     5.8919   7.2428   8.6679  10.2461  19.8226  21.6528

          k =-0.5009-1.0018 0.0000 (   876 PWs)   bands (ev):

     7.0470   7.0470   8.0638   8.9974  23.7147  23.7147

     the Fermi energy is     7.7471 ev

!    total energy              =      -5.04023170 Ry
     estimated scf accuracy    <          3.5E-13 Ry
     smearing contrib. (-TS)   =       0.00009068 Ry
     internal energy E=F+TS    =      -5.04032239 Ry

     The total energy is F=E-TS. E is the sum of the following terms:
     one-electron contribution =       2.94516754 Ry
     hartree contribution      =       0.00596348 Ry
     xc contribution           =      -2.59031671 Ry
     ewald contribution        =      -5.40113670 Ry

     convergence has been achieved in   4 iterations

     Forces acting on atoms (cartesian axes, Ry/au):

     atom    1 type  1   force =     0.00000000    0.00000000    0.00000000

     Total force =     0.000000     Total SCF correction =     0.000000


     Computing stress (Cartesian axis) and pressure

          total   stress  (Ry/bohr**3)                   (kbar)     P=       -0.02
  -0.00000012   0.00000000   0.00000000           -0.02        0.00        0.00
   0.00000000  -0.00000012  -0.00000000            0.00       -0.02       -0.00
   0.00000000  -0.00000000  -0.00000012            0.00       -0.00       -0.02

     Energy error            =      3.1E-06 Ry
     Gradient error          =      0.0E+00 Ry/Bohr
     Cell gradient error     =      1.8E-02 kbar

     number of scf cycles    =   3
     number of bfgs steps    =   2

     enthalpy           old  =      -5.0402286200 Ry
     enthalpy           new  =      -5.0402317049 Ry

     CASE: enthalpy          _new < enthalpy          _old

     small trust_radius: resetting bfgs history

     new trust radius        =       0.0000064926 bohr
ibrav =      2
 celldm(1) =      7.63980512
Input lattice vectors:
    -0.49911244    -0.00000000     0.49911244
     0.00000000     0.49911244     0.49911244
    -0.49911244     0.49911244    -0.00000000
New lattice vectors in INITIAL alat:
    -0.49911244     0.00000000     0.49911244
     0.00000000     0.49911244     0.49911244
    -0.49911244     0.49911244     0.00000000
New lattice vectors in NEW alat (for information only):
    -0.50000000     0.00000000     0.50000000
     0.00000000     0.50000000     0.50000000
    -0.50000000     0.50000000     0.00000000
Discrepancy in bohr =     0.000000    0.000000    0.000000

Atomic positions rescaled with new alat:
Al               0.0000000000        0.0000000000        0.0000000000
     new conv_thr            =            1.0E-12 Ry

     new unit-cell volume =    111.47740 a.u.^3 (    16.51925 Ang^3 )
     density =      2.71222 g/cm^3

CELL_PARAMETERS (alat=  7.65339080)
  -0.499112440   0.000000000   0.499112440
   0.000000000   0.499112440   0.499112440
  -0.499112440   0.499112440   0.000000000

ATOMIC_POSITIONS (alat)
Al               0.0000000000        0.0000000000        0.0000000000



     Writing config-only to output data dir ./tmp/al-fcc.save/ :
     XML data file
     NEW-OLD atomic charge density approx. for the potential
     New effective cutoffs (rho, wfc):  641.21   60.21

     total cpu time spent up to now is       10.0 secs

     per-process dynamical memory:    45.8 Mb

     Self-consistent Calculation

     iteration #  1     ecut=    60.00 Ry     beta= 0.70
     Davidson diagonalization with overlap
     ethr =  1.00E-06,  avg # of iterations =  1.1

     Threshold (ethr) on eigenvalues was too large:
     Diagonalizing with lowered threshold

     Davidson diagonalization with overlap
     ethr =  1.00E-13,  avg # of iterations =  2.5

     total cpu time spent up to now is       10.9 secs

     End of self-consistent calculation

          k = 0.0000 0.0000 0.0000 (   893 PWs)   bands (ev):

    -3.2368  20.5014  20.5014  20.5014  21.9827  21.9827

          k =-0.0835 0.0835-0.0835 (   893 PWs)   bands (ev):

    -3.0481  17.8924  19.9322  19.9322  22.6639  22.8385

          k =-0.1670 0.1670-0.1670 (   899 PWs)   bands (ev):

    -2.4837  14.5332  19.2327  19.2327  22.4869  23.8908

          k =-0.2504 0.2504-0.2504 (   890 PWs)   bands (ev):

    -1.5479  11.3315  18.7916  18.7916  22.2568  22.6317

          k =-0.3339 0.3339-0.3339 (   878 PWs)   bands (ev):

    -0.2481   8.3885  18.6530  18.6530  21.2417  21.2417

          k =-0.4174 0.4174-0.4174 (   878 PWs)   bands (ev):

     1.4060   5.7421  18.8270  18.8270  20.1258  20.1258

          k = 0.5009-0.5009 0.5009 (   886 PWs)   bands (ev):

     3.3010   3.5155  19.2906  19.2906  19.3459  19.3459

          k = 0.0000 0.1670 0.0000 (   889 PWs)   bands (ev):

    -2.9853  18.7856  18.7856  19.0892  21.4114  24.0611

          k =-0.0835 0.2504-0.0835 (   894 PWs)   bands (ev):

    -2.5463  15.7380  17.9084  19.1927  21.7669  22.7000

          k =-0.1670 0.3339-0.1670 (   885 PWs)   bands (ev):

    -1.7346  12.5055  17.3383  18.8564  20.6564  23.5676

          k =-0.2504 0.4174-0.2504 (   880 PWs)   bands (ev):

    -0.5565   9.4853  17.0835  18.6533  19.1079  23.5152

          k =-0.3339 0.5009-0.3339 (   878 PWs)   bands (ev):

     0.9788   6.7442  17.1468  17.8269  18.7699  22.3302

          k = 0.5844-0.4174 0.5844 (   881 PWs)   bands (ev):

     2.8561   4.3163  16.8888  17.5297  19.1859  21.4308

          k = 0.5009-0.3339 0.5009 (   876 PWs)   bands (ev):

     2.1948   5.0874  16.2766  18.2325  19.9299  20.8394

          k = 0.4174-0.2504 0.4174 (   878 PWs)   bands (ev):

     0.4281   7.6226  15.9961  19.2482  20.5648  20.9902

          k = 0.3339-0.1670 0.3339 (   882 PWs)   bands (ev):

    -0.9894  10.4562  16.0507  20.4211  20.7429  22.3382

          k = 0.2504-0.0835 0.2504 (   897 PWs)   bands (ev):

    -2.0462  13.5352  16.4533  20.8320  22.1438  23.4002

          k = 0.1670-0.0000 0.1670 (   899 PWs)   bands (ev):

    -2.7342  16.5077  17.4532  20.9918  22.2583  23.2808

          k = 0.0000 0.3339 0.0000 (   877 PWs)   bands (ev):

    -2.2335  16.8992  16.8992  17.0644  20.1619  20.3718

          k =-0.0835 0.4174-0.0835 (   878 PWs)   bands (ev):

    -1.5479  13.9315  16.2103  17.5206  18.3403  20.5757

          k =-0.1670 0.5009-0.1670 (   875 PWs)   bands (ev):

    -0.4950  10.8930  15.8424  16.5730  17.4941  22.3885

          k =-0.2504 0.5844-0.2504 (   881 PWs)   bands (ev):

     0.9170   8.0814  15.1806  15.7953  17.5216  24.6393

          k = 0.6679-0.3339 0.6679 (   886 PWs)   bands (ev):

     2.6755   5.5601  14.1094  16.0694  17.8561  23.8545

          k = 0.5844-0.2504 0.5844 (   868 PWs)   bands (ev):

     3.3353   4.7878  13.3775  16.6653  18.5228  23.1702

          k = 0.5009-0.1670 0.5009 (   874 PWs)   bands (ev):

     1.4664   7.1901  12.9985  17.5823  19.5183  22.7878

          k = 0.4174-0.0835 0.4174 (   886 PWs)   bands (ev):

    -0.0635   9.8581  13.0108  18.8149  20.8202  22.6856

          k = 0.3339 0.0000 0.3339 (   887 PWs)   bands (ev):

    -1.2374  12.3769  13.7905  20.3399  22.3702  22.4558

          k = 0.0000 0.5009 0.0000 (   881 PWs)   bands (ev):

    -0.9895  15.3764  15.4077  15.4077  16.1501  18.8920

          k =-0.0835 0.5844-0.0835 (   873 PWs)   bands (ev):

    -0.0641  12.5500  14.2845  14.9286  16.1821  19.4021

          k =-0.1670 0.6679-0.1670 (   882 PWs)   bands (ev):

     1.2205   9.7260  12.7491  14.7718  16.3462  21.4217

          k = 0.7513-0.2504 0.7513 (   875 PWs)   bands (ev):

     2.8516   7.1378  11.5490  14.9368  16.6233  23.9768

          k = 0.6679-0.1670 0.6679 (   877 PWs)   bands (ev):

     4.6937   4.9611  10.7039  15.4239  17.2030  25.7995

          k = 0.5844-0.0835 0.5844 (   876 PWs)   bands (ev):

     2.8579   7.0574  10.2623  16.2337  18.1123  25.3254

          k = 0.5009 0.0000 0.5009 (   883 PWs)   bands (ev):

     1.2226   9.1311  10.6449  17.3658  19.3364  24.8664

          k = 0.0000 0.6679 0.0000 (   866 PWs)   bands (ev):

     0.7319  12.2712  14.1463  14.3398  14.3398  17.8446

          k =-0.0835 0.7513-0.0835 (   875 PWs)   bands (ev):

     1.8849  10.5800  11.6558  14.0740  15.2407  18.5611

          k = 0.8348-0.1670 0.8348 (   879 PWs)   bands (ev):

     3.3784   8.9228   9.3991  14.1300  15.6359  20.8104

          k = 0.7513-0.0835 0.7513 (   878 PWs)   bands (ev):

     5.1591   6.6517   8.3928  14.5080  16.1554  23.6081

          k = 0.6679 0.0000 0.6679 (   873 PWs)   bands (ev):

     4.5878   6.8158   8.2868  15.2089  16.9762  26.5527

          k = 0.0000 0.8348 0.0000 (   886 PWs)   bands (ev):

     2.8987   8.8001  13.4023  13.6995  13.6995  17.1749

          k = 0.9183-0.0835 0.9183 (   884 PWs)   bands (ev):

     4.2204   7.3873  11.1801  13.6470  14.7661  18.1249

          k = 0.8348 0.0000 0.8348 (   878 PWs)   bands (ev):

     5.4306   6.7673   8.8344  13.9163  15.3959  20.6021

          k = 0.0000-1.0018 0.0000 (   894 PWs)   bands (ev):

     4.9697   6.2932  13.1536  13.4862  13.4862  16.9454

          k =-0.1670 0.3339 0.0000 (   889 PWs)   bands (ev):

    -1.9838  14.4569  15.6290  19.8876  20.4749  21.7395

          k =-0.2504 0.4174-0.0835 (   876 PWs)   bands (ev):

    -1.0514  11.7042  14.7456  18.7175  20.0744  23.0298

          k =-0.3339 0.5009-0.1670 (   877 PWs)   bands (ev):

     0.2438   8.8286  14.5338  17.2324  20.0515  22.7703

          k = 0.5844-0.4174 0.7513 (   878 PWs)   bands (ev):

     1.8914   6.2072  14.6839  16.0710  20.2637  21.6620

          k = 0.5009-0.3339 0.6679 (   876 PWs)   bands (ev):

     3.7664   4.0051  15.0416  15.3764  20.6467  20.9692

          k =-0.1670 0.5009 0.0000 (   874 PWs)   bands (ev):

    -0.7421  12.8433  14.1032  16.4031  18.3847  20.4872

          k =-0.2504 0.5844-0.0835 (   874 PWs)   bands (ev):

     0.4272  10.3135  13.3873  14.7900  18.8402  22.0173

          k = 0.6679-0.3339 0.8348 (   880 PWs)   bands (ev):

     1.9502   7.6550  13.2144  13.6637  19.0642  23.9724

          k = 0.5844-0.2504 0.7513 (   877 PWs)   bands (ev):

     3.8070   5.2634  12.4426  13.8529  19.5174  23.3208

          k = 0.5009-0.1670 0.6679 (   873 PWs)   bands (ev):

     3.1568   6.0112  11.8489  14.5670  20.2680  22.7106

          k = 0.4174-0.0835 0.5844 (   880 PWs)   bands (ev):

     1.4050   8.4599  11.6425  15.6295  21.3023  22.3499

          k = 0.3339 0.0000 0.5009 (   876 PWs)   bands (ev):

    -0.0021  10.7548  12.2321  17.0205  21.7621  22.4987

          k =-0.1670 0.6679-0.0000 (   871 PWs)   bands (ev):

     0.9764  11.6849  12.4063  13.1341  17.2600  19.4998

          k = 0.7513-0.2504 0.9183 (   878 PWs)   bands (ev):

     2.3692   9.3716  11.0575  12.5722  17.9564  21.2451

          k = 0.6679-0.1670 0.8348 (   878 PWs)   bands (ev):

     4.0941   6.9446   9.9955  12.7800  18.4153  23.8326

          k = 0.5844-0.0835 0.7513 (   879 PWs)   bands (ev):

     4.7585   6.1241   9.3191  13.3846  19.0990  25.3378

          k = 0.5009 0.0000 0.6679 (   878 PWs)   bands (ev):

     2.9169   7.9727   9.4684  14.3402  20.0741  24.5346

          k = 0.8348-0.1670 1.0018 (   877 PWs)   bands (ev):

     3.1388   9.0267  10.9882  12.3796  16.5775  18.8709

          k = 0.7513-0.0835 0.9183 (   880 PWs)   bands (ev):

     4.6926   7.8371   8.9591  12.0940  17.5054  20.8401

          k = 0.6679 0.0000 0.8348 (   875 PWs)   bands (ev):

     6.1228   6.6413   7.6078  12.5469  18.1939  23.6648

          k =-0.1670-1.0018 0.0000 (   878 PWs)   bands (ev):

     5.2001   6.5356  10.7557  12.1493  16.3492  18.6559

          k = 0.6679-0.3339 1.0018 (   878 PWs)   bands (ev):

     1.7073   9.5954  11.0593  13.2656  20.7113  22.3429

          k = 0.5844-0.2504 0.9183 (   879 PWs)   bands (ev):

     3.3325   7.5226  10.6727  12.0918  21.5079  22.9525

          k = 0.5009-0.1670 0.8348 (   884 PWs)   bands (ev):

     5.1557   5.4262  10.8935  11.4713  21.9139  22.3922

          k = 0.6679-0.1670 1.0018 (   886 PWs)   bands (ev):

     3.8567   8.8998   9.6090  10.5822  20.0470  21.8387

          k = 0.5844-0.0835 0.9183 (   884 PWs)   bands (ev):

     5.6294   7.0445   8.7991  10.3552  21.0999  23.9489

          k = 0.5009 0.0000 0.8348 (   882 PWs)   bands (ev):

     5.0431   7.2784   8.7250  11.0060  21.9175  23.9280

          k =-0.3339-1.0018 0.0000 (   878 PWs)   bands (ev):

     5.8919   7.2429   8.6680  10.2462  19.8228  21.6530

          k =-0.5009-1.0018 0.0000 (   876 PWs)   bands (ev):

     7.0471   7.0471   8.0639   8.9976  23.7149  23.7149

     the Fermi energy is     7.7472 ev

!    total energy              =      -5.04023171 Ry
     estimated scf accuracy    <          1.3E-13 Ry
     smearing contrib. (-TS)   =       0.00009067 Ry
     internal energy E=F+TS    =      -5.04032238 Ry

     The total energy is F=E-TS. E is the sum of the following terms:
     one-electron contribution =       2.94518910 Ry
     hartree contribution      =       0.00596353 Ry
     xc contribution           =      -2.59032170 Ry
     ewald contribution        =      -5.40115331 Ry

     convergence has been achieved in   1 iterations

     Forces acting on atoms (cartesian axes, Ry/au):

     atom    1 type  1   force =     0.00000000    0.00000000    0.00000000

     Total force =     0.000000     Total SCF correction =     0.000000


     Computing stress (Cartesian axis) and pressure

          total   stress  (Ry/bohr**3)                   (kbar)     P=       -0.01
  -0.00000007   0.00000000   0.00000000           -0.01        0.00        0.00
   0.00000000  -0.00000007  -0.00000000            0.00       -0.01       -0.00
   0.00000000  -0.00000000  -0.00000007            0.00       -0.00       -0.01

     Energy error            =      1.0E-10 Ry
     Gradient error          =      0.0E+00 Ry/Bohr
     Cell gradient error     =      1.1E-02 kbar
ibrav =      2
 celldm(1) =      7.63980512
Input lattice vectors:
    -0.49911244     0.00000000     0.49911244
     0.00000000     0.49911244     0.49911244
    -0.49911244     0.49911244     0.00000000
New lattice vectors in INITIAL alat:
    -0.49911244     0.00000000     0.49911244
     0.00000000     0.49911244     0.49911244
    -0.49911244     0.49911244     0.00000000
New lattice vectors in NEW alat (for information only):
    -0.50000000     0.00000000     0.50000000
     0.00000000     0.50000000     0.50000000
    -0.50000000     0.50000000     0.00000000
Discrepancy in bohr =     0.000000    0.000000    0.000000

Atomic positions rescaled with new alat:
Al               0.0000000000        0.0000000000        0.0000000000

     bfgs converged in   4 scf cycles and   3 bfgs steps
     (criteria: energy <  1.0E-06 Ry, force <  1.0E-04 Ry/Bohr, cell <  1.0E-01 kbar)

     End of BFGS Geometry Optimization

     Final enthalpy           =      -5.0402317050 Ry

     File ./tmp/al-fcc.bfgs deleted, as requested
Begin final coordinates
     new unit-cell volume =    111.47740 a.u.^3 (    16.51925 Ang^3 )
     density =      2.71222 g/cm^3

CELL_PARAMETERS (alat=  7.65339080)
  -0.499112440   0.000000000   0.499112440
   0.000000000   0.499112440   0.499112440
  -0.499112440   0.499112440   0.000000000

ATOMIC_POSITIONS (alat)
Al               0.0000000000        0.0000000000        0.0000000000
End final coordinates



     Writing config-only to output data dir ./tmp/al-fcc.save/ :
     XML data file

     Final scf calculation at the relaxed structure.
     The G-vectors are recalculated for the final unit cell
     Results may differ from those at the preceding step.

     Parallelization info
     --------------------
     sticks:   dense  smooth     PW     G-vecs:    dense   smooth      PW
     Min         321     118     40                 7616     1718     322
     Max         322     119     42                 7618     1721     323
     Sum        1285     475    163                30467     6879    1291

     Using Slab Decomposition



     bravais-lattice index     =            2
     lattice parameter (alat)  =       7.6534  a.u.
     unit-cell volume          =     111.4774 (a.u.)^3
     number of atoms/cell      =            1
     number of atomic types    =            1
     number of electrons       =         3.00
     number of Kohn-Sham states=            6
     kinetic-energy cutoff     =      60.0000  Ry
     charge density cutoff     =     640.0000  Ry
     scf convergence threshold =      1.0E-12
     mixing beta               =       0.7000
     number of iterations used =            8  plain     mixing
     press convergence thresh. =      1.0E-01
     Exchange-correlation= PBE
                           (   1   4   3   4   0   0   0)

     celldm(1)=   7.653391  celldm(2)=   0.000000  celldm(3)=   0.000000
     celldm(4)=   0.000000  celldm(5)=   0.000000  celldm(6)=   0.000000

     crystal axes: (cart. coord. in units of alat)
               a(1) = (  -0.499112   0.000000   0.499112 )  
               a(2) = (   0.000000   0.499112   0.499112 )  
               a(3) = (  -0.499112   0.499112   0.000000 )  

     reciprocal axes: (cart. coord. in units 2 pi/alat)
               b(1) = ( -1.001778 -1.001778  1.001778 )  
               b(2) = (  1.001778  1.001778  1.001778 )  
               b(3) = ( -1.001778  1.001778 -1.001778 )  


     PseudoPot. # 1 for Al read from file:
     ../pseudo/Al.pbe-n-rrkjus_psl.1.0.0.UPF
     MD5 check sum: bbe9f3f15d9b3b5ab9a58e4859ebdbfe
     Pseudo is Ultrasoft + core correction, Zval =  3.0
     Generated using &quot;atomic&quot; code by A. Dal Corso  v.6.3
     Using radial grid of 1135 points,  6 beta functions with: 
                l(1) =   0
                l(2) =   0
                l(3) =   1
                l(4) =   1
                l(5) =   2
                l(6) =   2
     Q(r) pseudized with 0 coefficients 


     atomic species   valence    mass     pseudopotential
     Al                3.00    26.98154     Al( 1.00)

     48 Sym. Ops., with inversion, found



   Cartesian axes

     site n.     atom                  positions (alat units)
         1        Al     tau(   1) = (   0.0000000   0.0000000   0.0000000  )

     number of k points=    72  Marzari-Vanderbilt smearing, width (Ry)=  0.0100
                       cart. coord. in units 2pi/alat
        k(    1) = (   0.0000000   0.0000000   0.0000000), wk =   0.0011574
        k(    2) = (  -0.0834815   0.0834815  -0.0834815), wk =   0.0092593
        k(    3) = (  -0.1669630   0.1669630  -0.1669630), wk =   0.0092593
        k(    4) = (  -0.2504446   0.2504446  -0.2504446), wk =   0.0092593
        k(    5) = (  -0.3339261   0.3339261  -0.3339261), wk =   0.0092593
        k(    6) = (  -0.4174076   0.4174076  -0.4174076), wk =   0.0092593
        k(    7) = (   0.5008891  -0.5008891   0.5008891), wk =   0.0046296
        k(    8) = (   0.0000000   0.1669630   0.0000000), wk =   0.0069444
        k(    9) = (  -0.0834815   0.2504446  -0.0834815), wk =   0.0277778
        k(   10) = (  -0.1669630   0.3339261  -0.1669630), wk =   0.0277778
        k(   11) = (  -0.2504446   0.4174076  -0.2504446), wk =   0.0277778
        k(   12) = (  -0.3339261   0.5008891  -0.3339261), wk =   0.0277778
        k(   13) = (   0.5843707  -0.4174076   0.5843707), wk =   0.0277778
        k(   14) = (   0.5008891  -0.3339261   0.5008891), wk =   0.0277778
        k(   15) = (   0.4174076  -0.2504446   0.4174076), wk =   0.0277778
        k(   16) = (   0.3339261  -0.1669630   0.3339261), wk =   0.0277778
        k(   17) = (   0.2504446  -0.0834815   0.2504446), wk =   0.0277778
        k(   18) = (   0.1669630  -0.0000000   0.1669630), wk =   0.0138889
        k(   19) = (   0.0000000   0.3339261   0.0000000), wk =   0.0069444
        k(   20) = (  -0.0834815   0.4174076  -0.0834815), wk =   0.0277778
        k(   21) = (  -0.1669630   0.5008891  -0.1669630), wk =   0.0277778
        k(   22) = (  -0.2504446   0.5843707  -0.2504446), wk =   0.0277778
        k(   23) = (   0.6678522  -0.3339261   0.6678522), wk =   0.0277778
        k(   24) = (   0.5843707  -0.2504446   0.5843707), wk =   0.0277778
        k(   25) = (   0.5008891  -0.1669630   0.5008891), wk =   0.0277778
        k(   26) = (   0.4174076  -0.0834815   0.4174076), wk =   0.0277778
        k(   27) = (   0.3339261   0.0000000   0.3339261), wk =   0.0138889
        k(   28) = (   0.0000000   0.5008891   0.0000000), wk =   0.0069444
        k(   29) = (  -0.0834815   0.5843707  -0.0834815), wk =   0.0277778
        k(   30) = (  -0.1669630   0.6678522  -0.1669630), wk =   0.0277778
        k(   31) = (   0.7513337  -0.2504446   0.7513337), wk =   0.0277778
        k(   32) = (   0.6678522  -0.1669630   0.6678522), wk =   0.0277778
        k(   33) = (   0.5843707  -0.0834815   0.5843707), wk =   0.0277778
        k(   34) = (   0.5008891   0.0000000   0.5008891), wk =   0.0138889
        k(   35) = (   0.0000000   0.6678522   0.0000000), wk =   0.0069444
        k(   36) = (  -0.0834815   0.7513337  -0.0834815), wk =   0.0277778
        k(   37) = (   0.8348152  -0.1669630   0.8348152), wk =   0.0277778
        k(   38) = (   0.7513337  -0.0834815   0.7513337), wk =   0.0277778
        k(   39) = (   0.6678522   0.0000000   0.6678522), wk =   0.0138889
        k(   40) = (   0.0000000   0.8348152   0.0000000), wk =   0.0069444
        k(   41) = (   0.9182968  -0.0834815   0.9182968), wk =   0.0277778
        k(   42) = (   0.8348152   0.0000000   0.8348152), wk =   0.0138889
        k(   43) = (   0.0000000  -1.0017783   0.0000000), wk =   0.0034722
        k(   44) = (  -0.1669630   0.3339261   0.0000000), wk =   0.0277778
        k(   45) = (  -0.2504446   0.4174076  -0.0834815), wk =   0.0555556
        k(   46) = (  -0.3339261   0.5008891  -0.1669630), wk =   0.0555556
        k(   47) = (   0.5843707  -0.4174076   0.7513337), wk =   0.0555556
        k(   48) = (   0.5008891  -0.3339261   0.6678522), wk =   0.0277778
        k(   49) = (  -0.1669630   0.5008891   0.0000000), wk =   0.0277778
        k(   50) = (  -0.2504446   0.5843707  -0.0834815), wk =   0.0555556
        k(   51) = (   0.6678522  -0.3339261   0.8348152), wk =   0.0555556
        k(   52) = (   0.5843707  -0.2504446   0.7513337), wk =   0.0555556
        k(   53) = (   0.5008891  -0.1669630   0.6678522), wk =   0.0555556
        k(   54) = (   0.4174076  -0.0834815   0.5843707), wk =   0.0555556
        k(   55) = (   0.3339261   0.0000000   0.5008891), wk =   0.0277778
        k(   56) = (  -0.1669630   0.6678522  -0.0000000), wk =   0.0277778
        k(   57) = (   0.7513337  -0.2504446   0.9182968), wk =   0.0555556
        k(   58) = (   0.6678522  -0.1669630   0.8348152), wk =   0.0555556
        k(   59) = (   0.5843707  -0.0834815   0.7513337), wk =   0.0555556
        k(   60) = (   0.5008891   0.0000000   0.6678522), wk =   0.0277778
        k(   61) = (   0.8348152  -0.1669630   1.0017783), wk =   0.0277778
        k(   62) = (   0.7513337  -0.0834815   0.9182968), wk =   0.0555556
        k(   63) = (   0.6678522   0.0000000   0.8348152), wk =   0.0277778
        k(   64) = (  -0.1669630  -1.0017783   0.0000000), wk =   0.0138889
        k(   65) = (   0.6678522  -0.3339261   1.0017783), wk =   0.0277778
        k(   66) = (   0.5843707  -0.2504446   0.9182968), wk =   0.0555556
        k(   67) = (   0.5008891  -0.1669630   0.8348152), wk =   0.0277778
        k(   68) = (   0.6678522  -0.1669630   1.0017783), wk =   0.0277778
        k(   69) = (   0.5843707  -0.0834815   0.9182968), wk =   0.0555556
        k(   70) = (   0.5008891   0.0000000   0.8348152), wk =   0.0277778
        k(   71) = (  -0.3339261  -1.0017783   0.0000000), wk =   0.0138889
        k(   72) = (  -0.5008891  -1.0017783   0.0000000), wk =   0.0069444

     Dense  grid:    30467 G-vectors     FFT dimensions: (  45,  45,  45)

     Smooth grid:     6879 G-vectors     FFT dimensions: (  27,  27,  27)

     Estimated max dynamical RAM per process >      33.79 MB

     Estimated total dynamical RAM >     135.15 MB

     Initial potential from superposition of free atoms

     starting charge       2.9977, renormalised to       3.0000
     Starting wfcs are    4 randomized atomic wfcs +    2 random wfcs

     total cpu time spent up to now is       11.7 secs

     per-process dynamical memory:    45.8 Mb

     Self-consistent Calculation

     iteration #  1     ecut=    60.00 Ry     beta= 0.70
     Davidson diagonalization with overlap
     c_bands:  1 eigenvalues not converged
     c_bands:  1 eigenvalues not converged
     c_bands:  1 eigenvalues not converged
     c_bands:  1 eigenvalues not converged
     c_bands:  1 eigenvalues not converged
     c_bands:  1 eigenvalues not converged
     c_bands:  1 eigenvalues not converged
     c_bands:  1 eigenvalues not converged
     c_bands:  1 eigenvalues not converged
     c_bands:  1 eigenvalues not converged
     c_bands:  2 eigenvalues not converged
     c_bands:  2 eigenvalues not converged
     c_bands:  1 eigenvalues not converged
     c_bands:  1 eigenvalues not converged
     c_bands:  1 eigenvalues not converged
     c_bands:  1 eigenvalues not converged
     c_bands:  1 eigenvalues not converged
     c_bands:  1 eigenvalues not converged
     c_bands:  1 eigenvalues not converged
     c_bands:  1 eigenvalues not converged
     c_bands:  1 eigenvalues not converged
     c_bands:  1 eigenvalues not converged
     c_bands:  1 eigenvalues not converged
     c_bands:  1 eigenvalues not converged
     ethr =  1.00E-06,  avg # of iterations = 16.7

     total cpu time spent up to now is       13.7 secs

     total energy              =      -5.04025929 Ry
     estimated scf accuracy    <       0.00542322 Ry

     iteration #  2     ecut=    60.00 Ry     beta= 0.70
     Davidson diagonalization with overlap
     ethr =  1.81E-04,  avg # of iterations =  1.0

     total cpu time spent up to now is       14.1 secs

     total energy              =      -5.04022196 Ry
     estimated scf accuracy    <       0.00039362 Ry

     iteration #  3     ecut=    60.00 Ry     beta= 0.70
     Davidson diagonalization with overlap
     ethr =  1.31E-05,  avg # of iterations =  1.1

     total cpu time spent up to now is       14.5 secs

     total energy              =      -5.04023051 Ry
     estimated scf accuracy    <       0.00000048 Ry

     iteration #  4     ecut=    60.00 Ry     beta= 0.70
     Davidson diagonalization with overlap
     ethr =  1.59E-08,  avg # of iterations =  3.8

     total cpu time spent up to now is       15.1 secs

     total energy              =      -5.04023155 Ry
     estimated scf accuracy    <       0.00000001 Ry

     iteration #  5     ecut=    60.00 Ry     beta= 0.70
     Davidson diagonalization with overlap
     ethr =  4.57E-10,  avg # of iterations =  1.1

     total cpu time spent up to now is       15.5 secs

     total energy              =      -5.04023155 Ry
     estimated scf accuracy    <          3.2E-10 Ry

     iteration #  6     ecut=    60.00 Ry     beta= 0.70
     Davidson diagonalization with overlap
     ethr =  1.07E-11,  avg # of iterations =  1.3

     total cpu time spent up to now is       15.9 secs

     total energy              =      -5.04023155 Ry
     estimated scf accuracy    <          2.5E-11 Ry

     iteration #  7     ecut=    60.00 Ry     beta= 0.70
     Davidson diagonalization with overlap
     ethr =  8.22E-13,  avg # of iterations =  2.0

     total cpu time spent up to now is       16.4 secs

     End of self-consistent calculation

          k = 0.0000 0.0000 0.0000 (   893 PWs)   bands (ev):

    -3.2368  20.5014  20.5014  21.9827  21.9827  21.9827

          k =-0.0835 0.0835-0.0835 (   887 PWs)   bands (ev):

    -3.0481  17.8924  19.9322  19.9322  22.6637  22.8385

          k =-0.1670 0.1670-0.1670 (   887 PWs)   bands (ev):

    -2.4837  14.5332  19.2327  19.2327  22.4869  23.8908

          k =-0.2504 0.2504-0.2504 (   890 PWs)   bands (ev):

    -1.5479  11.3315  18.7916  18.7916  22.2568  22.6317

          k =-0.3339 0.3339-0.3339 (   878 PWs)   bands (ev):

    -0.2481   8.3885  18.6530  18.6530  21.2417  21.2417

          k =-0.4174 0.4174-0.4174 (   872 PWs)   bands (ev):

     1.4060   5.7421  18.8270  18.8270  20.1258  20.1258

          k = 0.5009-0.5009 0.5009 (   862 PWs)   bands (ev):

     3.3010   3.5155  19.2906  19.2906  19.3459  19.3459

          k = 0.0000 0.1670 0.0000 (   889 PWs)   bands (ev):

    -2.9853  18.7856  18.7856  19.0892  21.4114  24.0612

          k =-0.0835 0.2504-0.0835 (   894 PWs)   bands (ev):

    -2.5463  15.7380  17.9084  19.1927  21.7669  22.7000

          k =-0.1670 0.3339-0.1670 (   879 PWs)   bands (ev):

    -1.7346  12.5055  17.3383  18.8564  20.6564  23.5676

          k =-0.2504 0.4174-0.2504 (   875 PWs)   bands (ev):

    -0.5565   9.4853  17.0835  18.6533  19.1079  23.5157

          k =-0.3339 0.5009-0.3339 (   878 PWs)   bands (ev):

     0.9788   6.7442  17.1468  17.8269  18.7699  22.3302

          k = 0.5844-0.4174 0.5844 (   871 PWs)   bands (ev):

     2.8561   4.3163  16.8888  17.5297  19.1859  21.4308

          k = 0.5009-0.3339 0.5009 (   873 PWs)   bands (ev):

     2.1948   5.0874  16.2766  18.2325  19.9299  20.8394

          k = 0.4174-0.2504 0.4174 (   874 PWs)   bands (ev):

     0.4281   7.6226  15.9961  19.2482  20.5648  20.9902

          k = 0.3339-0.1670 0.3339 (   878 PWs)   bands (ev):

    -0.9894  10.4562  16.0507  20.4211  20.7429  22.3383

          k = 0.2504-0.0835 0.2504 (   893 PWs)   bands (ev):

    -2.0462  13.5352  16.4533  20.8320  22.1439  23.4002

          k = 0.1670-0.0000 0.1670 (   895 PWs)   bands (ev):

    -2.7342  16.5077  17.4532  20.9918  22.2583  23.2807

          k = 0.0000 0.3339 0.0000 (   877 PWs)   bands (ev):

    -2.2335  16.8992  16.8992  17.0644  20.1619  20.3718

          k =-0.0835 0.4174-0.0835 (   876 PWs)   bands (ev):

    -1.5479  13.9315  16.2103  17.5206  18.3403  20.5757

          k =-0.1670 0.5009-0.1670 (   874 PWs)   bands (ev):

    -0.4950  10.8930  15.8424  16.5730  17.4941  22.3885

          k =-0.2504 0.5844-0.2504 (   876 PWs)   bands (ev):

     0.9170   8.0814  15.1806  15.7953  17.5216  24.6393

          k = 0.6679-0.3339 0.6679 (   874 PWs)   bands (ev):

     2.6755   5.5601  14.1094  16.0694  17.8561  23.8545

          k = 0.5844-0.2504 0.5844 (   868 PWs)   bands (ev):

     3.3353   4.7878  13.3775  16.6653  18.5228  23.1702

          k = 0.5009-0.1670 0.5009 (   874 PWs)   bands (ev):

     1.4664   7.1901  12.9985  17.5823  19.5183  22.7878

          k = 0.4174-0.0835 0.4174 (   878 PWs)   bands (ev):

    -0.0635   9.8581  13.0108  18.8149  20.8202  22.6856

          k = 0.3339 0.0000 0.3339 (   887 PWs)   bands (ev):

    -1.2374  12.3769  13.7905  20.3399  22.3702  22.4558

          k = 0.0000 0.5009 0.0000 (   881 PWs)   bands (ev):

    -0.9895  15.3764  15.4077  15.4077  16.1501  18.8920

          k =-0.0835 0.5844-0.0835 (   867 PWs)   bands (ev):

    -0.0641  12.5500  14.2845  14.9286  16.1821  19.4021

          k =-0.1670 0.6679-0.1670 (   876 PWs)   bands (ev):

     1.2205   9.7260  12.7491  14.7718  16.3462  21.4217

          k = 0.7513-0.2504 0.7513 (   875 PWs)   bands (ev):

     2.8516   7.1378  11.5490  14.9368  16.6233  23.9768

          k = 0.6679-0.1670 0.6679 (   865 PWs)   bands (ev):

     4.6937   4.9611  10.7039  15.4239  17.2030  25.7996

          k = 0.5844-0.0835 0.5844 (   872 PWs)   bands (ev):

     2.8579   7.0574  10.2623  16.2337  18.1123  25.3254

          k = 0.5009 0.0000 0.5009 (   883 PWs)   bands (ev):

     1.2226   9.1311  10.6449  17.3658  19.3364  24.8666

          k = 0.0000 0.6679 0.0000 (   866 PWs)   bands (ev):

     0.7319  12.2712  14.1463  14.3398  14.3398  17.8446

          k =-0.0835 0.7513-0.0835 (   871 PWs)   bands (ev):

     1.8849  10.5800  11.6558  14.0740  15.2407  18.5611

          k = 0.8348-0.1670 0.8348 (   867 PWs)   bands (ev):

     3.3784   8.9228   9.3991  14.1300  15.6359  20.8104

          k = 0.7513-0.0835 0.7513 (   876 PWs)   bands (ev):

     5.1591   6.6517   8.3928  14.5080  16.1554  23.6081

          k = 0.6679 0.0000 0.6679 (   866 PWs)   bands (ev):

     4.5878   6.8158   8.2868  15.2089  16.9762  26.5528

          k = 0.0000 0.8348 0.0000 (   886 PWs)   bands (ev):

     2.8987   8.8001  13.4023  13.6995  13.6995  17.1749

          k = 0.9183-0.0835 0.9183 (   876 PWs)   bands (ev):

     4.2204   7.3873  11.1801  13.6470  14.7661  18.1249

          k = 0.8348 0.0000 0.8348 (   866 PWs)   bands (ev):

     5.4306   6.7673   8.8344  13.9163  15.3959  20.6021

          k = 0.0000-1.0018 0.0000 (   846 PWs)   bands (ev):

     4.9698   6.2932  13.1536  13.4862  13.4862  16.9454

          k =-0.1670 0.3339 0.0000 (   875 PWs)   bands (ev):

    -1.9838  14.4569  15.6290  19.8876  20.4749  21.7395

          k =-0.2504 0.4174-0.0835 (   873 PWs)   bands (ev):

    -1.0514  11.7042  14.7456  18.7175  20.0744  23.0298

          k =-0.3339 0.5009-0.1670 (   873 PWs)   bands (ev):

     0.2438   8.8286  14.5338  17.2324  20.0515  22.7703

          k = 0.5844-0.4174 0.7513 (   876 PWs)   bands (ev):

     1.8914   6.2072  14.6839  16.0710  20.2637  21.6620

          k = 0.5009-0.3339 0.6679 (   864 PWs)   bands (ev):

     3.7664   4.0051  15.0416  15.3764  20.6467  20.9692

          k =-0.1670 0.5009 0.0000 (   870 PWs)   bands (ev):

    -0.7421  12.8433  14.1032  16.4031  18.3847  20.4872

          k =-0.2504 0.5844-0.0835 (   869 PWs)   bands (ev):

     0.4272  10.3135  13.3873  14.7900  18.8402  22.0173

          k = 0.6679-0.3339 0.8348 (   880 PWs)   bands (ev):

     1.9502   7.6550  13.2144  13.6637  19.0642  23.9725

          k = 0.5844-0.2504 0.7513 (   871 PWs)   bands (ev):

     3.8070   5.2634  12.4426  13.8529  19.5174  23.3208

          k = 0.5009-0.1670 0.6679 (   866 PWs)   bands (ev):

     3.1568   6.0112  11.8489  14.5670  20.2680  22.7106

          k = 0.4174-0.0835 0.5844 (   875 PWs)   bands (ev):

     1.4050   8.4599  11.6425  15.6295  21.3023  22.3499

          k = 0.3339 0.0000 0.5009 (   876 PWs)   bands (ev):

    -0.0021  10.7548  12.2321  17.0205  21.7621  22.4987

          k =-0.1670 0.6679-0.0000 (   871 PWs)   bands (ev):

     0.9764  11.6849  12.4063  13.1341  17.2600  19.4998

          k = 0.7513-0.2504 0.9183 (   876 PWs)   bands (ev):

     2.3692   9.3716  11.0575  12.5722  17.9564  21.2451

          k = 0.6679-0.1670 0.8348 (   876 PWs)   bands (ev):

     4.0941   6.9446   9.9955  12.7800  18.4153  23.8326

          k = 0.5844-0.0835 0.7513 (   873 PWs)   bands (ev):

     4.7585   6.1241   9.3191  13.3846  19.0990  25.3378

          k = 0.5009 0.0000 0.6679 (   878 PWs)   bands (ev):

     2.9169   7.9727   9.4684  14.3402  20.0741  24.5346

          k = 0.8348-0.1670 1.0018 (   870 PWs)   bands (ev):

     3.1388   9.0267  10.9882  12.3796  16.5775  18.8709

          k = 0.7513-0.0835 0.9183 (   873 PWs)   bands (ev):

     4.6926   7.8371   8.9591  12.0940  17.5054  20.8401

          k = 0.6679 0.0000 0.8348 (   875 PWs)   bands (ev):

     6.1228   6.6413   7.6078  12.5469  18.1939  23.6648

          k =-0.1670-1.0018 0.0000 (   878 PWs)   bands (ev):

     5.2001   6.5356  10.7557  12.1493  16.3492  18.6559

          k = 0.6679-0.3339 1.0018 (   878 PWs)   bands (ev):

     1.7073   9.5954  11.0593  13.2656  20.7113  22.3429

          k = 0.5844-0.2504 0.9183 (   871 PWs)   bands (ev):

     3.3325   7.5226  10.6727  12.0918  21.5079  22.9525

          k = 0.5009-0.1670 0.8348 (   874 PWs)   bands (ev):

     5.1557   5.4262  10.8935  11.4713  21.9139  22.3922

          k = 0.6679-0.1670 1.0018 (   880 PWs)   bands (ev):

     3.8567   8.8998   9.6090  10.5822  20.0470  21.8387

          k = 0.5844-0.0835 0.9183 (   878 PWs)   bands (ev):

     5.6294   7.0445   8.7991  10.3552  21.0999  23.9489

          k = 0.5009 0.0000 0.8348 (   877 PWs)   bands (ev):

     5.0431   7.2784   8.7250  11.0060  21.9175  23.9281

          k =-0.3339-1.0018 0.0000 (   878 PWs)   bands (ev):

     5.8919   7.2429   8.6680  10.2462  19.8228  21.6530

          k =-0.5009-1.0018 0.0000 (   876 PWs)   bands (ev):

     7.0471   7.0471   8.0639   8.9976  23.7149  23.7149

     the Fermi energy is     7.7472 ev

!    total energy              =      -5.04023155 Ry
     estimated scf accuracy    <          2.2E-14 Ry
     smearing contrib. (-TS)   =       0.00009067 Ry
     internal energy E=F+TS    =      -5.04032223 Ry

     The total energy is F=E-TS. E is the sum of the following terms:
     one-electron contribution =       2.94518934 Ry
     hartree contribution      =       0.00596353 Ry
     xc contribution           =      -2.59032179 Ry
     ewald contribution        =      -5.40115331 Ry

     convergence has been achieved in   7 iterations

     Forces acting on atoms (cartesian axes, Ry/au):

     atom    1 type  1   force =     0.00000000    0.00000000    0.00000000

     Total force =     0.000000     Total SCF correction =     0.000000


     Computing stress (Cartesian axis) and pressure

          total   stress  (Ry/bohr**3)                   (kbar)     P=       -0.01
  -0.00000007  -0.00000000  -0.00000000           -0.01       -0.00       -0.00
  -0.00000000  -0.00000007   0.00000000           -0.00       -0.01        0.00
  -0.00000000   0.00000000  -0.00000007           -0.00        0.00       -0.01


     Writing all to output data dir ./tmp/al-fcc.save/ :
     XML data file, charge density, pseudopotentials, collected wavefunctions

     init_run     :      0.80s CPU      0.83s WALL (       2 calls)
     electrons    :     12.30s CPU     13.06s WALL (       5 calls)
     update_pot   :      0.05s CPU      0.05s WALL (       3 calls)
     forces       :      0.41s CPU      0.41s WALL (       5 calls)
     stress       :      2.30s CPU      2.31s WALL (       5 calls)

     Called by init_run:
     wfcinit      :      0.26s CPU      0.27s WALL (       2 calls)
     potinit      :      0.09s CPU      0.09s WALL (       2 calls)
     hinit0       :      0.31s CPU      0.31s WALL (       2 calls)

     Called by electrons:
     c_bands      :      9.40s CPU     10.03s WALL (      24 calls)
     sum_band     :      2.09s CPU      2.21s WALL (      24 calls)
     v_of_rho     :      0.29s CPU      0.30s WALL (      25 calls)
     newd         :      0.65s CPU      0.66s WALL (      25 calls)
     mix_rho      :      0.02s CPU      0.02s WALL (      24 calls)

     Called by c_bands:
     init_us_2    :      0.32s CPU      0.34s WALL (    4320 calls)
     cegterg      :      8.95s CPU      9.55s WALL (    1728 calls)

     Called by *egterg:
     cdiaghg      :      0.38s CPU      0.40s WALL (    6163 calls)
     h_psi        :      7.14s CPU      7.63s WALL (    6811 calls)
     s_psi        :      0.43s CPU      0.46s WALL (    6811 calls)
     g_psi        :      0.03s CPU      0.03s WALL (    4939 calls)

     Called by h_psi:
     h_psi:calbec :      0.45s CPU      0.49s WALL (    6811 calls)
     vloc_psi     :      6.21s CPU      6.64s WALL (    6811 calls)
                                        0.00s GPU  (    6811 calls)
     add_vuspsi   :      0.43s CPU      0.46s WALL (    6811 calls)

     General routines
     calbec       :      1.11s CPU      1.16s WALL (   14659 calls)
     fft          :      0.29s CPU      0.31s WALL (     447 calls)
     ffts         :      0.04s CPU      0.04s WALL (      49 calls)
     fftw         :      6.71s CPU      7.18s WALL (   70862 calls)
     interpolate  :      0.06s CPU      0.06s WALL (      25 calls)

     Parallel routines

     PWSCF        :     16.12s CPU     16.94s WALL


   This run was terminated on:  22:33: 1  22Sep2026            

=------------------------------------------------------------------------------=
   JOB DONE.
=------------------------------------------------------------------------------=
