       N       E                     dE             d eps       ncg     rms          rms(c)
DAV:   1     0.122879445287E+04    0.12288E+04   -0.66142E+04  8544   0.109E+03
DAV:   2     0.292170696005E+01   -0.12259E+04   -0.11961E+04  9048   0.298E+02
DAV:   3    -0.103112905968E+03   -0.10603E+03   -0.10516E+03  8432   0.813E+01
DAV:   4    -0.107353469411E+03   -0.42406E+01   -0.42200E+01  9536   0.160E+01
DAV:   5    -0.107488718686E+03   -0.13525E+00   -0.13501E+00  9928   0.281E+00    0.233E+01
DAV:   6    -0.105629768148E+03    0.18590E+01   -0.11419E+00  8376   0.294E+00    0.187E+01
DAV:   7    -0.102710481603E+03    0.29193E+01   -0.11747E+01  8096   0.959E+00    0.719E+00
DAV:   8    -0.102676959002E+03    0.33523E-01   -0.32945E+00  8728   0.463E+00    0.493E+00
DAV:   9    -0.102830896021E+03   -0.15394E+00   -0.46847E-01  9768   0.186E+00    0.360E+00
DAV:  10    -0.102651782487E+03    0.17911E+00   -0.16326E-01  8256   0.118E+00    0.249E+00
DAV:  11    -0.102433512235E+03    0.21827E+00   -0.86228E-01  8168   0.276E+00    0.148E+00
DAV:  12    -0.102442344819E+03   -0.88326E-02   -0.86338E-02  8912   0.640E-01    0.492E-01
DAV:  13    -0.102438465090E+03    0.38797E-02   -0.82325E-03  8472   0.233E-01    0.705E-01
DAV:  14    -0.102438534384E+03   -0.69295E-04   -0.17554E-03  8664   0.105E-01    0.511E-01
DAV:  15    -0.102437772793E+03    0.76159E-03   -0.61784E-03  8192   0.240E-01    0.445E-01
DAV:  16    -0.102437966826E+03   -0.19403E-03   -0.15142E-03  9016   0.815E-02    0.440E-01
DAV:  17    -0.102437971870E+03   -0.50441E-05   -0.14374E-04  8544   0.310E-02    0.434E-01
DAV:  18    -0.102437960020E+03    0.11850E-04   -0.21677E-05  7768   0.109E-02    0.447E-01
DAV:  19    -0.102437782972E+03    0.17705E-03   -0.21074E-04  8208   0.368E-02    0.377E-01
DAV:  20    -0.102437739342E+03    0.43630E-04   -0.10876E-04  8208   0.207E-02    0.344E-01
DAV:  21    -0.102437729458E+03    0.98845E-05   -0.83460E-06  8520   0.686E-03    0.335E-01
DAV:  22    -0.102437725484E+03    0.39735E-05   -0.12792E-06  5368   0.325E-03    0.331E-01
DAV:  23    -0.102437707231E+03    0.18253E-04   -0.59080E-06  7368   0.755E-03    0.301E-01
DAV:  24    -0.102437697067E+03    0.10164E-04   -0.76681E-06  7960   0.638E-03    0.279E-01
DAV:  25    -0.102437695227E+03    0.18403E-05   -0.10767E-06  4712   0.328E-03    0.272E-01
DAV:  26    -0.102437692197E+03    0.30300E-05   -0.63630E-07  5040   0.240E-03    0.265E-01
DAV:  27    -0.102437681805E+03    0.10392E-04   -0.40673E-06  7176   0.407E-03    0.231E-01
DAV:  28    -0.102437674868E+03    0.69362E-05   -0.27133E-06  6944   0.382E-03    0.201E-01
DAV:  29    -0.102437668742E+03    0.61263E-05   -0.26465E-06  6536   0.372E-03    0.172E-01
DAV:  30    -0.102437664830E+03    0.39118E-05   -0.14667E-06  5928   0.290E-03    0.148E-01
DAV:  31    -0.102437660624E+03    0.42060E-05   -0.30236E-06  6952   0.366E-03    0.114E-01
DAV:  32    -0.102437658991E+03    0.16329E-05   -0.86176E-07  4376   0.234E-03    0.872E-02
DAV:  33    -0.102437656571E+03    0.24204E-05   -0.47196E-06  7024   0.472E-03    0.402E-02
DAV:  34    -0.102437656283E+03    0.28805E-06   -0.12946E-06  5296   0.281E-03
   1 F= -.10754553E+03 E0= -.10754553E+03  d E =-.471172E-08
