
     Program PWSCF v.7.5 starts on 23Sep2026 at  0: 6:48 

     This program is part of the open-source Quantum ESPRESSO suite
     for quantum simulation of materials; please cite
         "P. Giannozzi et al., J. Phys.:Condens. Matter 21 395502 (2009);
         "P. Giannozzi et al., J. Phys.:Condens. Matter 29 465901 (2017);
         "P. Giannozzi et al., J. Chem. Phys. 152 154105 (2020);
          URL http://www.quantum-espresso.org", 
     in publications or presentations arising from this work. More details at
     http://www.quantum-espresso.org/quote

     Parallel version (MPI), running on     8 processors

     MPI processes distributed on     1 nodes
     2844 MiB available memory on the printing compute node when the environment starts
 
     Reading input from mos2.scf.in

     Current dimensions of program PWSCF are:
     Max number of different atomic species (ntypx) = 10
     Max number of k-points (npk) =  40000
     Max angular momentum in pseudopotentials (lmaxx) =  4
     file Mo.pbe-spn-rrkjus_psl.1.0.0.UPF: wavefunction(s)  4S renormalized
     Message from routine setup:
     using ibrav=0 with symmetry is DISCOURAGED, use correct ibrav instead
 
     R & G space division:  proc/nbgrp/npool/nimage =       8
     Subspace diagonalization in iterative solution of the eigenvalue problem:
     a serial algorithm will be used

 
     Parallelization info
     --------------------
     sticks:   dense  smooth     PW     G-vecs:    dense   smooth      PW
     Min         148      74     21                30300    10722    1713
     Max         149      76     23                30307    10730    1735
     Sum        1189     595    175               242429    85799   13775
 
     Using Slab Decomposition
 


     bravais-lattice index     =            0
     lattice parameter (alat)  =       5.9844  a.u.
     unit-cell volume          =    1365.9981 (a.u.)^3
     number of atoms/cell      =            3
     number of atomic types    =            2
     number of electrons       =        26.00
     number of Kohn-Sham states=           16
     kinetic-energy cutoff     =      60.0000  Ry
     charge density cutoff     =     480.0000  Ry
     scf convergence threshold =      1.0E-12
     mixing beta               =       0.3000
     number of iterations used =            8  plain     mixing
     Exchange-correlation= PBE
                           (   1   4   3   4   0   0   0)

     celldm(1)=   5.984412  celldm(2)=   0.000000  celldm(3)=   0.000000
     celldm(4)=   0.000000  celldm(5)=   0.000000  celldm(6)=   0.000000

     crystal axes: (cart. coord. in units of alat)
               a(1) = (   1.000000   0.000000   0.000000 )  
               a(2) = (  -0.500000   0.870377   0.000000 )  
               a(3) = (   0.000000   0.000000   7.322816 )  

     reciprocal axes: (cart. coord. in units 2 pi/alat)
               b(1) = (  1.000000  0.574464  0.000000 )  
               b(2) = (  0.000000  1.148927  0.000000 )  
               b(3) = (  0.000000  0.000000  0.136559 )  


     PseudoPot. # 1 for Mo read from file:
     ../pseudo/Mo.pbe-spn-rrkjus_psl.1.0.0.UPF
     MD5 check sum: 03f09b12e49601d1a456a78ce8b2d514
     Pseudo is Ultrasoft + core correction, Zval = 14.0
     Generated using &quot;atomic&quot; code by A. Dal Corso  v.6.3
     Using radial grid of 1229 points,  6 beta functions with: 
                l(1) =   0
                l(2) =   0
                l(3) =   1
                l(4) =   1
                l(5) =   2
                l(6) =   2
     Q(r) pseudized with 0 coefficients 


     PseudoPot. # 2 for S  read from file:
     ../pseudo/S.pbe-n-rrkjus_psl.1.0.0.UPF
     MD5 check sum: 9d0fe39aa2a799ea84730884c9b010f4
     Pseudo is Ultrasoft + core correction, Zval =  6.0
     Generated using &quot;atomic&quot; code by A. Dal Corso  v.6.3
     Using radial grid of 1151 points,  6 beta functions with: 
                l(1) =   0
                l(2) =   0
                l(3) =   1
                l(4) =   1
                l(5) =   2
                l(6) =   2
     Q(r) pseudized with 0 coefficients 


     atomic species   valence    mass     pseudopotential
     Mo               14.00    95.95000     Mo( 1.00)
     S                 6.00    32.06000     S ( 1.00)

      4 Sym. Ops. (no inversion) found


                                    s                        frac. trans.

      isym =  1     identity                                     

 cryst.   s( 1) = (     1          0          0      )
                  (     0          1          0      )
                  (     0          0          1      )

 cart.    s( 1) = (  1.0000000  0.0000000  0.0000000 )
                  (  0.0000000  1.0000000  0.0000000 )
                  (  0.0000000  0.0000000  1.0000000 )


      isym =  2     180 deg rotation - cart. axis [0,1,0]        

 cryst.   s( 2) = (    -1          0          0      )
                  (     1          1          0      )
                  (     0          0         -1      )

 cart.    s( 2) = ( -1.0000000 -0.0000000  0.0000000 )
                  (  0.0000000  1.0000000  0.0000000 )
                  (  0.0000000  0.0000000 -1.0000000 )


      isym =  3     inv. 180 deg rotation - cart. axis [0,0,1]   

 cryst.   s( 3) = (     1          0          0      )
                  (     0          1          0      )
                  (     0          0         -1      )

 cart.    s( 3) = (  1.0000000  0.0000000  0.0000000 )
                  (  0.0000000  1.0000000  0.0000000 )
                  (  0.0000000  0.0000000 -1.0000000 )


      isym =  4     inv. 180 deg rotation - cart. axis [1,0,0]   

 cryst.   s( 4) = (    -1          0          0      )
                  (     1          1          0      )
                  (     0          0          1      )

 cart.    s( 4) = ( -1.0000000 -0.0000000  0.0000000 )
                  (  0.0000000  1.0000000  0.0000000 )
                  (  0.0000000  0.0000000  1.0000000 )


   Cartesian axes

     site n.     atom                  positions (alat units)
         1        Mo     tau(   1) = (  -0.0000000  -0.0003263   3.6614082  )
         2        S      tau(   2) = (   0.5000000   0.2902889   4.1564040  )
         3        S      tau(   3) = (   0.5000000   0.2902889   3.1664124  )

   Crystallographic axes

     site n.     atom                  positions (cryst. coord.)
         1        Mo     tau(   1) = ( -0.0001874 -0.0003749  0.5000000  )
         2        S      tau(   2) = (  0.6667604  0.3335208  0.5675964  )
         3        S      tau(   3) = (  0.6667604  0.3335208  0.4324036  )

     number of k points=    43
                       cart. coord. in units 2pi/alat
        k(    1) = (   0.0000000   0.0000000   0.0000000), wk =   0.0138889
        k(    2) = (   0.0000000   0.0957439   0.0000000), wk =   0.0277778
        k(    3) = (   0.0000000   0.1914878   0.0000000), wk =   0.0277778
        k(    4) = (   0.0000000   0.2872318   0.0000000), wk =   0.0277778
        k(    5) = (   0.0000000   0.3829757   0.0000000), wk =   0.0277778
        k(    6) = (   0.0000000   0.4787196   0.0000000), wk =   0.0277778
        k(    7) = (   0.0000000  -0.5744635   0.0000000), wk =   0.0138889
        k(    8) = (   0.0833333   0.0478720   0.0000000), wk =   0.0555556
        k(    9) = (   0.0833333   0.1436159   0.0000000), wk =   0.0555556
        k(   10) = (   0.0833333   0.2393598   0.0000000), wk =   0.0555556
        k(   11) = (   0.0833333   0.3351037   0.0000000), wk =   0.0555556
        k(   12) = (   0.0833333   0.4308476   0.0000000), wk =   0.0555556
        k(   13) = (   0.0833333   0.5265916   0.0000000), wk =   0.0555556
        k(   14) = (   0.1666667   0.0957439   0.0000000), wk =   0.0555556
        k(   15) = (   0.1666667   0.1914878   0.0000000), wk =   0.0555556
        k(   16) = (   0.1666667   0.2872318   0.0000000), wk =   0.0555556
        k(   17) = (   0.1666667   0.3829757   0.0000000), wk =   0.0555556
        k(   18) = (   0.1666667   0.4787196   0.0000000), wk =   0.0555556
        k(   19) = (   0.1666667   0.5744635   0.0000000), wk =   0.0277778
        k(   20) = (   0.1666667   0.0000000   0.0000000), wk =   0.0277778
        k(   21) = (   0.2500000   0.1436159   0.0000000), wk =   0.0555556
        k(   22) = (   0.2500000   0.2393598   0.0000000), wk =   0.0555556
        k(   23) = (   0.2500000   0.3351037   0.0000000), wk =   0.0555556
        k(   24) = (   0.2500000   0.4308476   0.0000000), wk =   0.0555556
        k(   25) = (   0.2500000   0.5265916   0.0000000), wk =   0.0555556
        k(   26) = (   0.2500000  -0.0478720   0.0000000), wk =   0.0555556
        k(   27) = (   0.3333333   0.1914878   0.0000000), wk =   0.0555556
        k(   28) = (   0.3333333   0.2872318   0.0000000), wk =   0.0555556
        k(   29) = (   0.3333333   0.3829757   0.0000000), wk =   0.0555556
        k(   30) = (   0.3333333   0.4787196   0.0000000), wk =   0.0555556
        k(   31) = (   0.3333333   0.5744635   0.0000000), wk =   0.0277778
        k(   32) = (   0.3333333  -0.0957439   0.0000000), wk =   0.0555556
        k(   33) = (   0.3333333   0.0000000   0.0000000), wk =   0.0277778
        k(   34) = (   0.4166667   0.2393598   0.0000000), wk =   0.0555556
        k(   35) = (   0.4166667   0.3351037   0.0000000), wk =   0.0555556
        k(   36) = (   0.4166667   0.4308476   0.0000000), wk =   0.0555556
        k(   37) = (   0.4166667   0.5265916   0.0000000), wk =   0.0555556
        k(   38) = (   0.4166667  -0.1436159   0.0000000), wk =   0.0555556
        k(   39) = (   0.4166667  -0.0478720   0.0000000), wk =   0.0555556
        k(   40) = (  -0.5000000  -0.2872318   0.0000000), wk =   0.0277778
        k(   41) = (  -0.5000000  -0.1914878   0.0000000), wk =   0.0555556
        k(   42) = (  -0.5000000  -0.0957439   0.0000000), wk =   0.0555556
        k(   43) = (  -0.5000000  -0.0000000   0.0000000), wk =   0.0277778

                       cryst. coord.
        k(    1) = (   0.0000000   0.0000000   0.0000000), wk =   0.0138889
        k(    2) = (   0.0000000   0.0833333   0.0000000), wk =   0.0277778
        k(    3) = (   0.0000000   0.1666667   0.0000000), wk =   0.0277778
        k(    4) = (   0.0000000   0.2500000   0.0000000), wk =   0.0277778
        k(    5) = (   0.0000000   0.3333333   0.0000000), wk =   0.0277778
        k(    6) = (   0.0000000   0.4166667   0.0000000), wk =   0.0277778
        k(    7) = (   0.0000000  -0.5000000   0.0000000), wk =   0.0138889
        k(    8) = (   0.0833333  -0.0000000   0.0000000), wk =   0.0555556
        k(    9) = (   0.0833333   0.0833333   0.0000000), wk =   0.0555556
        k(   10) = (   0.0833333   0.1666667   0.0000000), wk =   0.0555556
        k(   11) = (   0.0833333   0.2500000   0.0000000), wk =   0.0555556
        k(   12) = (   0.0833333   0.3333333   0.0000000), wk =   0.0555556
        k(   13) = (   0.0833333   0.4166667   0.0000000), wk =   0.0555556
        k(   14) = (   0.1666667  -0.0000000   0.0000000), wk =   0.0555556
        k(   15) = (   0.1666667   0.0833333   0.0000000), wk =   0.0555556
        k(   16) = (   0.1666667   0.1666667   0.0000000), wk =   0.0555556
        k(   17) = (   0.1666667   0.2500000   0.0000000), wk =   0.0555556
        k(   18) = (   0.1666667   0.3333333   0.0000000), wk =   0.0555556
        k(   19) = (   0.1666667   0.4166667   0.0000000), wk =   0.0277778
        k(   20) = (   0.1666667  -0.0833333   0.0000000), wk =   0.0277778
        k(   21) = (   0.2500000   0.0000000   0.0000000), wk =   0.0555556
        k(   22) = (   0.2500000   0.0833333   0.0000000), wk =   0.0555556
        k(   23) = (   0.2500000   0.1666667   0.0000000), wk =   0.0555556
        k(   24) = (   0.2500000   0.2500000   0.0000000), wk =   0.0555556
        k(   25) = (   0.2500000   0.3333333   0.0000000), wk =   0.0555556
        k(   26) = (   0.2500000  -0.1666667   0.0000000), wk =   0.0555556
        k(   27) = (   0.3333333  -0.0000000   0.0000000), wk =   0.0555556
        k(   28) = (   0.3333333   0.0833333   0.0000000), wk =   0.0555556
        k(   29) = (   0.3333333   0.1666667   0.0000000), wk =   0.0555556
        k(   30) = (   0.3333333   0.2500000   0.0000000), wk =   0.0555556
        k(   31) = (   0.3333333   0.3333333   0.0000000), wk =   0.0277778
        k(   32) = (   0.3333333  -0.2500000   0.0000000), wk =   0.0555556
        k(   33) = (   0.3333333  -0.1666667   0.0000000), wk =   0.0277778
        k(   34) = (   0.4166667   0.0000000   0.0000000), wk =   0.0555556
        k(   35) = (   0.4166667   0.0833333   0.0000000), wk =   0.0555556
        k(   36) = (   0.4166667   0.1666667   0.0000000), wk =   0.0555556
        k(   37) = (   0.4166667   0.2500000   0.0000000), wk =   0.0555556
        k(   38) = (   0.4166667  -0.3333333   0.0000000), wk =   0.0555556
        k(   39) = (   0.4166667  -0.2500000   0.0000000), wk =   0.0555556
        k(   40) = (  -0.5000000   0.0000000   0.0000000), wk =   0.0277778
        k(   41) = (  -0.5000000   0.0833333   0.0000000), wk =   0.0555556
        k(   42) = (  -0.5000000   0.1666667   0.0000000), wk =   0.0555556
        k(   43) = (  -0.5000000   0.2500000   0.0000000), wk =   0.0277778

     Dense  grid:   242429 G-vectors     FFT dimensions: (  45,  45, 320)

     Smooth grid:    85799 G-vectors     FFT dimensions: (  30,  30, 225)

     Dynamical RAM for                 wfc:       0.33 MB

     Dynamical RAM for     wfc (w. buffer):      14.39 MB

     Dynamical RAM for           str. fact:       0.92 MB

     Dynamical RAM for           local pot:       0.00 MB

     Dynamical RAM for          nlocal pot:       1.10 MB

     Dynamical RAM for                qrad:       3.52 MB

     Dynamical RAM for          rho,v,vnew:       3.24 MB

     Dynamical RAM for               rhoin:       1.08 MB

     Dynamical RAM for            rho*nmix:       7.40 MB

     Dynamical RAM for           G-vectors:       1.82 MB

     Dynamical RAM for          h,s,v(r/c):       0.01 MB

     Dynamical RAM for          <psi|beta>:       0.01 MB

     Dynamical RAM for      wfcinit/wfcrot:       0.66 MB

     Dynamical RAM for           addusdens:      86.93 MB

     Dynamical RAM for          addusforce:      88.10 MB

     Dynamical RAM for         addusstress:      92.94 MB

     Estimated static dynamical RAM per process >      30.55 MB

     Estimated max dynamical RAM per process >     130.89 MB

     Estimated total dynamical RAM >       1.02 GB

     The initial density is read from file :
     ./tmp/mos2.save/charge-density


     negative rho (up, down):  3.855E-04 0.000E+00
     Starting wfcs from file

     total cpu time spent up to now is        1.3 secs

     Self-consistent Calculation

     iteration #  1     ecut=    60.00 Ry     beta= 0.30
     CG style diagonalization

---- Real-time Memory Report at c_bands before calling an iterative solver
           163 MiB given to the printing process from OS
             0 MiB allocation reported by mallinfo(arena+hblkhd)
          2217 MiB available memory on the node where the printing process lives
------------------
     ethr =  1.00E-10,  avg # of iterations =  2.0

     Threshold (ethr) on eigenvalues was too large:
     Diagonalizing with lowered threshold

     CG style diagonalization

---- Real-time Memory Report at c_bands before calling an iterative solver
           183 MiB given to the printing process from OS
             0 MiB allocation reported by mallinfo(arena+hblkhd)
          2630 MiB available memory on the node where the printing process lives
------------------
     ethr =  1.00E-13,  avg # of iterations =  2.0

     negative rho (up, down):  3.855E-04 0.000E+00

     total cpu time spent up to now is       10.8 secs

     End of self-consistent calculation

          k = 0.0000 0.0000 0.0000 ( 10807 PWs)   bands (ev):

   -62.5015 -36.6482 -36.4362 -36.4282 -15.7217 -14.4288  -7.2438  -4.2323
    -4.1783  -3.4280  -3.1135  -3.0813  -1.6631   1.1425   1.1701   1.3679

     occupation numbers 
     1.0000   1.0000   1.0000   1.0000   1.0000   1.0000   1.0000   1.0000
     1.0000   1.0000   1.0000   1.0000   1.0000   0.0000   0.0000   0.0000

          k = 0.0000 0.0957 0.0000 ( 10803 PWs)   bands (ev):

   -62.4989 -36.6432 -36.4621 -36.4340 -15.6191 -14.3863  -7.1261  -4.4598
    -4.0711  -3.9024  -3.2436  -2.8008  -1.7131   1.0119   1.0863   1.2975

     occupation numbers 
     1.0000   1.0000   1.0000   1.0000   1.0000   1.0000   1.0000   1.0000
     1.0000   1.0000   1.0000   1.0000   1.0000   0.0000   0.0000   0.0000

          k = 0.0000 0.1915 0.0000 ( 10775 PWs)   bands (ev):

   -62.4919 -36.6294 -36.5322 -36.4497 -15.3272 -14.2657  -6.8294  -4.9851
    -4.5486  -3.7719  -3.6263  -2.7199  -1.9429   0.6491   0.9631   1.0298

     occupation numbers 
     1.0000   1.0000   1.0000   1.0000   1.0000   1.0000   1.0000   1.0000
     1.0000   1.0000   1.0000   1.0000   1.0000   0.0000   0.0000   0.0000

          k = 0.0000 0.2872 0.0000 ( 10735 PWs)   bands (ev):

   -62.4824 -36.6267 -36.6105 -36.4712 -14.8950 -14.0887  -6.6125  -5.4406
    -5.2068  -4.0559  -3.3522  -2.9704  -2.3688   0.5252   0.7628   1.2891

     occupation numbers 
     1.0000   1.0000   1.0000   1.0000   1.0000   1.0000   1.0000   1.0000
     1.0000   1.0000   1.0000   1.0000   1.0000   0.0000   0.0000   0.0000

          k = 0.0000 0.3830 0.0000 ( 10739 PWs)   bands (ev):

   -62.4729 -36.7198 -36.5915 -36.4926 -14.4097 -13.8942  -6.8594  -5.8138
    -5.5354  -4.4176  -3.2745  -2.9317  -2.6132   0.6181   0.7023   1.7783

     occupation numbers 
     1.0000   1.0000   1.0000   1.0000   1.0000   1.0000   1.0000   1.0000
     1.0000   1.0000   1.0000   1.0000   1.0000   0.0000   0.0000   0.0000

          k = 0.0000 0.4787 0.0000 ( 10677 PWs)   bands (ev):

   -62.4658 -36.7872 -36.5775 -36.5082 -14.0055 -13.7380  -7.2437  -6.2569
    -5.6245  -4.6525  -3.4689  -2.6396  -2.4442   0.6160   0.9859   2.1404

     occupation numbers 
     1.0000   1.0000   1.0000   1.0000   1.0000   1.0000   1.0000   1.0000
     1.0000   1.0000   1.0000   1.0000   1.0000   0.0000   0.0000   0.0000

          k = 0.0000-0.5745 0.0000 ( 10676 PWs)   bands (ev):

   -62.4632 -36.8117 -36.5724 -36.5139 -13.8433 -13.6773  -7.4083  -6.4207
    -5.6955  -4.7335  -3.5317  -2.5401  -2.2800   0.6448   1.1451   2.2577

     occupation numbers 
     1.0000   1.0000   1.0000   1.0000   1.0000   1.0000   1.0000   1.0000
     1.0000   1.0000   1.0000   1.0000   1.0000   0.0000   0.0000   0.0000

          k = 0.0833 0.0479 0.0000 ( 10799 PWs)   bands (ev):

   -62.4988 -36.6431 -36.4570 -36.4396 -15.6182 -14.3854  -7.1253  -4.4258
    -4.1093  -3.8918  -3.2715  -2.7858  -1.7106   1.0249   1.1164   1.2645

     occupation numbers 
     1.0000   1.0000   1.0000   1.0000   1.0000   1.0000   1.0000   1.0000
     1.0000   1.0000   1.0000   1.0000   1.0000   0.0000   0.0000   0.0000

          k = 0.0833 0.1436 0.0000 ( 10757 PWs)   bands (ev):

   -62.4940 -36.6337 -36.5068 -36.4485 -15.4208 -14.3037  -6.9146  -4.8174
    -4.3246  -3.8912  -3.6411  -2.6061  -1.8504   0.7593   0.8814   1.0761

     occupation numbers 
     1.0000   1.0000   1.0000   1.0000   1.0000   1.0000   1.0000   1.0000
     1.0000   1.0000   1.0000   1.0000   1.0000   0.0000   0.0000   0.0000

          k = 0.0833 0.2394 0.0000 ( 10739 PWs)   bands (ev):

   -62.4858 -36.6173 -36.5868 -36.4695 -15.0578 -14.1537  -6.6265  -5.2984
    -4.8729  -4.1798  -3.5759  -2.6407  -2.1894   0.4641   0.8572   0.9595

     occupation numbers 
     1.0000   1.0000   1.0000   1.0000   1.0000   1.0000   1.0000   1.0000
     1.0000   1.0000   1.0000   1.0000   1.0000   0.0000   0.0000   0.0000

          k = 0.0833 0.3351 0.0000 ( 10731 PWs)   bands (ev):

   -62.4763 -36.6770 -36.5984 -36.4945 -14.5955 -13.9648  -6.6479  -5.5226
    -5.4870  -4.5397  -3.3365  -2.9383  -2.4758   0.4151   0.8055   1.3564

     occupation numbers 
     1.0000   1.0000   1.0000   1.0000   1.0000   1.0000   1.0000   1.0000
     1.0000   1.0000   1.0000   1.0000   1.0000   0.0000   0.0000   0.0000

          k = 0.0833 0.4308 0.0000 ( 10715 PWs)   bands (ev):

   -62.4680 -36.7540 -36.5819 -36.5163 -14.1425 -13.7840  -6.9981  -6.1094
    -5.5187  -4.7034  -3.2745  -3.2231  -2.3615   0.5623   0.9153   1.8382

     occupation numbers 
     1.0000   1.0000   1.0000   1.0000   1.0000   1.0000   1.0000   1.0000
     1.0000   1.0000   1.0000   1.0000   1.0000   0.0000   0.0000   0.0000

          k = 0.0833 0.5266 0.0000 ( 10678 PWs)   bands (ev):

   -62.4632 -36.7979 -36.5724 -36.5289 -13.8495 -13.6706  -7.2673  -6.4512
    -5.6372  -4.7546  -3.4842  -3.0920  -2.1259   0.6521   1.1428   2.2331

     occupation numbers 
     1.0000   1.0000   1.0000   1.0000   1.0000   1.0000   1.0000   1.0000
     1.0000   1.0000   1.0000   1.0000   1.0000   0.0000   0.0000   0.0000

          k = 0.1667 0.0957 0.0000 ( 10746 PWs)   bands (ev):

   -62.4916 -36.6291 -36.5275 -36.4565 -15.3237 -14.2620  -6.8268  -4.9587
    -4.5346  -3.8093  -3.6617  -2.7083  -1.9330   0.6724   0.9647   0.9939

     occupation numbers 
     1.0000   1.0000   1.0000   1.0000   1.0000   1.0000   1.0000   1.0000
     1.0000   1.0000   1.0000   1.0000   1.0000   0.0000   0.0000   0.0000

          k = 0.1667 0.1915 0.0000 ( 10754 PWs)   bands (ev):

   -62.4856 -36.6171 -36.5845 -36.4733 -15.0552 -14.1509  -6.6256  -5.2842
    -4.8594  -4.2038  -3.5959  -2.6393  -2.1815   0.4687   0.8410   0.9624

     occupation numbers 
     1.0000   1.0000   1.0000   1.0000   1.0000   1.0000   1.0000   1.0000
     1.0000   1.0000   1.0000   1.0000   1.0000   0.0000   0.0000   0.0000

          k = 0.1667 0.2872 0.0000 ( 10755 PWs)   bands (ev):

   -62.4774 -36.6537 -36.6007 -36.5043 -14.6595 -13.9864  -6.5425  -5.4361
    -5.2860  -4.8040  -3.5748  -2.6782  -2.4080   0.2998   0.8545   1.0660

     occupation numbers 
     1.0000   1.0000   1.0000   1.0000   1.0000   1.0000   1.0000   1.0000
     1.0000   1.0000   1.0000   1.0000   1.0000   0.0000   0.0000   0.0000

          k = 0.1667 0.3830 0.0000 ( 10727 PWs)   bands (ev):

   -62.4692 -36.7185 -36.5842 -36.5388 -14.2202 -13.8040  -6.7316  -5.9811
    -5.3507  -4.9059  -3.8489  -2.9825  -2.3558   0.4510   0.9458   1.3864

     occupation numbers 
     1.0000   1.0000   1.0000   1.0000   1.0000   1.0000   1.0000   1.0000
     1.0000   1.0000   1.0000   1.0000   1.0000   0.0000   0.0000   0.0000

          k = 0.1667 0.4787 0.0000 ( 10694 PWs)   bands (ev):

   -62.4631 -36.7643 -36.5722 -36.5653 -13.8610 -13.6559  -6.9357  -6.5086
    -5.4568  -4.8183  -3.9659  -3.3555  -2.1109   0.5981   1.1793   1.7198

     occupation numbers 
     1.0000   1.0000   1.0000   1.0000   1.0000   1.0000   1.0000   1.0000
     1.0000   1.0000   1.0000   1.0000   1.0000   0.0000   0.0000   0.0000

          k = 0.1667 0.5745 0.0000 ( 10672 PWs)   bands (ev):

   -62.4608 -36.7808 -36.5751 -36.5677 -13.7193 -13.5980  -7.0121  -6.7001
    -5.5752  -4.7429  -3.9591  -3.5360  -1.9382   0.5303   1.4225   1.8657

     occupation numbers 
     1.0000   1.0000   1.0000   1.0000   1.0000   1.0000   1.0000   1.0000
     1.0000   1.0000   1.0000   1.0000   1.0000   0.0000   0.0000   0.0000

          k = 0.1667 0.0000 0.0000 ( 10757 PWs)   bands (ev):

   -62.4939 -36.6334 -36.5027 -36.4541 -15.4182 -14.3011  -6.9123  -4.7958
    -4.3193  -3.9217  -3.6561  -2.6011  -1.8450   0.7756   0.8718   1.0570

     occupation numbers 
     1.0000   1.0000   1.0000   1.0000   1.0000   1.0000   1.0000   1.0000
     1.0000   1.0000   1.0000   1.0000   1.0000   0.0000   0.0000   0.0000

          k = 0.2500 0.1436 0.0000 ( 10740 PWs)   bands (ev):

   -62.4819 -36.6232 -36.6098 -36.4788 -14.8876 -14.0806  -6.6107  -5.4164
    -5.1950  -4.0985  -3.3886  -2.9616  -2.3536   0.5377   0.7302   1.2852

     occupation numbers 
     1.0000   1.0000   1.0000   1.0000   1.0000   1.0000   1.0000   1.0000
     1.0000   1.0000   1.0000   1.0000   1.0000   0.0000   0.0000   0.0000

          k = 0.2500 0.2394 0.0000 ( 10745 PWs)   bands (ev):

   -62.4759 -36.6743 -36.5978 -36.5007 -14.5891 -13.9573  -6.6463  -5.5124
    -5.4656  -4.5712  -3.3666  -2.9385  -2.4645   0.4093   0.7940   1.3585

     occupation numbers 
     1.0000   1.0000   1.0000   1.0000   1.0000   1.0000   1.0000   1.0000
     1.0000   1.0000   1.0000   1.0000   1.0000   0.0000   0.0000   0.0000

          k = 0.2500 0.3351 0.0000 ( 10724 PWs)   bands (ev):

   -62.4689 -36.7171 -36.5839 -36.5423 -14.2164 -13.7993  -6.7293  -5.9806
    -5.3386  -4.9172  -3.8660  -2.9838  -2.3519   0.4498   0.9417   1.3854

     occupation numbers 
     1.0000   1.0000   1.0000   1.0000   1.0000   1.0000   1.0000   1.0000
     1.0000   1.0000   1.0000   1.0000   1.0000   0.0000   0.0000   0.0000

          k = 0.2500 0.4308 0.0000 ( 10709 PWs)   bands (ev):

   -62.4629 -36.7408 -36.5914 -36.5719 -13.8641 -13.6454  -6.7324  -6.5380
    -5.2236  -4.8614  -4.5403  -3.2763  -2.1272   0.5548   1.2054   1.4689

     occupation numbers 
     1.0000   1.0000   1.0000   1.0000   1.0000   1.0000   1.0000   1.0000
     1.0000   1.0000   1.0000   1.0000   1.0000   0.0000   0.0000   0.0000

          k = 0.2500 0.5266 0.0000 ( 10668 PWs)   bands (ev):

   -62.4593 -36.7465 -36.6278 -36.5649 -13.6456 -13.5473  -6.8817  -6.6112
    -5.4446  -4.8256  -4.6617  -3.6122  -1.8227   0.3122   1.5102   1.6625

     occupation numbers 
     1.0000   1.0000   1.0000   1.0000   1.0000   1.0000   1.0000   1.0000
     1.0000   1.0000   1.0000   1.0000   1.0000   0.0000   0.0000   0.0000

          k = 0.2500-0.0479 0.0000 ( 10743 PWs)   bands (ev):

   -62.4854 -36.6168 -36.5838 -36.4760 -15.0513 -14.1471  -6.6234  -5.2832
    -4.8655  -4.2050  -3.6013  -2.6365  -2.1820   0.4678   0.8467   0.9383

     occupation numbers 
     1.0000   1.0000   1.0000   1.0000   1.0000   1.0000   1.0000   1.0000
     1.0000   1.0000   1.0000   1.0000   1.0000   0.0000   0.0000   0.0000

          k = 0.3333 0.1915 0.0000 ( 10729 PWs)   bands (ev):

   -62.4722 -36.7176 -36.5905 -36.5009 -14.3979 -13.8808  -6.8570  -5.8098
    -5.5141  -4.4659  -3.2636  -2.9710  -2.5961   0.5964   0.7101   1.7706

     occupation numbers 
     1.0000   1.0000   1.0000   1.0000   1.0000   1.0000   1.0000   1.0000
     1.0000   1.0000   1.0000   1.0000   1.0000   0.0000   0.0000   0.0000

          k = 0.3333 0.2872 0.0000 ( 10705 PWs)   bands (ev):

   -62.4674 -36.7518 -36.5810 -36.5239 -14.1317 -13.7709  -6.9920  -6.1103
    -5.5030  -4.7378  -3.2709  -3.2535  -2.3519   0.5589   0.9089   1.8355

     occupation numbers 
     1.0000   1.0000   1.0000   1.0000   1.0000   1.0000   1.0000   1.0000
     1.0000   1.0000   1.0000   1.0000   1.0000   0.0000   0.0000   0.0000

          k = 0.3333 0.3830 0.0000 ( 10690 PWs)   bands (ev):

   -62.4626 -36.7626 -36.5715 -36.5710 -13.8527 -13.6458  -6.9297  -6.5155
    -5.4468  -4.8359  -3.9913  -3.3529  -2.1013   0.6006   1.1781   1.7150

     occupation numbers 
     1.0000   1.0000   1.0000   1.0000   1.0000   1.0000   1.0000   1.0000
     1.0000   1.0000   1.0000   1.0000   1.0000   0.0000   0.0000   0.0000

          k = 0.3333 0.4787 0.0000 ( 10665 PWs)   bands (ev):

   -62.4591 -36.7453 -36.6309 -36.5646 -13.6410 -13.5420  -6.8872  -6.6092
    -5.4375  -4.8402  -4.6701  -3.6083  -1.8188   0.3151   1.5082   1.6682

     occupation numbers 
     1.0000   1.0000   1.0000   1.0000   1.0000   1.0000   1.0000   1.0000
     1.0000   1.0000   1.0000   1.0000   1.0000   0.0000   0.0000   0.0000

          k = 0.3333 0.5745 0.0000 ( 10664 PWs)   bands (ev):

   -62.4578 -36.7175 -36.6744 -36.5620 -13.5622 -13.5010  -7.0332  -6.2186
    -5.6965  -5.1721  -4.5118  -3.7967  -1.6328   0.0821   1.4112   1.9227

     occupation numbers 
     1.0000   1.0000   1.0000   1.0000   1.0000   1.0000   1.0000   1.0000
     1.0000   1.0000   1.0000   1.0000   1.0000   0.0000   0.0000   0.0000

          k = 0.3333-0.0957 0.0000 ( 10746 PWs)   bands (ev):

   -62.4757 -36.6753 -36.5975 -36.5017 -14.5845 -13.9532  -6.6495  -5.5200
    -5.4697  -4.5734  -3.3492  -2.9324  -2.4807   0.4039   0.8150   1.3318

     occupation numbers 
     1.0000   1.0000   1.0000   1.0000   1.0000   1.0000   1.0000   1.0000
     1.0000   1.0000   1.0000   1.0000   1.0000   0.0000   0.0000   0.0000

          k = 0.3333 0.0000 0.0000 ( 10743 PWs)   bands (ev):

   -62.4769 -36.6537 -36.6000 -36.5082 -14.6510 -13.9782  -6.5451  -5.4352
    -5.2947  -4.8131  -3.5657  -2.6729  -2.4217   0.2950   0.8727   1.0362

     occupation numbers 
     1.0000   1.0000   1.0000   1.0000   1.0000   1.0000   1.0000   1.0000
     1.0000   1.0000   1.0000   1.0000   1.0000   0.0000   0.0000   0.0000

          k = 0.4167 0.2394 0.0000 ( 10689 PWs)   bands (ev):

   -62.4650 -36.7858 -36.5763 -36.5171 -13.9900 -13.7198  -7.2375  -6.2615
    -5.6135  -4.7043  -3.4533  -2.6844  -2.4217   0.6106   0.9936   2.1276

     occupation numbers 
     1.0000   1.0000   1.0000   1.0000   1.0000   1.0000   1.0000   1.0000
     1.0000   1.0000   1.0000   1.0000   1.0000   0.0000   0.0000   0.0000

          k = 0.4167 0.3351 0.0000 ( 10682 PWs)   bands (ev):

   -62.4624 -36.7966 -36.5712 -36.5371 -13.8349 -13.6530  -7.2594  -6.4601
    -5.6307  -4.7951  -3.4724  -3.1230  -2.1138   0.6555   1.1468   2.2253

     occupation numbers 
     1.0000   1.0000   1.0000   1.0000   1.0000   1.0000   1.0000   1.0000
     1.0000   1.0000   1.0000   1.0000   1.0000   0.0000   0.0000   0.0000

          k = 0.4167 0.4308 0.0000 ( 10688 PWs)   bands (ev):

   -62.4602 -36.7798 -36.5816 -36.5669 -13.7069 -13.5838  -7.0088  -6.7124
    -5.5697  -4.7684  -3.9807  -3.5253  -1.9322   0.5381   1.4375   1.8574

     occupation numbers 
     1.0000   1.0000   1.0000   1.0000   1.0000   1.0000   1.0000   1.0000
     1.0000   1.0000   1.0000   1.0000   1.0000   0.0000   0.0000   0.0000

          k = 0.4167 0.5266 0.0000 ( 10683 PWs)   bands (ev):

   -62.4589 -36.7463 -36.6314 -36.5643 -13.6369 -13.5382  -6.8918  -6.6191
    -5.4371  -4.8313  -4.6765  -3.6025  -1.8295   0.3262   1.5060   1.6837

     occupation numbers 
     1.0000   1.0000   1.0000   1.0000   1.0000   1.0000   1.0000   1.0000
     1.0000   1.0000   1.0000   1.0000   1.0000   0.0000   0.0000   0.0000

          k = 0.4167-0.1436 0.0000 ( 10715 PWs)   bands (ev):

   -62.4672 -36.7530 -36.5808 -36.5241 -14.1277 -13.7677  -6.9992  -6.1150
    -5.5036  -4.7436  -3.2628  -3.2339  -2.3730   0.5514   0.9399   1.8123

     occupation numbers 
     1.0000   1.0000   1.0000   1.0000   1.0000   1.0000   1.0000   1.0000
     1.0000   1.0000   1.0000   1.0000   1.0000   0.0000   0.0000   0.0000

          k = 0.4167-0.0479 0.0000 ( 10735 PWs)   bands (ev):

   -62.4685 -36.7189 -36.5833 -36.5438 -14.2078 -13.7916  -6.7413  -5.9916
    -5.3423  -4.9246  -3.8400  -2.9749  -2.3764   0.4459   0.9800   1.3613

     occupation numbers 
     1.0000   1.0000   1.0000   1.0000   1.0000   1.0000   1.0000   1.0000
     1.0000   1.0000   1.0000   1.0000   1.0000   0.0000   0.0000   0.0000

          k =-0.5000-0.2872 0.0000 ( 10692 PWs)   bands (ev):

   -62.4624 -36.8106 -36.5711 -36.5230 -13.8263 -13.6572  -7.4002  -6.4290
    -5.6900  -4.7864  -3.5137  -2.5877  -2.2545   0.6475   1.1548   2.2421

     occupation numbers 
     1.0000   1.0000   1.0000   1.0000   1.0000   1.0000   1.0000   1.0000
     1.0000   1.0000   1.0000   1.0000   1.0000   0.0000   0.0000   0.0000

          k =-0.5000-0.1915 0.0000 ( 10692 PWs)   bands (ev):

   -62.4624 -36.7971 -36.5712 -36.5371 -13.8333 -13.6518  -7.2630  -6.4617
    -5.6301  -4.7983  -3.4685  -3.1153  -2.1244   0.6554   1.1611   2.2078

     occupation numbers 
     1.0000   1.0000   1.0000   1.0000   1.0000   1.0000   1.0000   1.0000
     1.0000   1.0000   1.0000   1.0000   1.0000   0.0000   0.0000   0.0000

          k =-0.5000-0.0957 0.0000 ( 10685 PWs)   bands (ev):

   -62.4624 -36.7642 -36.5713 -36.5712 -13.8470 -13.6410  -6.9417  -6.5219
    -5.4471  -4.8434  -3.9742  -3.3443  -2.1217   0.6052   1.2108   1.7033

     occupation numbers 
     1.0000   1.0000   1.0000   1.0000   1.0000   1.0000   1.0000   1.0000
     1.0000   1.0000   1.0000   1.0000   1.0000   0.0000   0.0000   0.0000

          k =-0.5000-0.0000 0.0000 ( 10711 PWs)   bands (ev):

   -62.4624 -36.7424 -36.5938 -36.5712 -13.8537 -13.6356  -6.7478  -6.5497
    -5.2257  -4.8738  -4.5213  -3.2670  -2.1478   0.5644   1.2424   1.4571

     occupation numbers 
     1.0000   1.0000   1.0000   1.0000   1.0000   1.0000   1.0000   1.0000
     1.0000   1.0000   1.0000   1.0000   1.0000   0.0000   0.0000   0.0000

     highest occupied, lowest unoccupied level (ev):    -1.6328    0.0821

!    total energy              =    -181.57951610 Ry
     estimated scf accuracy    <          9.8E-16 Ry

     The total energy is the sum of the following terms:
     one-electron contribution =   -1385.54366224 Ry
     hartree contribution      =     692.36719184 Ry
     xc contribution           =     -29.69535170 Ry
     ewald contribution        =     541.29230600 Ry

     convergence has been achieved in   1 iterations

     negative rho (up, down):  3.855E-04 0.000E+00

     Forces acting on atoms (cartesian axes, Ry/au):

     atom    1 type  1   force =     0.00000000    0.00000678    0.00000000
     atom    2 type  2   force =     0.00000000   -0.00000339    0.00000088
     atom    3 type  2   force =     0.00000000   -0.00000339   -0.00000088
     The non-local contrib.  to forces
     atom    1 type  1   force =     0.00000000   -0.00013725    0.00000000
     atom    2 type  2   force =     0.00000000   -0.00018113   -0.27275626
     atom    3 type  2   force =     0.00000000   -0.00018113    0.27275626
     The ionic contribution  to forces
     atom    1 type  1   force =     0.00000000   -0.04567890    0.00000000
     atom    2 type  2   force =    -0.00000000    0.02283945   37.43804228
     atom    3 type  2   force =    -0.00000000    0.02283945  -37.43804228
     The local contribution  to forces
     atom    1 type  1   force =     0.00000000    0.04584943    0.00000000
     atom    2 type  2   force =    -0.00000000   -0.02264075  -37.16773176
     atom    3 type  2   force =    -0.00000000   -0.02264075   37.16773176
     The core correction contribution to forces
     atom    1 type  1   force =    -0.00000000   -0.00002682   -0.00000000
     atom    2 type  2   force =     0.00000000   -0.00002124    0.00244659
     atom    3 type  2   force =     0.00000000   -0.00002124   -0.00244659
     The Hubbard contrib.    to forces
     atom    1 type  1   force =     0.00000000    0.00000000    0.00000000
     atom    2 type  2   force =     0.00000000    0.00000000    0.00000000
     atom    3 type  2   force =     0.00000000    0.00000000    0.00000000
     The SCF correction term to forces
     atom    1 type  1   force =    -0.00000000    0.00000002    0.00000000
     atom    2 type  2   force =    -0.00000000   -0.00000002    0.00000003
     atom    3 type  2   force =    -0.00000000   -0.00000002   -0.00000003

     Total force =     0.000008     Total SCF correction =     0.000000


     Computing stress (Cartesian axis) and pressure


     negative rho (up, down):  3.855E-04 0.000E+00
          total   stress  (Ry/bohr**3)                   (kbar)     P=        0.95
   0.00001987   0.00000000   0.00000000            2.92        0.00        0.00
   0.00000000   0.00000479   0.00000000            0.00        0.71        0.00
   0.00000000   0.00000000  -0.00000532            0.00        0.00       -0.78

     kinetic stress (kbar)   4898.11      0.00      0.00
                                0.00   4893.89      0.00
                                0.00      0.00   4938.69

     local   stress (kbar)-148384.74      0.00     -0.00
                                0.00-148360.03      0.00
                               -0.00      0.00 145356.94

     nonloc. stress (kbar)   2238.59      0.00      0.00
                                0.00   2239.16      0.00
                                0.00      0.00   2229.44

     hartree stress (kbar)  72774.34     -0.00      0.00
                               -0.00  72766.21     -0.00
                                0.00     -0.00 -70979.15

     exc-cor stress (kbar)   -415.74     -0.00      0.00
                               -0.00   -415.79      0.00
                                0.00      0.00   -416.88

     corecor stress (kbar)   -550.61      0.00      0.00
                                0.00   -550.60      0.00
                                0.00      0.00   -551.04

     ewald   stress (kbar)  69442.98     -0.00     -0.00
                               -0.00  69427.87      0.00
                               -0.00      0.00 -80578.79

     hubbard stress (kbar)      0.00      0.00      0.00
                                0.00      0.00      0.00
                                0.00      0.00      0.00

     DFT-D   stress (kbar)      0.00      0.00      0.00
                                0.00      0.00      0.00
                                0.00      0.00      0.00

     XDM     stress (kbar)      0.00      0.00      0.00
                                0.00      0.00      0.00
                                0.00      0.00      0.00

     dft-nl  stress (kbar)      0.00      0.00      0.00
                                0.00      0.00      0.00
                                0.00      0.00      0.00

     TS-vdW  stress (kbar)      0.00      0.00      0.00
                                0.00      0.00      0.00
                                0.00      0.00      0.00

     MDB     stress (kbar)      0.00      0.00      0.00
                                0.00      0.00      0.00
                                0.00      0.00      0.00

     3D-RISM stress (kbar)      0.00      0.00      0.00
                                0.00      0.00      0.00
                                0.00      0.00      0.00


     Writing all to output data dir ./tmp/mos2.save/ :
     XML data file, charge density, pseudopotentials, collected wavefunctions
 
     init_run     :      0.76s CPU      1.16s WALL (       1 calls)
     electrons    :      8.50s CPU      9.46s WALL (       1 calls)
     forces       :      1.28s CPU      1.56s WALL (       1 calls)
     stress       :      4.45s CPU      5.51s WALL (       1 calls)

     Called by init_run:
     wfcinit      :      0.07s CPU      0.11s WALL (       1 calls)
     potinit      :      0.13s CPU      0.16s WALL (       1 calls)
     hinit0       :      0.10s CPU      0.12s WALL (       1 calls)

     Called by electrons:
     c_bands      :      6.38s CPU      6.51s WALL (       2 calls)
     sum_band     :      1.62s CPU      2.14s WALL (       2 calls)
     v_of_rho     :      0.21s CPU      0.24s WALL (       2 calls)
     v_h          :      0.02s CPU      0.02s WALL (       2 calls)
     v_xc         :      0.39s CPU      0.42s WALL (       4 calls)
     newd         :      0.75s CPU      1.33s WALL (       2 calls)
     mix_rho      :      0.00s CPU      0.00s WALL (       2 calls)

     Called by c_bands:
     init_us_2    :      0.41s CPU      0.42s WALL (     258 calls)
     ccgdiagg     :      6.20s CPU      6.31s WALL (      86 calls)

     Called by sum_band:
     sum_band:wei :      0.00s CPU      0.00s WALL (       2 calls)
     sum_band:loo :      0.77s CPU      0.78s WALL (       2 calls)
     sum_band:buf :      0.03s CPU      0.03s WALL (      86 calls)
     sum_band:ini :      0.12s CPU      0.12s WALL (      86 calls)
     sum_band:cal :      0.12s CPU      0.12s WALL (      86 calls)
     sum_band:bec :      0.00s CPU      0.00s WALL (      86 calls)
     addusdens    :      0.81s CPU      1.32s WALL (       2 calls)
                                        0.00s GPU  (       2 calls)
     addusd:skk   :      0.00s CPU      0.00s WALL (       4 calls)
                                        0.00s GPU  (       4 calls)

     Called by *cgdiagg:
     h_psi        :      4.32s CPU      4.40s WALL (    2753 calls)
     s_psi        :      0.71s CPU      0.73s WALL (    5506 calls)

     Called by h_psi:
     h_psi:calbec :      1.01s CPU      1.03s WALL (    2753 calls)
     vloc_psi     :      2.68s CPU      2.73s WALL (    2753 calls)
                                        0.00s GPU  (    2753 calls)
     add_vuspsi   :      0.56s CPU      0.57s WALL (    2753 calls)
     hs_1psi      :      4.74s CPU      4.83s WALL (    2753 calls)
     s_1psi       :      0.79s CPU      0.80s WALL (    2753 calls)

     General routines
     calbec       :      2.44s CPU      2.48s WALL (    6323 calls)
     fft          :      0.24s CPU      0.25s WALL (      50 calls)
     ffts         :      0.00s CPU      0.00s WALL (       4 calls)
     fftw         :      2.26s CPU      2.31s WALL (    6882 calls)
     interpolate  :      0.02s CPU      0.02s WALL (       2 calls)
 
     Parallel routines
 
     PWSCF        :     15.22s CPU     18.04s WALL

 
   This run was terminated on:   0: 7: 6  23Sep2026            

=------------------------------------------------------------------------------=
   JOB DONE.
=------------------------------------------------------------------------------=
