
     Program PWSCF v.7.5 starts on 22Sep2026 at 22:46:47 

     This program is part of the open-source Quantum ESPRESSO suite
     for quantum simulation of materials; please cite
         "P. Giannozzi et al., J. Phys.:Condens. Matter 21 395502 (2009);
         "P. Giannozzi et al., J. Phys.:Condens. Matter 29 465901 (2017);
         "P. Giannozzi et al., J. Chem. Phys. 152 154105 (2020);
          URL http://www.quantum-espresso.org", 
     in publications or presentations arising from this work. More details at
     http://www.quantum-espresso.org/quote

     Parallel version (MPI), running on     4 processors

     MPI processes distributed on     1 nodes
     4184 MiB available memory on the printing compute node when the environment starts

     Reading input from scf.in

     Current dimensions of program PWSCF are:
     Max number of different atomic species (ntypx) = 10
     Max number of k-points (npk) =  40000
     Max angular momentum in pseudopotentials (lmaxx) =  4
     Message from routine setup:
     using ibrav=0 with symmetry is DISCOURAGED, use correct ibrav instead

     R & G space division:  proc/nbgrp/npool/nimage =       4
     Subspace diagonalization in iterative solution of the eigenvalue problem:
     a serial algorithm will be used


     Parallelization info
     --------------------
     sticks:   dense  smooth     PW     G-vecs:    dense   smooth      PW
     Min         450     168     53                14468     3324     581
     Max         451     169     54                14469     3329     582
     Sum        1801     673    213                57873    13301    2325

     Using Slab Decomposition



     bravais-lattice index     =            0
     lattice parameter (alat)  =       5.9670  a.u.
     unit-cell volume          =     212.4576 (a.u.)^3
     number of atoms/cell      =            2
     number of atomic types    =            2
     number of electrons       =         7.00
     number of Kohn-Sham states=           10
     kinetic-energy cutoff     =      60.0000  Ry
     charge density cutoff     =     640.0000  Ry
     scf convergence threshold =      1.0E-10
     mixing beta               =       0.7000
     number of iterations used =            8  plain     mixing
     Exchange-correlation= PBE
                           (   1   4   3   4   0   0   0)

     celldm(1)=   5.967019  celldm(2)=   0.000000  celldm(3)=   0.000000
     celldm(4)=   0.000000  celldm(5)=   0.000000  celldm(6)=   0.000000

     crystal axes: (cart. coord. in units of alat)
               a(1) = (   1.000000   0.000000   0.000000 )  
               a(2) = (   0.000000   1.000000   0.000000 )  
               a(3) = (   0.000000   0.000000   1.000000 )  

     reciprocal axes: (cart. coord. in units 2 pi/alat)
               b(1) = (  1.000000  0.000000  0.000000 )  
               b(2) = (  0.000000  1.000000  0.000000 )  
               b(3) = (  0.000000  0.000000  1.000000 )  


     PseudoPot. # 1 for Al read from file:
     ../../pseudo/Al.pbe-n-rrkjus_psl.1.0.0.UPF
     MD5 check sum: bbe9f3f15d9b3b5ab9a58e4859ebdbfe
     Pseudo is Ultrasoft + core correction, Zval =  3.0
     Generated using &quot;atomic&quot; code by A. Dal Corso  v.6.3
     Using radial grid of 1135 points,  6 beta functions with: 
                l(1) =   0
                l(2) =   0
                l(3) =   1
                l(4) =   1
                l(5) =   2
                l(6) =   2
     Q(r) pseudized with 0 coefficients 


     PseudoPot. # 2 for Si read from file:
     ../../pseudo/Si.pbe-n-rrkjus_psl.1.0.0.UPF
     MD5 check sum: fa25574f73a70a4139f2adfbefec430c
     Pseudo is Ultrasoft + core correction, Zval =  4.0
     Generated using &quot;atomic&quot; code by A. Dal Corso  v.6.3
     Using radial grid of 1141 points,  6 beta functions with: 
                l(1) =   0
                l(2) =   0
                l(3) =   1
                l(4) =   1
                l(5) =   2
                l(6) =   2
     Q(r) pseudized with 0 coefficients 


     atomic species   valence    mass     pseudopotential
     Al                3.00    26.98154     Al( 1.00)
     Si                4.00    28.08500     Si( 1.00)

     48 Sym. Ops., with inversion, found



   Cartesian axes

     site n.     atom                  positions (alat units)
         1        Al     tau(   1) = (   0.0000000   0.0000000   0.0000000  )
         2        Si     tau(   2) = (   0.5000000   0.5000000   0.5000000  )

     number of k points=   165  Marzari-Vanderbilt smearing, width (Ry)=  0.0100

     Number of k-points >= 100: set verbosity='high' to print them.

     Dense  grid:    57873 G-vectors     FFT dimensions: (  50,  50,  50)

     Smooth grid:    13301 G-vectors     FFT dimensions: (  30,  30,  30)

     Estimated max dynamical RAM per process >      67.80 MB

     Estimated total dynamical RAM >     271.22 MB

     Initial potential from superposition of free atoms

     starting charge       6.9972, renormalised to       7.0000
     Starting wfcs are    8 randomized atomic wfcs +    2 random wfcs

     total cpu time spent up to now is        1.8 secs

     per-process dynamical memory:    34.9 Mb

     Self-consistent Calculation

     iteration #  1     ecut=    60.00 Ry     beta= 0.70
     CG style diagonalization
     c_bands:  1 eigenvalues not converged
     c_bands:  1 eigenvalues not converged
     c_bands:  1 eigenvalues not converged
     c_bands:  1 eigenvalues not converged
     c_bands:  1 eigenvalues not converged
     ethr =  1.00E-10,  avg # of iterations = 46.5

     total cpu time spent up to now is       53.3 secs

     total energy              =     -16.41980199 Ry
     estimated scf accuracy    <       0.01040040 Ry

     iteration #  2     ecut=    60.00 Ry     beta= 0.70
     CG style diagonalization
     ethr =  1.49E-04,  avg # of iterations =  3.0

     total cpu time spent up to now is       56.8 secs

     total energy              =     -16.42028633 Ry
     estimated scf accuracy    <       0.00065406 Ry

     iteration #  3     ecut=    60.00 Ry     beta= 0.70
     CG style diagonalization
     ethr =  9.34E-06,  avg # of iterations =  3.0

     total cpu time spent up to now is       60.4 secs

     total energy              =     -16.42035280 Ry
     estimated scf accuracy    <       0.00003170 Ry

     iteration #  4     ecut=    60.00 Ry     beta= 0.70
     CG style diagonalization
     ethr =  4.53E-07,  avg # of iterations =  3.6

     total cpu time spent up to now is       64.5 secs

     total energy              =     -16.42036742 Ry
     estimated scf accuracy    <       0.00000154 Ry

     iteration #  5     ecut=    60.00 Ry     beta= 0.70
     CG style diagonalization
     ethr =  2.20E-08,  avg # of iterations =  3.4

     total cpu time spent up to now is       68.5 secs

     total energy              =     -16.42036703 Ry
     estimated scf accuracy    <       0.00000263 Ry

     iteration #  6     ecut=    60.00 Ry     beta= 0.70
     CG style diagonalization
     ethr =  2.20E-08,  avg # of iterations =  3.0

     total cpu time spent up to now is       72.1 secs

     total energy              =     -16.42036718 Ry
     estimated scf accuracy    <       0.00000001 Ry

     iteration #  7     ecut=    60.00 Ry     beta= 0.70
     CG style diagonalization
     ethr =  1.88E-10,  avg # of iterations =  3.7

     total cpu time spent up to now is       76.4 secs

     total energy              =     -16.42036720 Ry
     estimated scf accuracy    <          5.9E-10 Ry

     iteration #  8     ecut=    60.00 Ry     beta= 0.70
     CG style diagonalization
     ethr =  8.49E-12,  avg # of iterations =  3.2

     total cpu time spent up to now is       80.1 secs

     total energy              =     -16.42036720 Ry
     estimated scf accuracy    <          3.1E-10 Ry

     iteration #  9     ecut=    60.00 Ry     beta= 0.70
     CG style diagonalization
     ethr =  4.43E-12,  avg # of iterations =  3.0

     total cpu time spent up to now is       83.6 secs

     End of self-consistent calculation

     Number of k-points >= 100: set verbosity='high' to print the bands.

     the Fermi energy is     8.9544 ev

!    total energy              =     -16.42036720 Ry
     estimated scf accuracy    <          1.7E-11 Ry
     smearing contrib. (-TS)   =      -0.00005657 Ry
     internal energy E=F+TS    =     -16.42031063 Ry

     The total energy is F=E-TS. E is the sum of the following terms:
     one-electron contribution =       7.29407818 Ry
     hartree contribution      =       0.14341452 Ry
     xc contribution           =      -8.74491463 Ry
     ewald contribution        =     -15.11288871 Ry

     convergence has been achieved in   9 iterations

     Forces acting on atoms (cartesian axes, Ry/au):

     atom    1 type  1   force =     0.00000000    0.00000000    0.00000000
     atom    2 type  2   force =     0.00000000    0.00000000    0.00000000

     Total force =     0.000000     Total SCF correction =     0.000000


     Computing stress (Cartesian axis) and pressure

          total   stress  (Ry/bohr**3)                   (kbar)     P=        0.94
   0.00000641   0.00000000   0.00000000            0.94        0.00        0.00
   0.00000000   0.00000641   0.00000000            0.00        0.94        0.00
   0.00000000   0.00000000   0.00000641            0.00        0.00        0.94


     Writing all to output data dir ./tmp/alsi-b2.save/ :
     XML data file, charge density, pseudopotentials, collected wavefunctions

     init_run     :      1.43s CPU      1.53s WALL (       1 calls)
     electrons    :     76.44s CPU     81.85s WALL (       1 calls)
     forces       :      0.55s CPU      0.59s WALL (       1 calls)
     stress       :      2.65s CPU      2.79s WALL (       1 calls)

     Called by init_run:
     wfcinit      :      0.76s CPU      0.81s WALL (       1 calls)
     potinit      :      0.11s CPU      0.12s WALL (       1 calls)
     hinit0       :      0.32s CPU      0.33s WALL (       1 calls)

     Called by electrons:
     c_bands      :     71.65s CPU     76.16s WALL (       9 calls)
     sum_band     :      3.79s CPU      4.33s WALL (       9 calls)
     v_of_rho     :      0.17s CPU      0.18s WALL (      10 calls)
     newd         :      0.89s CPU      1.26s WALL (      10 calls)
     mix_rho      :      0.02s CPU      0.02s WALL (       9 calls)

     Called by c_bands:
     init_us_2    :      0.74s CPU      0.76s WALL (    3465 calls)
     ccgdiagg     :     65.69s CPU     69.85s WALL (    1485 calls)
     wfcrot       :      6.24s CPU      6.61s WALL (    1485 calls)

     Called by *cgdiagg:
     h_psi        :     43.24s CPU     46.16s WALL (  107935 calls)
     s_psi        :     12.24s CPU     12.92s WALL (  214385 calls)

     Called by h_psi:
     h_psi:calbec :      8.82s CPU      9.46s WALL (  107935 calls)
     vloc_psi     :     27.36s CPU     29.22s WALL (  107935 calls)
                                        0.00s GPU  (  107935 calls)
     add_vuspsi   :      6.47s CPU      6.85s WALL (  107935 calls)
     hs_1psi      :     44.95s CPU     47.89s WALL (  106450 calls)
     s_1psi       :     14.05s CPU     14.86s WALL (  106450 calls)

     General routines
     calbec       :     18.70s CPU     19.89s WALL (  218675 calls)
     fft          :      0.19s CPU      0.20s WALL (     153 calls)
     ffts         :      0.08s CPU      0.08s WALL (      19 calls)
     fftw         :     25.88s CPU     27.64s WALL (  257450 calls)
     interpolate  :      0.08s CPU      0.08s WALL (      10 calls)

     Parallel routines

     PWSCF        :   1m21.38s CPU   1m27.13s WALL


   This run was terminated on:  22:48:14  22Sep2026            

=------------------------------------------------------------------------------=
   JOB DONE.
=------------------------------------------------------------------------------=
