
     Program PWSCF v.7.5 starts on 23Sep2026 at  0: 1:13 

     This program is part of the open-source Quantum ESPRESSO suite
     for quantum simulation of materials; please cite
         "P. Giannozzi et al., J. Phys.:Condens. Matter 21 395502 (2009);
         "P. Giannozzi et al., J. Phys.:Condens. Matter 29 465901 (2017);
         "P. Giannozzi et al., J. Chem. Phys. 152 154105 (2020);
          URL http://www.quantum-espresso.org", 
     in publications or presentations arising from this work. More details at
     http://www.quantum-espresso.org/quote

     Parallel version (MPI), running on     4 processors

     MPI processes distributed on     1 nodes
     4198 MiB available memory on the printing compute node when the environment starts

     Reading input from scf.in

     Current dimensions of program PWSCF are:
     Max number of different atomic species (ntypx) = 10
     Max number of k-points (npk) =  40000
     Max angular momentum in pseudopotentials (lmaxx) =  4
     Message from routine setup:
     using ibrav=0 with symmetry is DISCOURAGED, use correct ibrav instead

     R & G space division:  proc/nbgrp/npool/nimage =       4
     Subspace diagonalization in iterative solution of the eigenvalue problem:
     a serial algorithm will be used


     Parallelization info
     --------------------
     sticks:   dense  smooth     PW     G-vecs:    dense   smooth      PW
     Min         321     123     37                74689    17124    2975
     Max         322     129     38                74718    17125    2998
     Sum        1285     499    151               298799    68499   11969

     Using Slab Decomposition



     bravais-lattice index     =            0
     lattice parameter (alat)  =       5.4022  a.u.
     unit-cell volume          =    1092.1863 (a.u.)^3
     number of atoms/cell      =            5
     number of atomic types    =            2
     number of electrons       =        11.00
     number of Kohn-Sham states=           12
     kinetic-energy cutoff     =      60.0000  Ry
     charge density cutoff     =     640.0000  Ry
     scf convergence threshold =      1.0E-09
     mixing beta               =       0.7000
     number of iterations used =            8  plain     mixing
     Exchange-correlation= PBE
                           (   1   4   3   4   0   0   0)

     celldm(1)=   5.402158  celldm(2)=   0.000000  celldm(3)=   0.000000
     celldm(4)=   0.000000  celldm(5)=   0.000000  celldm(6)=   0.000000

     crystal axes: (cart. coord. in units of alat)
               a(1) = (   1.000000   0.000000   0.000000 )  
               a(2) = (   0.500000   0.866025   0.000000 )  
               a(3) = (   0.000000   0.000000   7.999526 )  

     reciprocal axes: (cart. coord. in units 2 pi/alat)
               b(1) = (  1.000000 -0.577350  0.000000 )  
               b(2) = (  0.000000  1.154701  0.000000 )  
               b(3) = (  0.000000  0.000000  0.125007 )  


     PseudoPot. # 1 for Al read from file:
     ../pseudo/Al.pbe-n-rrkjus_psl.1.0.0.UPF
     MD5 check sum: bbe9f3f15d9b3b5ab9a58e4859ebdbfe
     Pseudo is Ultrasoft + core correction, Zval =  3.0
     Generated using &quot;atomic&quot; code by A. Dal Corso  v.6.3
     Using radial grid of 1135 points,  6 beta functions with: 
                l(1) =   0
                l(2) =   0
                l(3) =   1
                l(4) =   1
                l(5) =   2
                l(6) =   2
     Q(r) pseudized with 0 coefficients 


     PseudoPot. # 2 for H  read from file:
     ../pseudo/H.pbe-rrkjus_psl.1.0.0.UPF
     MD5 check sum: 3f4114867bd07edc7f1424d066fc1888
     Pseudo is Ultrasoft, Zval =  1.0
     Generated using &quot;atomic&quot; code by A. Dal Corso  v.6.3MaX
     Using radial grid of  929 points,  2 beta functions with: 
                l(1) =   0
                l(2) =   0
     Q(r) pseudized with 0 coefficients 


     atomic species   valence    mass     pseudopotential
     Al                3.00    26.98154     Al( 1.00)
     H                 1.00     1.00794     H ( 1.00)

     12 Sym. Ops., with inversion, found



   Cartesian axes

     site n.     atom                  positions (alat units)
         1        Al     tau(   1) = (   1.0000000   0.5773503   3.1718658  )
         2        Al     tau(   2) = (   0.0000000   0.0000000   3.9997629  )
         3        Al     tau(   3) = (   0.5000000   0.2886751   4.8276601  )
         4        H      tau(   4) = (   1.0000000   0.5773503   2.6099399  )
         5        H      tau(   5) = (   0.5000000   0.2886751   5.3895860  )

     number of k points=    10  Marzari-Vanderbilt smearing, width (Ry)=  0.0100
                       cart. coord. in units 2pi/alat
        k(    1) = (   0.0000000   0.0000000   0.0000000), wk =   0.0312500
        k(    2) = (   0.0000000   0.1443376   0.0000000), wk =   0.1875000
        k(    3) = (   0.0000000   0.2886751   0.0000000), wk =   0.1875000
        k(    4) = (   0.0000000   0.4330127   0.0000000), wk =   0.1875000
        k(    5) = (   0.0000000  -0.5773503   0.0000000), wk =   0.0937500
        k(    6) = (   0.1250000   0.2165064   0.0000000), wk =   0.1875000
        k(    7) = (   0.1250000   0.3608439   0.0000000), wk =   0.3750000
        k(    8) = (   0.1250000  -0.6495191   0.0000000), wk =   0.3750000
        k(    9) = (   0.2500000  -0.7216878   0.0000000), wk =   0.1875000
        k(   10) = (   0.2500000  -0.5773503   0.0000000), wk =   0.1875000

     Dense  grid:   298799 G-vectors     FFT dimensions: (  45,  45, 360)

     Smooth grid:    68499 G-vectors     FFT dimensions: (  27,  27, 216)

     Estimated max dynamical RAM per process >     284.75 MB

     Estimated total dynamical RAM >       1.11 GB

     Initial potential from superposition of free atoms

     starting charge      10.9931, renormalised to      11.0000

     negative rho (up, down):  2.072E-05 0.000E+00
     Starting wfcs are   14 randomized atomic wfcs

     total cpu time spent up to now is        2.0 secs

     per-process dynamical memory:    49.6 Mb

     Self-consistent Calculation

     iteration #  1     ecut=    60.00 Ry     beta= 0.70
     Davidson diagonalization with overlap
     ethr =  1.00E-02,  avg # of iterations =  6.3

     negative rho (up, down):  5.757E-07 0.000E+00

     total cpu time spent up to now is        5.0 secs

     total energy              =     -17.27948439 Ry
     estimated scf accuracy    <       0.19097672 Ry

     iteration #  2     ecut=    60.00 Ry     beta= 0.70
     Davidson diagonalization with overlap
     ethr =  1.74E-03,  avg # of iterations =  3.5

     negative rho (up, down):  2.641E-06 0.000E+00

     total cpu time spent up to now is        7.5 secs

     total energy              =     -17.04572363 Ry
     estimated scf accuracy    <       2.01838323 Ry

     iteration #  3     ecut=    60.00 Ry     beta= 0.70
     Davidson diagonalization with overlap
     ethr =  1.74E-03,  avg # of iterations =  2.6
     Minimization algorithm failed to find Fermi energy: reverting to bisection
     Possible cause: smearing is larger than the electronic band-gap.

     negative rho (up, down):  3.098E-07 0.000E+00

     total cpu time spent up to now is        9.9 secs

     total energy              =     -17.33179815 Ry
     estimated scf accuracy    <       0.16106726 Ry

     iteration #  4     ecut=    60.00 Ry     beta= 0.70
     Davidson diagonalization with overlap
     ethr =  1.46E-03,  avg # of iterations =  1.0

     negative rho (up, down):  1.488E-06 0.000E+00

     total cpu time spent up to now is       12.0 secs

     total energy              =     -17.34422151 Ry
     estimated scf accuracy    <       0.01267464 Ry

     iteration #  5     ecut=    60.00 Ry     beta= 0.70
     Davidson diagonalization with overlap
     ethr =  1.15E-04,  avg # of iterations =  5.5

     negative rho (up, down):  2.867E-06 0.000E+00

     total cpu time spent up to now is       14.3 secs

     total energy              =     -17.34506221 Ry
     estimated scf accuracy    <       0.00133809 Ry

     iteration #  6     ecut=    60.00 Ry     beta= 0.70
     Davidson diagonalization with overlap
     ethr =  1.22E-05,  avg # of iterations =  3.8

     negative rho (up, down):  3.052E-06 0.000E+00

     total cpu time spent up to now is       16.7 secs

     total energy              =     -17.34533318 Ry
     estimated scf accuracy    <       0.00014995 Ry

     iteration #  7     ecut=    60.00 Ry     beta= 0.70
     Davidson diagonalization with overlap
     ethr =  1.36E-06,  avg # of iterations =  3.7

     negative rho (up, down):  3.068E-06 0.000E+00

     total cpu time spent up to now is       19.0 secs

     total energy              =     -17.34535339 Ry
     estimated scf accuracy    <       0.00000591 Ry

     iteration #  8     ecut=    60.00 Ry     beta= 0.70
     Davidson diagonalization with overlap
     ethr =  5.37E-08,  avg # of iterations =  2.2

     negative rho (up, down):  3.047E-06 0.000E+00

     total cpu time spent up to now is       21.2 secs

     total energy              =     -17.34535504 Ry
     estimated scf accuracy    <       0.00000132 Ry

     iteration #  9     ecut=    60.00 Ry     beta= 0.70
     Davidson diagonalization with overlap
     ethr =  1.20E-08,  avg # of iterations =  1.1

     negative rho (up, down):  3.046E-06 0.000E+00

     total cpu time spent up to now is       23.4 secs

     total energy              =     -17.34535515 Ry
     estimated scf accuracy    <       0.00000003 Ry

     iteration # 10     ecut=    60.00 Ry     beta= 0.70
     Davidson diagonalization with overlap
     ethr =  2.94E-10,  avg # of iterations =  3.5

     negative rho (up, down):  3.045E-06 0.000E+00

     total cpu time spent up to now is       25.8 secs

     total energy              =     -17.34535517 Ry
     estimated scf accuracy    <          2.4E-09 Ry

     iteration # 11     ecut=    60.00 Ry     beta= 0.70
     Davidson diagonalization with overlap
     ethr =  2.15E-11,  avg # of iterations =  2.5

     negative rho (up, down):  3.046E-06 0.000E+00

     total cpu time spent up to now is       28.1 secs

     End of self-consistent calculation

          k = 0.0000 0.0000 0.0000 (  8639 PWs)   bands (ev):

   -12.0005 -10.4833  -8.4448  -6.2055  -3.5120  -0.1273   3.3304   4.3230
     4.5774   5.7331   6.1702   8.0176

          k = 0.0000 0.1443 0.0000 (  8625 PWs)   bands (ev):

   -11.6254 -10.1159  -8.0957  -5.8959  -3.2280   0.1299   3.6627   4.6376
     4.9148   5.6670   5.9092   6.5187

          k = 0.0000 0.2887 0.0000 (  8616 PWs)   bands (ev):

   -10.5067  -9.0230  -7.0714  -5.0088  -2.4861   0.4274   1.6085   2.7504
     4.6436   5.0174   5.8049   5.9926

          k = 0.0000 0.4330 0.0000 (  8558 PWs)   bands (ev):

    -8.6644  -7.2429  -5.4909  -3.8390  -2.9895  -1.8931  -0.2405   0.8770
     2.8673   4.2266   5.0277   6.5619

          k = 0.0000-0.5774 0.0000 (  8530 PWs)   bands (ev):

    -6.2159  -6.0887  -4.9731  -4.8730  -3.8783  -2.8840  -0.6890  -0.0297
     2.5408   3.4413   4.7066   6.2425

          k = 0.1250 0.2165 0.0000 (  8569 PWs)   bands (ev):

   -10.8785  -9.3855  -7.4083  -5.2953  -2.7047   0.5384   3.5469   3.6021
     4.3995   4.8528   5.0634   5.3448

          k = 0.1250 0.3608 0.0000 (  8557 PWs)   bands (ev):

    -9.3977  -7.9466  -6.0927  -4.2134  -2.0244  -0.6619   1.0515   1.4073
     2.2632   3.6652   4.0264   5.5772

          k = 0.1250-0.6495 0.0000 (  8577 PWs)   bands (ev):

    -7.2134  -5.8860  -4.4861  -4.3536  -3.4304  -2.4688  -0.4421   0.3278
     1.3148   2.6268   3.6255   4.4843

          k = 0.2500-0.7217 0.0000 (  8589 PWs)   bands (ev):

    -7.5727  -6.2061  -4.6423  -3.2625  -2.1466  -1.8784  -1.0172  -0.2819
     1.1833   1.4614   2.8360   4.3148

          k = 0.2500-0.5774 0.0000 (  8564 PWs)   bands (ev):

    -5.1776  -5.0251  -4.1464  -3.9681  -3.1669  -2.2287  -2.1782  -0.8374
     0.3226   1.4721   2.3958   3.2629

     the Fermi energy is    -1.8952 ev

!    total energy              =     -17.34535517 Ry
     estimated scf accuracy    <          1.9E-10 Ry
     smearing contrib. (-TS)   =       0.00016017 Ry
     internal energy E=F+TS    =     -17.34551534 Ry

     The total energy is F=E-TS. E is the sum of the following terms:
     one-electron contribution =    -158.27613741 Ry
     hartree contribution      =      81.00407765 Ry
     xc contribution           =      -9.04215269 Ry
     ewald contribution        =      68.96869711 Ry

     convergence has been achieved in  11 iterations

     negative rho (up, down):  3.046E-06 0.000E+00

     Forces acting on atoms (cartesian axes, Ry/au):

     atom    1 type  1   force =     0.00000000   -0.00000000    0.00196471
     atom    2 type  1   force =     0.00000000    0.00000000    0.00000000
     atom    3 type  1   force =     0.00000000   -0.00000000   -0.00196471
     atom    4 type  2   force =     0.00000000   -0.00000000   -0.00013950
     atom    5 type  2   force =     0.00000000   -0.00000000    0.00013950

     Total force =     0.002786     Total SCF correction =     0.000019


     Computing stress (Cartesian axis) and pressure


     negative rho (up, down):  3.046E-06 0.000E+00
          total   stress  (Ry/bohr**3)                   (kbar)     P=        0.90
   0.00001633   0.00000000   0.00000000            2.40        0.00        0.00
   0.00000000   0.00001633   0.00000000            0.00        2.40        0.00
   0.00000000   0.00000000  -0.00001432            0.00        0.00       -2.11


     Writing all to output data dir ./tmp/ads-k8.save/ :
     XML data file, charge density, pseudopotentials, collected wavefunctions

     init_run     :      1.65s CPU      1.80s WALL (       1 calls)
     electrons    :     23.69s CPU     26.12s WALL (       1 calls)
     forces       :      1.00s CPU      1.11s WALL (       1 calls)
     stress       :      4.05s CPU      4.33s WALL (       1 calls)

     Called by init_run:
     wfcinit      :      0.45s CPU      0.46s WALL (       1 calls)
     potinit      :      0.30s CPU      0.34s WALL (       1 calls)
     hinit0       :      0.44s CPU      0.45s WALL (       1 calls)

     Called by electrons:
     c_bands      :     11.83s CPU     12.10s WALL (      11 calls)
     sum_band     :      6.45s CPU      7.60s WALL (      11 calls)
     v_of_rho     :      1.36s CPU      1.43s WALL (      12 calls)
     newd         :      4.21s CPU      5.24s WALL (      12 calls)
     mix_rho      :      0.17s CPU      0.18s WALL (      11 calls)

     Called by c_bands:
     init_us_2    :      0.29s CPU      0.29s WALL (     250 calls)
     cegterg      :     11.19s CPU     11.46s WALL (     110 calls)

     Called by *egterg:
     cdiaghg      :      0.10s CPU      0.10s WALL (     467 calls)
     h_psi        :      8.19s CPU      8.45s WALL (     477 calls)
     s_psi        :      1.26s CPU      1.26s WALL (     477 calls)
     g_psi        :      0.02s CPU      0.02s WALL (     357 calls)

     Called by h_psi:
     h_psi:calbec :      1.30s CPU      1.31s WALL (     477 calls)
     vloc_psi     :      5.64s CPU      5.88s WALL (     477 calls)
                                        0.00s GPU  (     477 calls)
     add_vuspsi   :      1.22s CPU      1.23s WALL (     477 calls)

     General routines
     calbec       :      2.48s CPU      2.50s WALL (     757 calls)
     fft          :      1.59s CPU      1.67s WALL (     179 calls)
     ffts         :      0.18s CPU      0.18s WALL (      23 calls)
     fftw         :      6.04s CPU      6.29s WALL (    8292 calls)
     interpolate  :      0.24s CPU      0.25s WALL (      12 calls)

     Parallel routines

     PWSCF        :     30.58s CPU     33.56s WALL


   This run was terminated on:   0: 1:46  23Sep2026            

=------------------------------------------------------------------------------=
   JOB DONE.
=------------------------------------------------------------------------------=
