
     Program PWSCF v.7.5 starts on 22Sep2026 at 23:54:30 

     This program is part of the open-source Quantum ESPRESSO suite
     for quantum simulation of materials; please cite
         "P. Giannozzi et al., J. Phys.:Condens. Matter 21 395502 (2009);
         "P. Giannozzi et al., J. Phys.:Condens. Matter 29 465901 (2017);
         "P. Giannozzi et al., J. Chem. Phys. 152 154105 (2020);
          URL http://www.quantum-espresso.org", 
     in publications or presentations arising from this work. More details at
     http://www.quantum-espresso.org/quote

     Parallel version (MPI), running on     8 processors

     MPI processes distributed on     1 nodes
     1534 MiB available memory on the printing compute node when the environment starts
 
     Reading input from mos2.relax.in

     Current dimensions of program PWSCF are:
     Max number of different atomic species (ntypx) = 10
     Max number of k-points (npk) =  40000
     Max angular momentum in pseudopotentials (lmaxx) =  4
     file Mo.pbe-spn-rrkjus_psl.1.0.0.UPF: wavefunction(s)  4S renormalized
     Message from routine setup:
     using ibrav=0 with symmetry is DISCOURAGED, use correct ibrav instead
 
     R & G space division:  proc/nbgrp/npool/nimage =       8
     Subspace diagonalization in iterative solution of the eigenvalue problem:
     a serial algorithm will be used

 
     Parallelization info
     --------------------
     sticks:   dense  smooth     PW     G-vecs:    dense   smooth      PW
     Min         148      74     21                30300    10722    1713
     Max         149      76     23                30307    10730    1735
     Sum        1189     595    175               242429    85799   13775
 
     Using Slab Decomposition
 


     bravais-lattice index     =            0
     lattice parameter (alat)  =       5.9844  a.u.
     unit-cell volume          =    1365.9981 (a.u.)^3
     number of atoms/cell      =            3
     number of atomic types    =            2
     number of electrons       =        26.00
     number of Kohn-Sham states=           16
     kinetic-energy cutoff     =      60.0000  Ry
     charge density cutoff     =     480.0000  Ry
     scf convergence threshold =      1.0E-12
     mixing beta               =       0.3000
     number of iterations used =            8  plain     mixing
     energy convergence thresh.=      1.0E-08
     force convergence thresh. =      1.0E-05
     Exchange-correlation= PBE
                           (   1   4   3   4   0   0   0)
     nstep                     =           40


     celldm(1)=   5.984412  celldm(2)=   0.000000  celldm(3)=   0.000000
     celldm(4)=   0.000000  celldm(5)=   0.000000  celldm(6)=   0.000000

     crystal axes: (cart. coord. in units of alat)
               a(1) = (   1.000000   0.000000   0.000000 )  
               a(2) = (  -0.500000   0.870377   0.000000 )  
               a(3) = (   0.000000   0.000000   7.322816 )  

     reciprocal axes: (cart. coord. in units 2 pi/alat)
               b(1) = (  1.000000  0.574464  0.000000 )  
               b(2) = (  0.000000  1.148927  0.000000 )  
               b(3) = (  0.000000  0.000000  0.136559 )  


     PseudoPot. # 1 for Mo read from file:
     ../pseudo/Mo.pbe-spn-rrkjus_psl.1.0.0.UPF
     MD5 check sum: 03f09b12e49601d1a456a78ce8b2d514
     Pseudo is Ultrasoft + core correction, Zval = 14.0
     Generated using &quot;atomic&quot; code by A. Dal Corso  v.6.3
     Using radial grid of 1229 points,  6 beta functions with: 
                l(1) =   0
                l(2) =   0
                l(3) =   1
                l(4) =   1
                l(5) =   2
                l(6) =   2
     Q(r) pseudized with 0 coefficients 


     PseudoPot. # 2 for S  read from file:
     ../pseudo/S.pbe-n-rrkjus_psl.1.0.0.UPF
     MD5 check sum: 9d0fe39aa2a799ea84730884c9b010f4
     Pseudo is Ultrasoft + core correction, Zval =  6.0
     Generated using &quot;atomic&quot; code by A. Dal Corso  v.6.3
     Using radial grid of 1151 points,  6 beta functions with: 
                l(1) =   0
                l(2) =   0
                l(3) =   1
                l(4) =   1
                l(5) =   2
                l(6) =   2
     Q(r) pseudized with 0 coefficients 


     atomic species   valence    mass     pseudopotential
     Mo               14.00    95.95000     Mo( 1.00)
     S                 6.00    32.06000     S ( 1.00)

      4 Sym. Ops. (no inversion) found


                                    s                        frac. trans.

      isym =  1     identity                                     

 cryst.   s( 1) = (     1          0          0      )
                  (     0          1          0      )
                  (     0          0          1      )

 cart.    s( 1) = (  1.0000000  0.0000000  0.0000000 )
                  (  0.0000000  1.0000000  0.0000000 )
                  (  0.0000000  0.0000000  1.0000000 )


      isym =  2     180 deg rotation - cart. axis [0,1,0]        

 cryst.   s( 2) = (    -1          0          0      )
                  (     1          1          0      )
                  (     0          0         -1      )

 cart.    s( 2) = ( -1.0000000 -0.0000000  0.0000000 )
                  (  0.0000000  1.0000000  0.0000000 )
                  (  0.0000000  0.0000000 -1.0000000 )


      isym =  3     inv. 180 deg rotation - cart. axis [0,0,1]   

 cryst.   s( 3) = (     1          0          0      )
                  (     0          1          0      )
                  (     0          0         -1      )

 cart.    s( 3) = (  1.0000000  0.0000000  0.0000000 )
                  (  0.0000000  1.0000000  0.0000000 )
                  (  0.0000000  0.0000000 -1.0000000 )


      isym =  4     inv. 180 deg rotation - cart. axis [1,0,0]   

 cryst.   s( 4) = (    -1          0          0      )
                  (     1          1          0      )
                  (     0          0          1      )

 cart.    s( 4) = ( -1.0000000 -0.0000000  0.0000000 )
                  (  0.0000000  1.0000000  0.0000000 )
                  (  0.0000000  0.0000000  1.0000000 )


   Cartesian axes

     site n.     atom                  positions (alat units)
         1        Mo     tau(   1) = (   0.0000000   0.0000000   3.6614082  )
         2        S      tau(   2) = (   0.5000000   0.2901258   4.1555658  )
         3        S      tau(   3) = (   0.5000000   0.2901258   3.1672507  )

   Crystallographic axes

     site n.     atom                  positions (cryst. coord.)
         1        Mo     tau(   1) = (  0.0000000  0.0000000  0.5000000  )
         2        S      tau(   2) = (  0.6666667  0.3333333  0.5674819  )
         3        S      tau(   3) = (  0.6666667  0.3333333  0.4325181  )

     number of k points=    43
                       cart. coord. in units 2pi/alat
        k(    1) = (   0.0000000   0.0000000   0.0000000), wk =   0.0138889
        k(    2) = (   0.0000000   0.0957439   0.0000000), wk =   0.0277778
        k(    3) = (   0.0000000   0.1914878   0.0000000), wk =   0.0277778
        k(    4) = (   0.0000000   0.2872318   0.0000000), wk =   0.0277778
        k(    5) = (   0.0000000   0.3829757   0.0000000), wk =   0.0277778
        k(    6) = (   0.0000000   0.4787196   0.0000000), wk =   0.0277778
        k(    7) = (   0.0000000  -0.5744635   0.0000000), wk =   0.0138889
        k(    8) = (   0.0833333   0.0478720   0.0000000), wk =   0.0555556
        k(    9) = (   0.0833333   0.1436159   0.0000000), wk =   0.0555556
        k(   10) = (   0.0833333   0.2393598   0.0000000), wk =   0.0555556
        k(   11) = (   0.0833333   0.3351037   0.0000000), wk =   0.0555556
        k(   12) = (   0.0833333   0.4308476   0.0000000), wk =   0.0555556
        k(   13) = (   0.0833333   0.5265916   0.0000000), wk =   0.0555556
        k(   14) = (   0.1666667   0.0957439   0.0000000), wk =   0.0555556
        k(   15) = (   0.1666667   0.1914878   0.0000000), wk =   0.0555556
        k(   16) = (   0.1666667   0.2872318   0.0000000), wk =   0.0555556
        k(   17) = (   0.1666667   0.3829757   0.0000000), wk =   0.0555556
        k(   18) = (   0.1666667   0.4787196   0.0000000), wk =   0.0555556
        k(   19) = (   0.1666667   0.5744635   0.0000000), wk =   0.0277778
        k(   20) = (   0.1666667   0.0000000   0.0000000), wk =   0.0277778
        k(   21) = (   0.2500000   0.1436159   0.0000000), wk =   0.0555556
        k(   22) = (   0.2500000   0.2393598   0.0000000), wk =   0.0555556
        k(   23) = (   0.2500000   0.3351037   0.0000000), wk =   0.0555556
        k(   24) = (   0.2500000   0.4308476   0.0000000), wk =   0.0555556
        k(   25) = (   0.2500000   0.5265916   0.0000000), wk =   0.0555556
        k(   26) = (   0.2500000  -0.0478720   0.0000000), wk =   0.0555556
        k(   27) = (   0.3333333   0.1914878   0.0000000), wk =   0.0555556
        k(   28) = (   0.3333333   0.2872318   0.0000000), wk =   0.0555556
        k(   29) = (   0.3333333   0.3829757   0.0000000), wk =   0.0555556
        k(   30) = (   0.3333333   0.4787196   0.0000000), wk =   0.0555556
        k(   31) = (   0.3333333   0.5744635   0.0000000), wk =   0.0277778
        k(   32) = (   0.3333333  -0.0957439   0.0000000), wk =   0.0555556
        k(   33) = (   0.3333333   0.0000000   0.0000000), wk =   0.0277778
        k(   34) = (   0.4166667   0.2393598   0.0000000), wk =   0.0555556
        k(   35) = (   0.4166667   0.3351037   0.0000000), wk =   0.0555556
        k(   36) = (   0.4166667   0.4308476   0.0000000), wk =   0.0555556
        k(   37) = (   0.4166667   0.5265916   0.0000000), wk =   0.0555556
        k(   38) = (   0.4166667  -0.1436159   0.0000000), wk =   0.0555556
        k(   39) = (   0.4166667  -0.0478720   0.0000000), wk =   0.0555556
        k(   40) = (  -0.5000000  -0.2872318   0.0000000), wk =   0.0277778
        k(   41) = (  -0.5000000  -0.1914878   0.0000000), wk =   0.0555556
        k(   42) = (  -0.5000000  -0.0957439   0.0000000), wk =   0.0555556
        k(   43) = (  -0.5000000  -0.0000000   0.0000000), wk =   0.0277778

                       cryst. coord.
        k(    1) = (   0.0000000   0.0000000   0.0000000), wk =   0.0138889
        k(    2) = (   0.0000000   0.0833333   0.0000000), wk =   0.0277778
        k(    3) = (   0.0000000   0.1666667   0.0000000), wk =   0.0277778
        k(    4) = (   0.0000000   0.2500000   0.0000000), wk =   0.0277778
        k(    5) = (   0.0000000   0.3333333   0.0000000), wk =   0.0277778
        k(    6) = (   0.0000000   0.4166667   0.0000000), wk =   0.0277778
        k(    7) = (   0.0000000  -0.5000000   0.0000000), wk =   0.0138889
        k(    8) = (   0.0833333  -0.0000000   0.0000000), wk =   0.0555556
        k(    9) = (   0.0833333   0.0833333   0.0000000), wk =   0.0555556
        k(   10) = (   0.0833333   0.1666667   0.0000000), wk =   0.0555556
        k(   11) = (   0.0833333   0.2500000   0.0000000), wk =   0.0555556
        k(   12) = (   0.0833333   0.3333333   0.0000000), wk =   0.0555556
        k(   13) = (   0.0833333   0.4166667   0.0000000), wk =   0.0555556
        k(   14) = (   0.1666667  -0.0000000   0.0000000), wk =   0.0555556
        k(   15) = (   0.1666667   0.0833333   0.0000000), wk =   0.0555556
        k(   16) = (   0.1666667   0.1666667   0.0000000), wk =   0.0555556
        k(   17) = (   0.1666667   0.2500000   0.0000000), wk =   0.0555556
        k(   18) = (   0.1666667   0.3333333   0.0000000), wk =   0.0555556
        k(   19) = (   0.1666667   0.4166667   0.0000000), wk =   0.0277778
        k(   20) = (   0.1666667  -0.0833333   0.0000000), wk =   0.0277778
        k(   21) = (   0.2500000   0.0000000   0.0000000), wk =   0.0555556
        k(   22) = (   0.2500000   0.0833333   0.0000000), wk =   0.0555556
        k(   23) = (   0.2500000   0.1666667   0.0000000), wk =   0.0555556
        k(   24) = (   0.2500000   0.2500000   0.0000000), wk =   0.0555556
        k(   25) = (   0.2500000   0.3333333   0.0000000), wk =   0.0555556
        k(   26) = (   0.2500000  -0.1666667   0.0000000), wk =   0.0555556
        k(   27) = (   0.3333333  -0.0000000   0.0000000), wk =   0.0555556
        k(   28) = (   0.3333333   0.0833333   0.0000000), wk =   0.0555556
        k(   29) = (   0.3333333   0.1666667   0.0000000), wk =   0.0555556
        k(   30) = (   0.3333333   0.2500000   0.0000000), wk =   0.0555556
        k(   31) = (   0.3333333   0.3333333   0.0000000), wk =   0.0277778
        k(   32) = (   0.3333333  -0.2500000   0.0000000), wk =   0.0555556
        k(   33) = (   0.3333333  -0.1666667   0.0000000), wk =   0.0277778
        k(   34) = (   0.4166667   0.0000000   0.0000000), wk =   0.0555556
        k(   35) = (   0.4166667   0.0833333   0.0000000), wk =   0.0555556
        k(   36) = (   0.4166667   0.1666667   0.0000000), wk =   0.0555556
        k(   37) = (   0.4166667   0.2500000   0.0000000), wk =   0.0555556
        k(   38) = (   0.4166667  -0.3333333   0.0000000), wk =   0.0555556
        k(   39) = (   0.4166667  -0.2500000   0.0000000), wk =   0.0555556
        k(   40) = (  -0.5000000   0.0000000   0.0000000), wk =   0.0277778
        k(   41) = (  -0.5000000   0.0833333   0.0000000), wk =   0.0555556
        k(   42) = (  -0.5000000   0.1666667   0.0000000), wk =   0.0555556
        k(   43) = (  -0.5000000   0.2500000   0.0000000), wk =   0.0277778

     Dense  grid:   242429 G-vectors     FFT dimensions: (  45,  45, 320)

     Smooth grid:    85799 G-vectors     FFT dimensions: (  30,  30, 225)

     Dynamical RAM for                 wfc:       0.33 MB

     Dynamical RAM for     wfc (w. buffer):      14.39 MB

     Dynamical RAM for           str. fact:       0.92 MB

     Dynamical RAM for           local pot:       0.00 MB

     Dynamical RAM for          nlocal pot:       1.10 MB

     Dynamical RAM for                qrad:       3.52 MB

     Dynamical RAM for          rho,v,vnew:       3.24 MB

     Dynamical RAM for               rhoin:       1.08 MB

     Dynamical RAM for            rho*nmix:       7.40 MB

     Dynamical RAM for           G-vectors:       1.82 MB

     Dynamical RAM for          h,s,v(r/c):       0.01 MB

     Dynamical RAM for          <psi|beta>:       0.01 MB

     Dynamical RAM for      wfcinit/wfcrot:       0.66 MB

     Dynamical RAM for           addusdens:      86.93 MB

     Dynamical RAM for          addusforce:      88.10 MB

     Dynamical RAM for         addusstress:      92.94 MB

     Estimated static dynamical RAM per process >      30.55 MB

     Estimated max dynamical RAM per process >     130.89 MB

     Estimated total dynamical RAM >       1.02 GB

     Initial potential from superposition of free atoms

     starting charge      25.9991, renormalised to      26.0000

     negative rho (up, down):  3.290E-04 0.000E+00
     Starting wfcs are   18 randomized atomic wfcs

     total cpu time spent up to now is        1.6 secs

     Self-consistent Calculation

     iteration #  1     ecut=    60.00 Ry     beta= 0.30
     CG style diagonalization

---- Real-time Memory Report at c_bands before calling an iterative solver
           159 MiB given to the printing process from OS
             0 MiB allocation reported by mallinfo(arena+hblkhd)
          1662 MiB available memory on the node where the printing process lives
------------------
     c_bands:  2 eigenvalues not converged
     c_bands:  1 eigenvalues not converged
     c_bands:  1 eigenvalues not converged
     c_bands:  1 eigenvalues not converged
     c_bands:  1 eigenvalues not converged
     ethr =  1.00E-10,  avg # of iterations = 35.7

     negative rho (up, down):  3.499E-04 0.000E+00

     total cpu time spent up to now is       59.8 secs

     total energy              =    -181.56713728 Ry
     estimated scf accuracy    <       0.12265063 Ry

     iteration #  2     ecut=    60.00 Ry     beta= 0.30
     CG style diagonalization

---- Real-time Memory Report at c_bands before calling an iterative solver
           190 MiB given to the printing process from OS
             0 MiB allocation reported by mallinfo(arena+hblkhd)
          1709 MiB available memory on the node where the printing process lives
------------------
     ethr =  4.72E-04,  avg # of iterations =  3.6

     negative rho (up, down):  3.625E-04 0.000E+00

     total cpu time spent up to now is       66.9 secs

     total energy              =    -181.57440511 Ry
     estimated scf accuracy    <       0.03463827 Ry

     iteration #  3     ecut=    60.00 Ry     beta= 0.30
     CG style diagonalization

---- Real-time Memory Report at c_bands before calling an iterative solver
           190 MiB given to the printing process from OS
             0 MiB allocation reported by mallinfo(arena+hblkhd)
          1584 MiB available memory on the node where the printing process lives
------------------
     ethr =  1.33E-04,  avg # of iterations =  3.3

     negative rho (up, down):  3.718E-04 0.000E+00

     total cpu time spent up to now is       73.7 secs

     total energy              =    -181.57844080 Ry
     estimated scf accuracy    <       0.00973152 Ry

     iteration #  4     ecut=    60.00 Ry     beta= 0.30
     CG style diagonalization

---- Real-time Memory Report at c_bands before calling an iterative solver
           191 MiB given to the printing process from OS
             0 MiB allocation reported by mallinfo(arena+hblkhd)
          1535 MiB available memory on the node where the printing process lives
------------------
     ethr =  3.74E-05,  avg # of iterations =  3.6

     negative rho (up, down):  3.834E-04 0.000E+00

     total cpu time spent up to now is       81.0 secs

     total energy              =    -181.57905206 Ry
     estimated scf accuracy    <       0.00207246 Ry

     iteration #  5     ecut=    60.00 Ry     beta= 0.30
     CG style diagonalization

---- Real-time Memory Report at c_bands before calling an iterative solver
           191 MiB given to the printing process from OS
             0 MiB allocation reported by mallinfo(arena+hblkhd)
          1503 MiB available memory on the node where the printing process lives
------------------
     ethr =  7.97E-06,  avg # of iterations =  3.9

     negative rho (up, down):  3.828E-04 0.000E+00

     total cpu time spent up to now is       88.6 secs

     total energy              =    -181.57930658 Ry
     estimated scf accuracy    <       0.00179558 Ry

     iteration #  6     ecut=    60.00 Ry     beta= 0.30
     CG style diagonalization

---- Real-time Memory Report at c_bands before calling an iterative solver
           191 MiB given to the printing process from OS
             0 MiB allocation reported by mallinfo(arena+hblkhd)
          1933 MiB available memory on the node where the printing process lives
------------------
     ethr =  6.91E-06,  avg # of iterations =  3.2

     negative rho (up, down):  3.823E-04 0.000E+00

     total cpu time spent up to now is       95.3 secs

     total energy              =    -181.57945200 Ry
     estimated scf accuracy    <       0.00008258 Ry

     iteration #  7     ecut=    60.00 Ry     beta= 0.30
     CG style diagonalization

---- Real-time Memory Report at c_bands before calling an iterative solver
           192 MiB given to the printing process from OS
             0 MiB allocation reported by mallinfo(arena+hblkhd)
          1971 MiB available memory on the node where the printing process lives
------------------
     ethr =  3.18E-07,  avg # of iterations =  4.7

     negative rho (up, down):  3.827E-04 0.000E+00

     total cpu time spent up to now is      104.7 secs

     total energy              =    -181.57950657 Ry
     estimated scf accuracy    <       0.00014783 Ry

     iteration #  8     ecut=    60.00 Ry     beta= 0.30
     CG style diagonalization

---- Real-time Memory Report at c_bands before calling an iterative solver
           192 MiB given to the printing process from OS
             0 MiB allocation reported by mallinfo(arena+hblkhd)
          2064 MiB available memory on the node where the printing process lives
------------------
     ethr =  3.18E-07,  avg # of iterations =  3.0

     negative rho (up, down):  3.833E-04 0.000E+00

     total cpu time spent up to now is      110.5 secs

     total energy              =    -181.57949890 Ry
     estimated scf accuracy    <       0.00005864 Ry

     iteration #  9     ecut=    60.00 Ry     beta= 0.30
     CG style diagonalization

---- Real-time Memory Report at c_bands before calling an iterative solver
           192 MiB given to the printing process from OS
             0 MiB allocation reported by mallinfo(arena+hblkhd)
          2004 MiB available memory on the node where the printing process lives
------------------
     ethr =  2.26E-07,  avg # of iterations =  3.4

     negative rho (up, down):  3.839E-04 0.000E+00

     total cpu time spent up to now is      117.4 secs

     total energy              =    -181.57950318 Ry
     estimated scf accuracy    <       0.00000471 Ry

     iteration # 10     ecut=    60.00 Ry     beta= 0.30
     CG style diagonalization

---- Real-time Memory Report at c_bands before calling an iterative solver
           193 MiB given to the printing process from OS
             0 MiB allocation reported by mallinfo(arena+hblkhd)
          2097 MiB available memory on the node where the printing process lives
------------------
     ethr =  1.81E-08,  avg # of iterations =  4.1

     negative rho (up, down):  3.844E-04 0.000E+00

     total cpu time spent up to now is      125.7 secs

     total energy              =    -181.57950457 Ry
     estimated scf accuracy    <       0.00000006 Ry

     iteration # 11     ecut=    60.00 Ry     beta= 0.30
     CG style diagonalization

---- Real-time Memory Report at c_bands before calling an iterative solver
           193 MiB given to the printing process from OS
             0 MiB allocation reported by mallinfo(arena+hblkhd)
          2395 MiB available memory on the node where the printing process lives
------------------
     ethr =  2.18E-10,  avg # of iterations =  5.5

     negative rho (up, down):  3.847E-04 0.000E+00

     total cpu time spent up to now is      136.3 secs

     total energy              =    -181.57950465 Ry
     estimated scf accuracy    <       0.00000002 Ry

     iteration # 12     ecut=    60.00 Ry     beta= 0.30
     CG style diagonalization

---- Real-time Memory Report at c_bands before calling an iterative solver
           193 MiB given to the printing process from OS
             0 MiB allocation reported by mallinfo(arena+hblkhd)
          1717 MiB available memory on the node where the printing process lives
------------------
     ethr =  5.94E-11,  avg # of iterations =  5.5

     negative rho (up, down):  3.850E-04 0.000E+00

     total cpu time spent up to now is      146.4 secs

     total energy              =    -181.57950461 Ry
     estimated scf accuracy    <       0.00000049 Ry

     iteration # 13     ecut=    60.00 Ry     beta= 0.30
     CG style diagonalization

---- Real-time Memory Report at c_bands before calling an iterative solver
           193 MiB given to the printing process from OS
             0 MiB allocation reported by mallinfo(arena+hblkhd)
          1978 MiB available memory on the node where the printing process lives
------------------
     ethr =  5.94E-11,  avg # of iterations =  4.8

     negative rho (up, down):  3.852E-04 0.000E+00

     total cpu time spent up to now is      155.6 secs

     total energy              =    -181.57950464 Ry
     estimated scf accuracy    <       0.00000002 Ry

     iteration # 14     ecut=    60.00 Ry     beta= 0.30
     CG style diagonalization

---- Real-time Memory Report at c_bands before calling an iterative solver
           193 MiB given to the printing process from OS
             0 MiB allocation reported by mallinfo(arena+hblkhd)
          1627 MiB available memory on the node where the printing process lives
------------------
     ethr =  5.94E-11,  avg # of iterations =  3.5

     negative rho (up, down):  3.854E-04 0.000E+00

     total cpu time spent up to now is      162.7 secs

     total energy              =    -181.57950465 Ry
     estimated scf accuracy    <          4.4E-10 Ry

     iteration # 15     ecut=    60.00 Ry     beta= 0.30
     CG style diagonalization

---- Real-time Memory Report at c_bands before calling an iterative solver
           193 MiB given to the printing process from OS
             0 MiB allocation reported by mallinfo(arena+hblkhd)
          1613 MiB available memory on the node where the printing process lives
------------------
     ethr =  1.68E-12,  avg # of iterations =  5.2

     negative rho (up, down):  3.855E-04 0.000E+00

     total cpu time spent up to now is      172.8 secs

     total energy              =    -181.57950465 Ry
     estimated scf accuracy    <          1.9E-10 Ry

     iteration # 16     ecut=    60.00 Ry     beta= 0.30
     CG style diagonalization

---- Real-time Memory Report at c_bands before calling an iterative solver
           193 MiB given to the printing process from OS
             0 MiB allocation reported by mallinfo(arena+hblkhd)
          1626 MiB available memory on the node where the printing process lives
------------------
     ethr =  7.35E-13,  avg # of iterations =  3.9

     negative rho (up, down):  3.856E-04 0.000E+00

     total cpu time spent up to now is      180.6 secs

     total energy              =    -181.57950465 Ry
     estimated scf accuracy    <          1.1E-09 Ry

     iteration # 17     ecut=    60.00 Ry     beta= 0.30
     CG style diagonalization

---- Real-time Memory Report at c_bands before calling an iterative solver
           193 MiB given to the printing process from OS
             0 MiB allocation reported by mallinfo(arena+hblkhd)
          1518 MiB available memory on the node where the printing process lives
------------------
     ethr =  7.35E-13,  avg # of iterations =  3.8

     negative rho (up, down):  3.856E-04 0.000E+00

     total cpu time spent up to now is      188.5 secs

     total energy              =    -181.57950465 Ry
     estimated scf accuracy    <          5.4E-11 Ry

     iteration # 18     ecut=    60.00 Ry     beta= 0.30
     CG style diagonalization

---- Real-time Memory Report at c_bands before calling an iterative solver
           193 MiB given to the printing process from OS
             0 MiB allocation reported by mallinfo(arena+hblkhd)
          1663 MiB available memory on the node where the printing process lives
------------------
     ethr =  2.09E-13,  avg # of iterations =  4.0

     negative rho (up, down):  3.857E-04 0.000E+00

     total cpu time spent up to now is      196.5 secs

     total energy              =    -181.57950465 Ry
     estimated scf accuracy    <          6.3E-12 Ry

     iteration # 19     ecut=    60.00 Ry     beta= 0.30
     CG style diagonalization

---- Real-time Memory Report at c_bands before calling an iterative solver
           193 MiB given to the printing process from OS
             0 MiB allocation reported by mallinfo(arena+hblkhd)
          1624 MiB available memory on the node where the printing process lives
------------------
     ethr =  1.00E-13,  avg # of iterations =  3.1

     negative rho (up, down):  3.858E-04 0.000E+00

     total cpu time spent up to now is      202.6 secs

     End of self-consistent calculation

          k = 0.0000 0.0000 0.0000 ( 10807 PWs)   bands (ev):

   -62.5019 -36.6495 -36.4378 -36.4301 -15.7319 -14.4298  -7.2529  -4.2508
    -4.1937  -3.4229  -3.1196  -3.1014  -1.6554   1.1343   1.1777   1.3776

     occupation numbers 
     1.0000   1.0000   1.0000   1.0000   1.0000   1.0000   1.0000   1.0000
     1.0000   1.0000   1.0000   1.0000   1.0000   0.0000   0.0000   0.0000

          k = 0.0000 0.0957 0.0000 ( 10803 PWs)   bands (ev):

   -62.4993 -36.6444 -36.4637 -36.4359 -15.6292 -14.3875  -7.1355  -4.4777
    -4.0864  -3.9029  -3.2631  -2.8015  -1.7059   1.0052   1.0957   1.3005

     occupation numbers 
     1.0000   1.0000   1.0000   1.0000   1.0000   1.0000   1.0000   1.0000
     1.0000   1.0000   1.0000   1.0000   1.0000   0.0000   0.0000   0.0000

          k = 0.0000 0.1915 0.0000 ( 10775 PWs)   bands (ev):

   -62.4923 -36.6306 -36.5339 -36.4517 -15.3373 -14.2675  -6.8400  -5.0007
    -4.5514  -3.7869  -3.6447  -2.7186  -1.9371   0.6577   0.9597   1.0323

     occupation numbers 
     1.0000   1.0000   1.0000   1.0000   1.0000   1.0000   1.0000   1.0000
     1.0000   1.0000   1.0000   1.0000   1.0000   0.0000   0.0000   0.0000

          k = 0.0000 0.2872 0.0000 ( 10735 PWs)   bands (ev):

   -62.4827 -36.6286 -36.6116 -36.4732 -14.9051 -14.0912  -6.6258  -5.4514
    -5.2113  -4.0733  -3.3664  -2.9671  -2.3650   0.5323   0.7644   1.2886

     occupation numbers 
     1.0000   1.0000   1.0000   1.0000   1.0000   1.0000   1.0000   1.0000
     1.0000   1.0000   1.0000   1.0000   1.0000   0.0000   0.0000   0.0000

          k = 0.0000 0.3830 0.0000 ( 10739 PWs)   bands (ev):

   -62.4732 -36.7219 -36.5926 -36.4947 -14.4201 -13.8976  -6.8721  -5.8193
    -5.5438  -4.4345  -3.2690  -2.9447  -2.6112   0.6182   0.7068   1.7792

     occupation numbers 
     1.0000   1.0000   1.0000   1.0000   1.0000   1.0000   1.0000   1.0000
     1.0000   1.0000   1.0000   1.0000   1.0000   0.0000   0.0000   0.0000

          k = 0.0000 0.4787 0.0000 ( 10677 PWs)   bands (ev):

   -62.4661 -36.7893 -36.5786 -36.5103 -14.0164 -13.7422  -7.2528  -6.2626
    -5.6340  -4.6691  -3.4619  -2.6511  -2.4429   0.6143   0.9874   2.1413

     occupation numbers 
     1.0000   1.0000   1.0000   1.0000   1.0000   1.0000   1.0000   1.0000
     1.0000   1.0000   1.0000   1.0000   1.0000   0.0000   0.0000   0.0000

          k = 0.0000-0.5745 0.0000 ( 10676 PWs)   bands (ev):

   -62.4636 -36.8138 -36.5735 -36.5160 -13.8546 -13.6818  -7.4157  -6.4265
    -5.7058  -4.7500  -3.5242  -2.5509  -2.2785   0.6423   1.1450   2.2583

     occupation numbers 
     1.0000   1.0000   1.0000   1.0000   1.0000   1.0000   1.0000   1.0000
     1.0000   1.0000   1.0000   1.0000   1.0000   0.0000   0.0000   0.0000

          k = 0.0833 0.0479 0.0000 ( 10799 PWs)   bands (ev):

   -62.4992 -36.6443 -36.4588 -36.4413 -15.6282 -14.3867  -7.1345  -4.4417
    -4.1267  -3.8969  -3.2816  -2.7909  -1.7039   1.0279   1.1223   1.2715

     occupation numbers 
     1.0000   1.0000   1.0000   1.0000   1.0000   1.0000   1.0000   1.0000
     1.0000   1.0000   1.0000   1.0000   1.0000   0.0000   0.0000   0.0000

          k = 0.0833 0.1436 0.0000 ( 10757 PWs)   bands (ev):

   -62.4944 -36.6349 -36.5086 -36.4504 -15.4308 -14.3054  -6.9245  -4.8335
    -4.3281  -3.9068  -3.6566  -2.6065  -1.8447   0.7671   0.8793   1.0804

     occupation numbers 
     1.0000   1.0000   1.0000   1.0000   1.0000   1.0000   1.0000   1.0000
     1.0000   1.0000   1.0000   1.0000   1.0000   0.0000   0.0000   0.0000

          k = 0.0833 0.2394 0.0000 ( 10739 PWs)   bands (ev):

   -62.4862 -36.6185 -36.5887 -36.4714 -15.0678 -14.1561  -6.6385  -5.3113
    -4.8770  -4.1947  -3.5900  -2.6398  -2.1857   0.4709   0.8606   0.9589

     occupation numbers 
     1.0000   1.0000   1.0000   1.0000   1.0000   1.0000   1.0000   1.0000
     1.0000   1.0000   1.0000   1.0000   1.0000   0.0000   0.0000   0.0000

          k = 0.0833 0.3351 0.0000 ( 10731 PWs)   bands (ev):

   -62.4766 -36.6790 -36.5995 -36.4965 -14.6056 -13.9680  -6.6617  -5.5290
    -5.4957  -4.5526  -3.3469  -2.9358  -2.4765   0.4199   0.8076   1.3579

     occupation numbers 
     1.0000   1.0000   1.0000   1.0000   1.0000   1.0000   1.0000   1.0000
     1.0000   1.0000   1.0000   1.0000   1.0000   0.0000   0.0000   0.0000

          k = 0.0833 0.4308 0.0000 ( 10715 PWs)   bands (ev):

   -62.4684 -36.7560 -36.5830 -36.5184 -14.1531 -13.7881  -7.0089  -6.1168
    -5.5275  -4.7160  -3.2696  -3.2298  -2.3657   0.5647   0.9153   1.8415

     occupation numbers 
     1.0000   1.0000   1.0000   1.0000   1.0000   1.0000   1.0000   1.0000
     1.0000   1.0000   1.0000   1.0000   1.0000   0.0000   0.0000   0.0000

          k = 0.0833 0.5266 0.0000 ( 10678 PWs)   bands (ev):

   -62.4635 -36.8001 -36.5734 -36.5310 -13.8606 -13.6752  -7.2751  -6.4588
    -5.6473  -4.7679  -3.4774  -3.0982  -2.1297   0.6508   1.1427   2.2380

     occupation numbers 
     1.0000   1.0000   1.0000   1.0000   1.0000   1.0000   1.0000   1.0000
     1.0000   1.0000   1.0000   1.0000   1.0000   0.0000   0.0000   0.0000

          k = 0.1667 0.0957 0.0000 ( 10746 PWs)   bands (ev):

   -62.4920 -36.6302 -36.5295 -36.4582 -15.3335 -14.2643  -6.8369  -4.9723
    -4.5425  -3.8261  -3.6725  -2.7075  -1.9296   0.6793   0.9679   0.9997

     occupation numbers 
     1.0000   1.0000   1.0000   1.0000   1.0000   1.0000   1.0000   1.0000
     1.0000   1.0000   1.0000   1.0000   1.0000   0.0000   0.0000   0.0000

          k = 0.1667 0.1915 0.0000 ( 10754 PWs)   bands (ev):

   -62.4860 -36.6182 -36.5865 -36.4752 -15.0650 -14.1536  -6.6371  -5.2964
    -4.8666  -4.2147  -3.6109  -2.6381  -2.1793   0.4750   0.8460   0.9636

     occupation numbers 
     1.0000   1.0000   1.0000   1.0000   1.0000   1.0000   1.0000   1.0000
     1.0000   1.0000   1.0000   1.0000   1.0000   0.0000   0.0000   0.0000

          k = 0.1667 0.2872 0.0000 ( 10755 PWs)   bands (ev):

   -62.4778 -36.6557 -36.6018 -36.5063 -14.6694 -13.9899  -6.5562  -5.4449
    -5.2961  -4.8109  -3.5855  -2.6767  -2.4097   0.3054   0.8574   1.0683

     occupation numbers 
     1.0000   1.0000   1.0000   1.0000   1.0000   1.0000   1.0000   1.0000
     1.0000   1.0000   1.0000   1.0000   1.0000   0.0000   0.0000   0.0000

          k = 0.1667 0.3830 0.0000 ( 10727 PWs)   bands (ev):

   -62.4695 -36.7206 -36.5853 -36.5409 -14.2304 -13.8083  -6.7440  -5.9922
    -5.3585  -4.9116  -3.8557  -2.9796  -2.3610   0.4571   0.9441   1.3909

     occupation numbers 
     1.0000   1.0000   1.0000   1.0000   1.0000   1.0000   1.0000   1.0000
     1.0000   1.0000   1.0000   1.0000   1.0000   0.0000   0.0000   0.0000

          k = 0.1667 0.4787 0.0000 ( 10694 PWs)   bands (ev):

   -62.4634 -36.7664 -36.5732 -36.5674 -13.8717 -13.6609  -6.9446  -6.5196
    -5.4658  -4.8249  -3.9718  -3.3505  -2.1164   0.5990   1.1791   1.7276

     occupation numbers 
     1.0000   1.0000   1.0000   1.0000   1.0000   1.0000   1.0000   1.0000
     1.0000   1.0000   1.0000   1.0000   1.0000   0.0000   0.0000   0.0000

          k = 0.1667 0.5745 0.0000 ( 10672 PWs)   bands (ev):

   -62.4612 -36.7829 -36.5773 -36.5688 -13.7302 -13.6032  -7.0191  -6.7110
    -5.5853  -4.7505  -3.9648  -3.5295  -1.9431   0.5269   1.4251   1.8757

     occupation numbers 
     1.0000   1.0000   1.0000   1.0000   1.0000   1.0000   1.0000   1.0000
     1.0000   1.0000   1.0000   1.0000   1.0000   0.0000   0.0000   0.0000

          k = 0.1667 0.0000 0.0000 ( 10757 PWs)   bands (ev):

   -62.4942 -36.6346 -36.5049 -36.4557 -15.4280 -14.3031  -6.9220  -4.8093
    -4.3285  -3.9395  -3.6633  -2.6030  -1.8413   0.7823   0.8770   1.0633

     occupation numbers 
     1.0000   1.0000   1.0000   1.0000   1.0000   1.0000   1.0000   1.0000
     1.0000   1.0000   1.0000   1.0000   1.0000   0.0000   0.0000   0.0000

          k = 0.2500 0.1436 0.0000 ( 10740 PWs)   bands (ev):

   -62.4823 -36.6255 -36.6109 -36.4805 -14.8971 -14.0842  -6.6231  -5.4253
    -5.2027  -4.1099  -3.4040  -2.9580  -2.3544   0.5452   0.7336   1.2896

     occupation numbers 
     1.0000   1.0000   1.0000   1.0000   1.0000   1.0000   1.0000   1.0000
     1.0000   1.0000   1.0000   1.0000   1.0000   0.0000   0.0000   0.0000

          k = 0.2500 0.2394 0.0000 ( 10745 PWs)   bands (ev):

   -62.4763 -36.6766 -36.5989 -36.5026 -14.5986 -13.9615  -6.6598  -5.5211
    -5.4725  -4.5791  -3.3793  -2.9367  -2.4669   0.4137   0.7979   1.3637

     occupation numbers 
     1.0000   1.0000   1.0000   1.0000   1.0000   1.0000   1.0000   1.0000
     1.0000   1.0000   1.0000   1.0000   1.0000   0.0000   0.0000   0.0000

          k = 0.2500 0.3351 0.0000 ( 10724 PWs)   bands (ev):

   -62.4693 -36.7193 -36.5850 -36.5443 -14.2262 -13.8042  -6.7420  -5.9920
    -5.3445  -4.9208  -3.8747  -2.9821  -2.3574   0.4555   0.9406   1.3917

     occupation numbers 
     1.0000   1.0000   1.0000   1.0000   1.0000   1.0000   1.0000   1.0000
     1.0000   1.0000   1.0000   1.0000   1.0000   0.0000   0.0000   0.0000

          k = 0.2500 0.4308 0.0000 ( 10709 PWs)   bands (ev):

   -62.4632 -36.7430 -36.5935 -36.5729 -13.8742 -13.6509  -6.7427  -6.5503
    -5.2296  -4.8637  -4.5479  -3.2733  -2.1334   0.5562   1.2052   1.4773

     occupation numbers 
     1.0000   1.0000   1.0000   1.0000   1.0000   1.0000   1.0000   1.0000
     1.0000   1.0000   1.0000   1.0000   1.0000   0.0000   0.0000   0.0000

          k = 0.2500 0.5266 0.0000 ( 10668 PWs)   bands (ev):

   -62.4596 -36.7486 -36.6301 -36.5659 -13.6561 -13.5533  -6.8942  -6.6187
    -5.4531  -4.8322  -4.6646  -3.6074  -1.8281   0.3067   1.5201   1.6676

     occupation numbers 
     1.0000   1.0000   1.0000   1.0000   1.0000   1.0000   1.0000   1.0000
     1.0000   1.0000   1.0000   1.0000   1.0000   0.0000   0.0000   0.0000

          k = 0.2500-0.0479 0.0000 ( 10743 PWs)   bands (ev):

   -62.4858 -36.6179 -36.5861 -36.4776 -15.0607 -14.1503  -6.6348  -5.2934
    -4.8745  -4.2135  -3.6172  -2.6345  -2.1829   0.4771   0.8496   0.9414

     occupation numbers 
     1.0000   1.0000   1.0000   1.0000   1.0000   1.0000   1.0000   1.0000
     1.0000   1.0000   1.0000   1.0000   1.0000   0.0000   0.0000   0.0000

          k = 0.3333 0.1915 0.0000 ( 10729 PWs)   bands (ev):

   -62.4725 -36.7201 -36.5916 -36.5027 -14.4072 -13.8860  -6.8696  -5.8155
    -5.5199  -4.4777  -3.2597  -2.9840  -2.5997   0.5969   0.7158   1.7770

     occupation numbers 
     1.0000   1.0000   1.0000   1.0000   1.0000   1.0000   1.0000   1.0000
     1.0000   1.0000   1.0000   1.0000   1.0000   0.0000   0.0000   0.0000

          k = 0.3333 0.2872 0.0000 ( 10705 PWs)   bands (ev):

   -62.4677 -36.7543 -36.5821 -36.5258 -14.1412 -13.7768  -7.0035  -6.1173
    -5.5087  -4.7456  -3.2690  -3.2635  -2.3569   0.5598   0.9107   1.8452

     occupation numbers 
     1.0000   1.0000   1.0000   1.0000   1.0000   1.0000   1.0000   1.0000
     1.0000   1.0000   1.0000   1.0000   1.0000   0.0000   0.0000   0.0000

          k = 0.3333 0.3830 0.0000 ( 10690 PWs)   bands (ev):

   -62.4629 -36.7650 -36.5729 -36.5725 -13.8625 -13.6521  -6.9397  -6.5253
    -5.4530  -4.8394  -3.9990  -3.3510  -2.1074   0.6003   1.1780   1.7249

     occupation numbers 
     1.0000   1.0000   1.0000   1.0000   1.0000   1.0000   1.0000   1.0000
     1.0000   1.0000   1.0000   1.0000   1.0000   0.0000   0.0000   0.0000

          k = 0.3333 0.4787 0.0000 ( 10665 PWs)   bands (ev):

   -62.4594 -36.7477 -36.6330 -36.5656 -13.6510 -13.5487  -6.8986  -6.6175
    -5.4443  -4.8473  -4.6714  -3.6056  -1.8244   0.3090   1.5181   1.6726

     occupation numbers 
     1.0000   1.0000   1.0000   1.0000   1.0000   1.0000   1.0000   1.0000
     1.0000   1.0000   1.0000   1.0000   1.0000   0.0000   0.0000   0.0000

          k = 0.3333 0.5745 0.0000 ( 10664 PWs)   bands (ev):

   -62.4581 -36.7200 -36.6764 -36.5630 -13.5723 -13.5078  -7.0451  -6.2251
    -5.7044  -5.1795  -4.5129  -3.7933  -1.6374   0.0733   1.4211   1.9295

     occupation numbers 
     1.0000   1.0000   1.0000   1.0000   1.0000   1.0000   1.0000   1.0000
     1.0000   1.0000   1.0000   1.0000   1.0000   0.0000   0.0000   0.0000

          k = 0.3333-0.0957 0.0000 ( 10746 PWs)   bands (ev):

   -62.4760 -36.6778 -36.5986 -36.5034 -14.5937 -13.9580  -6.6628  -5.5267
    -5.4757  -4.5837  -3.3603  -2.9288  -2.4870   0.4114   0.8156   1.3343

     occupation numbers 
     1.0000   1.0000   1.0000   1.0000   1.0000   1.0000   1.0000   1.0000
     1.0000   1.0000   1.0000   1.0000   1.0000   0.0000   0.0000   0.0000

          k = 0.3333 0.0000 0.0000 ( 10743 PWs)   bands (ev):

   -62.4773 -36.6562 -36.6011 -36.5099 -14.6602 -13.9829  -6.5586  -5.4411
    -5.3028  -4.8211  -3.5771  -2.6696  -2.4280   0.3034   0.8731   1.0375

     occupation numbers 
     1.0000   1.0000   1.0000   1.0000   1.0000   1.0000   1.0000   1.0000
     1.0000   1.0000   1.0000   1.0000   1.0000   0.0000   0.0000   0.0000

          k = 0.4167 0.2394 0.0000 ( 10689 PWs)   bands (ev):

   -62.4653 -36.7884 -36.5774 -36.5189 -13.9994 -13.7265  -7.2476  -6.2651
    -5.6200  -4.7164  -3.4498  -2.6947  -2.4254   0.6076   0.9958   2.1353

     occupation numbers 
     1.0000   1.0000   1.0000   1.0000   1.0000   1.0000   1.0000   1.0000
     1.0000   1.0000   1.0000   1.0000   1.0000   0.0000   0.0000   0.0000

          k = 0.4167 0.3351 0.0000 ( 10682 PWs)   bands (ev):

   -62.4628 -36.7992 -36.5722 -36.5390 -13.8445 -13.6601  -7.2685  -6.4653
    -5.6378  -4.8039  -3.4700  -3.1305  -2.1190   0.6522   1.1467   2.2374

     occupation numbers 
     1.0000   1.0000   1.0000   1.0000   1.0000   1.0000   1.0000   1.0000
     1.0000   1.0000   1.0000   1.0000   1.0000   0.0000   0.0000   0.0000

          k = 0.4167 0.4308 0.0000 ( 10688 PWs)   bands (ev):

   -62.4606 -36.7824 -36.5834 -36.5679 -13.7166 -13.5910  -7.0171  -6.7206
    -5.5775  -4.7732  -3.9865  -3.5227  -1.9382   0.5334   1.4384   1.8660

     occupation numbers 
     1.0000   1.0000   1.0000   1.0000   1.0000   1.0000   1.0000   1.0000
     1.0000   1.0000   1.0000   1.0000   1.0000   0.0000   0.0000   0.0000

          k = 0.4167 0.5266 0.0000 ( 10683 PWs)   bands (ev):

   -62.4593 -36.7489 -36.6333 -36.5653 -13.6466 -13.5455  -6.9019  -6.6269
    -5.4457  -4.8365  -4.6788  -3.5996  -1.8351   0.3197   1.5140   1.6867

     occupation numbers 
     1.0000   1.0000   1.0000   1.0000   1.0000   1.0000   1.0000   1.0000
     1.0000   1.0000   1.0000   1.0000   1.0000   0.0000   0.0000   0.0000

          k = 0.4167-0.1436 0.0000 ( 10715 PWs)   bands (ev):

   -62.4676 -36.7556 -36.5818 -36.5259 -14.1370 -13.7741  -7.0104  -6.1199
    -5.5097  -4.7543  -3.2590  -3.2409  -2.3812   0.5543   0.9386   1.8145

     occupation numbers 
     1.0000   1.0000   1.0000   1.0000   1.0000   1.0000   1.0000   1.0000
     1.0000   1.0000   1.0000   1.0000   1.0000   0.0000   0.0000   0.0000

          k = 0.4167-0.0479 0.0000 ( 10735 PWs)   bands (ev):

   -62.4689 -36.7215 -36.5844 -36.5455 -14.2170 -13.7977  -6.7535  -5.9990
    -5.3476  -4.9320  -3.8477  -2.9712  -2.3845   0.4524   0.9761   1.3627

     occupation numbers 
     1.0000   1.0000   1.0000   1.0000   1.0000   1.0000   1.0000   1.0000
     1.0000   1.0000   1.0000   1.0000   1.0000   0.0000   0.0000   0.0000

          k =-0.5000-0.2872 0.0000 ( 10692 PWs)   bands (ev):

   -62.4627 -36.8133 -36.5721 -36.5248 -13.8358 -13.6645  -7.4091  -6.4317
    -5.6973  -4.7986  -3.5106  -2.5968  -2.2574   0.6430   1.1544   2.2500

     occupation numbers 
     1.0000   1.0000   1.0000   1.0000   1.0000   1.0000   1.0000   1.0000
     1.0000   1.0000   1.0000   1.0000   1.0000   0.0000   0.0000   0.0000

          k =-0.5000-0.1915 0.0000 ( 10692 PWs)   bands (ev):

   -62.4627 -36.7997 -36.5722 -36.5390 -13.8427 -13.6590  -7.2720  -6.4660
    -5.6375  -4.8084  -3.4652  -3.1214  -2.1307   0.6529   1.1596   2.2099

     occupation numbers 
     1.0000   1.0000   1.0000   1.0000   1.0000   1.0000   1.0000   1.0000
     1.0000   1.0000   1.0000   1.0000   1.0000   0.0000   0.0000   0.0000

          k =-0.5000-0.0957 0.0000 ( 10685 PWs)   bands (ev):

   -62.4627 -36.7669 -36.5731 -36.5722 -13.8564 -13.6481  -6.9512  -6.5292
    -5.4542  -4.8497  -3.9799  -3.3409  -2.1287   0.6055   1.2079   1.7071

     occupation numbers 
     1.0000   1.0000   1.0000   1.0000   1.0000   1.0000   1.0000   1.0000
     1.0000   1.0000   1.0000   1.0000   1.0000   0.0000   0.0000   0.0000

          k =-0.5000-0.0000 0.0000 ( 10711 PWs)   bands (ev):

   -62.4627 -36.7451 -36.5955 -36.5722 -13.8631 -13.6426  -6.7578  -6.5585
    -5.2324  -4.8783  -4.5272  -3.2634  -2.1547   0.5656   1.2390   1.4611

     occupation numbers 
     1.0000   1.0000   1.0000   1.0000   1.0000   1.0000   1.0000   1.0000
     1.0000   1.0000   1.0000   1.0000   1.0000   0.0000   0.0000   0.0000

     highest occupied, lowest unoccupied level (ev):    -1.6374    0.0733

!    total energy              =    -181.57950465 Ry
     estimated scf accuracy    <          2.6E-13 Ry

     The total energy is the sum of the following terms:
     one-electron contribution =   -1386.28265679 Ry
     hartree contribution      =     692.73447471 Ry
     xc contribution           =     -29.69938704 Ry
     ewald contribution        =     541.66806447 Ry

     convergence has been achieved in  19 iterations

     negative rho (up, down):  3.858E-04 0.000E+00

     Forces acting on atoms (cartesian axes, Ry/au):

     atom    1 type  1   force =     0.00000000   -0.00120912    0.00000000
     atom    2 type  2   force =     0.00000000    0.00060456    0.00193494
     atom    3 type  2   force =     0.00000000    0.00060456   -0.00193494
     The non-local contrib.  to forces
     atom    1 type  1   force =     0.00000000    0.00029793    0.00000000
     atom    2 type  2   force =     0.00000000    0.00028733   -0.27195440
     atom    3 type  2   force =     0.00000000    0.00028733    0.27195440
     The ionic contribution  to forces
     atom    1 type  1   force =     0.00000000   -0.05407993    0.00000000
     atom    2 type  2   force =    -0.00000000    0.02703996   37.43935315
     atom    3 type  2   force =    -0.00000000    0.02703996  -37.43935315
     The local contribution  to forces
     atom    1 type  1   force =     0.00000000    0.05262768    0.00000000
     atom    2 type  2   force =    -0.00000000   -0.02668405  -37.16787343
     atom    3 type  2   force =    -0.00000000   -0.02668405   37.16787343
     The core correction contribution to forces
     atom    1 type  1   force =    -0.00000000   -0.00005503   -0.00000000
     atom    2 type  2   force =     0.00000000   -0.00003892    0.00240906
     atom    3 type  2   force =     0.00000000   -0.00003892   -0.00240906
     The Hubbard contrib.    to forces
     atom    1 type  1   force =     0.00000000    0.00000000    0.00000000
     atom    2 type  2   force =     0.00000000    0.00000000    0.00000000
     atom    3 type  2   force =     0.00000000    0.00000000    0.00000000
     The SCF correction term to forces
     atom    1 type  1   force =    -0.00000000   -0.00000000   -0.00000000
     atom    2 type  2   force =     0.00000000    0.00000000    0.00000056
     atom    3 type  2   force =     0.00000000    0.00000000   -0.00000056

     Total force =     0.003111     Total SCF correction =     0.000001


     Computing stress (Cartesian axis) and pressure


     negative rho (up, down):  3.858E-04 0.000E+00
          total   stress  (Ry/bohr**3)                   (kbar)     P=        1.64
   0.00002322   0.00000000   0.00000000            3.42        0.00        0.00
   0.00000000   0.00000715   0.00000000            0.00        1.05        0.00
   0.00000000   0.00000000   0.00000305            0.00        0.00        0.45

     kinetic stress (kbar)   4898.37      0.00      0.00
                                0.00   4894.24      0.00
                                0.00      0.00   4940.68

     local   stress (kbar)-148474.04      0.00     -0.00
                                0.00-148440.31     -0.00
                               -0.00     -0.00 145446.14

     nonloc. stress (kbar)   2238.76      0.00      0.00
                                0.00   2239.32      0.00
                                0.00      0.00   2229.34

     hartree stress (kbar)  72815.79     -0.00     -0.00
                               -0.00  72805.24      0.00
                               -0.00      0.00 -71020.08

     exc-cor stress (kbar)   -415.86     -0.00     -0.00
                               -0.00   -415.92     -0.00
                               -0.00     -0.00   -417.00

     corecor stress (kbar)   -550.62      0.00     -0.00
                                0.00   -550.61      0.00
                               -0.00      0.00   -551.05

     ewald   stress (kbar)  69491.01     -0.00      0.00
                               -0.00  69469.10     -0.00
                                0.00     -0.00 -80627.58

     hubbard stress (kbar)      0.00      0.00      0.00
                                0.00      0.00      0.00
                                0.00      0.00      0.00

     DFT-D   stress (kbar)      0.00      0.00      0.00
                                0.00      0.00      0.00
                                0.00      0.00      0.00

     XDM     stress (kbar)      0.00      0.00      0.00
                                0.00      0.00      0.00
                                0.00      0.00      0.00

     dft-nl  stress (kbar)      0.00      0.00      0.00
                                0.00      0.00      0.00
                                0.00      0.00      0.00

     TS-vdW  stress (kbar)      0.00      0.00      0.00
                                0.00      0.00      0.00
                                0.00      0.00      0.00

     MDB     stress (kbar)      0.00      0.00      0.00
                                0.00      0.00      0.00
                                0.00      0.00      0.00

     3D-RISM stress (kbar)      0.00      0.00      0.00
                                0.00      0.00      0.00
                                0.00      0.00      0.00


     BFGS Geometry Optimization
     Energy error            =      9.7E-06 Ry
     Gradient error          =      1.9E-03 Ry/Bohr

     number of scf cycles    =   1
     number of bfgs steps    =   0

     energy             new  =    -181.5795046495 Ry

     new trust radius        =       0.0020271827 bohr
     new conv_thr            =            1.0E-12 Ry


ATOMIC_POSITIONS (crystal)
Mo              -0.0001160674       -0.0002321347        0.5000000000
S                0.6667247003        0.3334494007        0.5675260528
S                0.6667247003        0.3334494007        0.4324739472



     Writing config-only to output data dir ./tmp/mos2.save/ :
     XML data file
     NEW-OLD atomic charge density approx. for the potential

     negative rho (up, down):  3.856E-04 0.000E+00

     total cpu time spent up to now is      211.6 secs

     Self-consistent Calculation

     iteration #  1     ecut=    60.00 Ry     beta= 0.30
     CG style diagonalization

---- Real-time Memory Report at c_bands before calling an iterative solver
           204 MiB given to the printing process from OS
             0 MiB allocation reported by mallinfo(arena+hblkhd)
          1414 MiB available memory on the node where the printing process lives
------------------
     ethr =  1.00E-06,  avg # of iterations =  3.2

     Threshold (ethr) on eigenvalues was too large:
     Diagonalizing with lowered threshold

     CG style diagonalization

---- Real-time Memory Report at c_bands before calling an iterative solver
           204 MiB given to the printing process from OS
             0 MiB allocation reported by mallinfo(arena+hblkhd)
          1992 MiB available memory on the node where the printing process lives
------------------
     ethr =  3.53E-09,  avg # of iterations =  7.2

     negative rho (up, down):  3.856E-04 0.000E+00

     total cpu time spent up to now is      227.9 secs

     total energy              =    -181.57951207 Ry
     estimated scf accuracy    <       0.00000049 Ry

     iteration #  2     ecut=    60.00 Ry     beta= 0.30
     CG style diagonalization

---- Real-time Memory Report at c_bands before calling an iterative solver
           204 MiB given to the printing process from OS
             0 MiB allocation reported by mallinfo(arena+hblkhd)
          2252 MiB available memory on the node where the printing process lives
------------------
     ethr =  1.90E-09,  avg # of iterations =  3.8

     negative rho (up, down):  3.856E-04 0.000E+00

     total cpu time spent up to now is      235.8 secs

     total energy              =    -181.57951216 Ry
     estimated scf accuracy    <       0.00000028 Ry

     iteration #  3     ecut=    60.00 Ry     beta= 0.30
     CG style diagonalization

---- Real-time Memory Report at c_bands before calling an iterative solver
           204 MiB given to the printing process from OS
             0 MiB allocation reported by mallinfo(arena+hblkhd)
          2541 MiB available memory on the node where the printing process lives
------------------
     ethr =  1.09E-09,  avg # of iterations =  3.3

     negative rho (up, down):  3.857E-04 0.000E+00

     total cpu time spent up to now is      242.4 secs

     total energy              =    -181.57951219 Ry
     estimated scf accuracy    <       0.00000005 Ry

     iteration #  4     ecut=    60.00 Ry     beta= 0.30
     CG style diagonalization

---- Real-time Memory Report at c_bands before calling an iterative solver
           204 MiB given to the printing process from OS
             0 MiB allocation reported by mallinfo(arena+hblkhd)
          2677 MiB available memory on the node where the printing process lives
------------------
     ethr =  1.85E-10,  avg # of iterations =  4.3

     negative rho (up, down):  3.857E-04 0.000E+00

     total cpu time spent up to now is      250.8 secs

     total energy              =    -181.57951219 Ry
     estimated scf accuracy    <       0.00000004 Ry

     iteration #  5     ecut=    60.00 Ry     beta= 0.30
     CG style diagonalization

---- Real-time Memory Report at c_bands before calling an iterative solver
           204 MiB given to the printing process from OS
             0 MiB allocation reported by mallinfo(arena+hblkhd)
          2604 MiB available memory on the node where the printing process lives
------------------
     ethr =  1.47E-10,  avg # of iterations =  3.3

     negative rho (up, down):  3.857E-04 0.000E+00

     total cpu time spent up to now is      257.6 secs

     total energy              =    -181.57951220 Ry
     estimated scf accuracy    <          1.1E-09 Ry

     iteration #  6     ecut=    60.00 Ry     beta= 0.30
     CG style diagonalization

---- Real-time Memory Report at c_bands before calling an iterative solver
           204 MiB given to the printing process from OS
             0 MiB allocation reported by mallinfo(arena+hblkhd)
          2265 MiB available memory on the node where the printing process lives
------------------
     ethr =  4.12E-12,  avg # of iterations =  5.0

     negative rho (up, down):  3.857E-04 0.000E+00

     total cpu time spent up to now is      267.0 secs

     total energy              =    -181.57951220 Ry
     estimated scf accuracy    <          1.8E-09 Ry

     iteration #  7     ecut=    60.00 Ry     beta= 0.30
     CG style diagonalization

---- Real-time Memory Report at c_bands before calling an iterative solver
           204 MiB given to the printing process from OS
             0 MiB allocation reported by mallinfo(arena+hblkhd)
          2717 MiB available memory on the node where the printing process lives
------------------
     ethr =  4.12E-12,  avg # of iterations =  3.1

     negative rho (up, down):  3.857E-04 0.000E+00

     total cpu time spent up to now is      273.5 secs

     total energy              =    -181.57951220 Ry
     estimated scf accuracy    <          3.1E-10 Ry

     iteration #  8     ecut=    60.00 Ry     beta= 0.30
     CG style diagonalization

---- Real-time Memory Report at c_bands before calling an iterative solver
           204 MiB given to the printing process from OS
             0 MiB allocation reported by mallinfo(arena+hblkhd)
          2192 MiB available memory on the node where the printing process lives
------------------
     ethr =  1.18E-12,  avg # of iterations =  3.9

     negative rho (up, down):  3.857E-04 0.000E+00

     total cpu time spent up to now is      281.3 secs

     total energy              =    -181.57951220 Ry
     estimated scf accuracy    <          4.1E-11 Ry

     iteration #  9     ecut=    60.00 Ry     beta= 0.30
     CG style diagonalization

---- Real-time Memory Report at c_bands before calling an iterative solver
           204 MiB given to the printing process from OS
             0 MiB allocation reported by mallinfo(arena+hblkhd)
          2353 MiB available memory on the node where the printing process lives
------------------
     ethr =  1.56E-13,  avg # of iterations =  3.5

     negative rho (up, down):  3.857E-04 0.000E+00

     total cpu time spent up to now is      288.3 secs

     total energy              =    -181.57951220 Ry
     estimated scf accuracy    <          4.0E-11 Ry

     iteration # 10     ecut=    60.00 Ry     beta= 0.30
     CG style diagonalization

---- Real-time Memory Report at c_bands before calling an iterative solver
           204 MiB given to the printing process from OS
             0 MiB allocation reported by mallinfo(arena+hblkhd)
          2217 MiB available memory on the node where the printing process lives
------------------
     ethr =  1.55E-13,  avg # of iterations =  3.2

     negative rho (up, down):  3.857E-04 0.000E+00

     total cpu time spent up to now is      294.9 secs

     total energy              =    -181.57951220 Ry
     estimated scf accuracy    <          2.7E-12 Ry

     iteration # 11     ecut=    60.00 Ry     beta= 0.30
     CG style diagonalization

---- Real-time Memory Report at c_bands before calling an iterative solver
           204 MiB given to the printing process from OS
             0 MiB allocation reported by mallinfo(arena+hblkhd)
          2077 MiB available memory on the node where the printing process lives
------------------
     ethr =  1.00E-13,  avg # of iterations =  3.0

     negative rho (up, down):  3.857E-04 0.000E+00

     total cpu time spent up to now is      301.0 secs

     End of self-consistent calculation

          k = 0.0000 0.0000 0.0000 ( 10807 PWs)   bands (ev):

   -62.5017 -36.6490 -36.4372 -36.4293 -15.7279 -14.4294  -7.2494  -4.2433
    -4.1882  -3.4248  -3.1189  -3.0920  -1.6583   1.1393   1.1729   1.3731

     occupation numbers 
     1.0000   1.0000   1.0000   1.0000   1.0000   1.0000   1.0000   1.0000
     1.0000   1.0000   1.0000   1.0000   1.0000   0.0000   0.0000   0.0000

          k = 0.0000 0.0957 0.0000 ( 10803 PWs)   bands (ev):

   -62.4992 -36.6439 -36.4631 -36.4351 -15.6253 -14.3871  -7.1319  -4.4704
    -4.0808  -3.9034  -3.2541  -2.8019  -1.7088   1.0094   1.0914   1.3001

     occupation numbers 
     1.0000   1.0000   1.0000   1.0000   1.0000   1.0000   1.0000   1.0000
     1.0000   1.0000   1.0000   1.0000   1.0000   0.0000   0.0000   0.0000

          k = 0.0000 0.1915 0.0000 ( 10775 PWs)   bands (ev):

   -62.4922 -36.6301 -36.5333 -36.4509 -15.3334 -14.2669  -6.8358  -4.9944
    -4.5511  -3.7814  -3.6364  -2.7191  -1.9397   0.6541   0.9620   1.0319

     occupation numbers 
     1.0000   1.0000   1.0000   1.0000   1.0000   1.0000   1.0000   1.0000
     1.0000   1.0000   1.0000   1.0000   1.0000   0.0000   0.0000   0.0000

          k = 0.0000 0.2872 0.0000 ( 10735 PWs)   bands (ev):

   -62.4826 -36.6279 -36.6112 -36.4724 -14.9011 -14.0904  -6.6205  -5.4469
    -5.2100  -4.0656  -3.3611  -2.9683  -2.3672   0.5296   0.7640   1.2895

     occupation numbers 
     1.0000   1.0000   1.0000   1.0000   1.0000   1.0000   1.0000   1.0000
     1.0000   1.0000   1.0000   1.0000   1.0000   0.0000   0.0000   0.0000

          k = 0.0000 0.3830 0.0000 ( 10739 PWs)   bands (ev):

   -62.4731 -36.7211 -36.5922 -36.4939 -14.4159 -13.8966  -6.8672  -5.8172
    -5.5401  -4.4272  -3.2714  -2.9397  -2.6129   0.6182   0.7053   1.7797

     occupation numbers 
     1.0000   1.0000   1.0000   1.0000   1.0000   1.0000   1.0000   1.0000
     1.0000   1.0000   1.0000   1.0000   1.0000   0.0000   0.0000   0.0000

          k = 0.0000 0.4787 0.0000 ( 10677 PWs)   bands (ev):

   -62.4660 -36.7885 -36.5782 -36.5095 -14.0119 -13.7410  -7.2494  -6.2601
    -5.6299  -4.6620  -3.4652  -2.6465  -2.4441   0.6147   0.9869   2.1420

     occupation numbers 
     1.0000   1.0000   1.0000   1.0000   1.0000   1.0000   1.0000   1.0000
     1.0000   1.0000   1.0000   1.0000   1.0000   0.0000   0.0000   0.0000

          k = 0.0000-0.5745 0.0000 ( 10676 PWs)   bands (ev):

   -62.4635 -36.8131 -36.5731 -36.5152 -13.8499 -13.6805  -7.4131  -6.4237
    -5.7014  -4.7429  -3.5278  -2.5465  -2.2798   0.6430   1.1450   2.2593

     occupation numbers 
     1.0000   1.0000   1.0000   1.0000   1.0000   1.0000   1.0000   1.0000
     1.0000   1.0000   1.0000   1.0000   1.0000   0.0000   0.0000   0.0000

          k = 0.0833 0.0479 0.0000 ( 10799 PWs)   bands (ev):

   -62.4991 -36.6439 -36.4581 -36.4407 -15.6243 -14.3862  -7.1309  -4.4357
    -4.1198  -3.8945  -3.2784  -2.7886  -1.7064   1.0261   1.1203   1.2686

     occupation numbers 
     1.0000   1.0000   1.0000   1.0000   1.0000   1.0000   1.0000   1.0000
     1.0000   1.0000   1.0000   1.0000   1.0000   0.0000   0.0000   0.0000

          k = 0.0833 0.1436 0.0000 ( 10757 PWs)   bands (ev):

   -62.4943 -36.6344 -36.5079 -36.4496 -15.4270 -14.3047  -6.9207  -4.8271
    -4.3272  -3.9010  -3.6499  -2.6064  -1.8470   0.7639   0.8807   1.0789

     occupation numbers 
     1.0000   1.0000   1.0000   1.0000   1.0000   1.0000   1.0000   1.0000
     1.0000   1.0000   1.0000   1.0000   1.0000   0.0000   0.0000   0.0000

          k = 0.0833 0.2394 0.0000 ( 10739 PWs)   bands (ev):

   -62.4860 -36.6180 -36.5880 -36.4706 -15.0639 -14.1553  -6.6338  -5.3061
    -4.8760  -4.1881  -3.5847  -2.6401  -2.1876   0.4684   0.8594   0.9596

     occupation numbers 
     1.0000   1.0000   1.0000   1.0000   1.0000   1.0000   1.0000   1.0000
     1.0000   1.0000   1.0000   1.0000   1.0000   0.0000   0.0000   0.0000

          k = 0.0833 0.3351 0.0000 ( 10731 PWs)   bands (ev):

   -62.4765 -36.6783 -36.5990 -36.4957 -14.6016 -13.9670  -6.6563  -5.5267
    -5.4920  -4.5470  -3.3431  -2.9367  -2.4768   0.4182   0.8068   1.3577

     occupation numbers 
     1.0000   1.0000   1.0000   1.0000   1.0000   1.0000   1.0000   1.0000
     1.0000   1.0000   1.0000   1.0000   1.0000   0.0000   0.0000   0.0000

          k = 0.0833 0.4308 0.0000 ( 10715 PWs)   bands (ev):

   -62.4682 -36.7553 -36.5826 -36.5175 -14.1488 -13.7868  -7.0048  -6.1137
    -5.5237  -4.7106  -3.2718  -3.2275  -2.3645   0.5637   0.9153   1.8406

     occupation numbers 
     1.0000   1.0000   1.0000   1.0000   1.0000   1.0000   1.0000   1.0000
     1.0000   1.0000   1.0000   1.0000   1.0000   0.0000   0.0000   0.0000

          k = 0.0833 0.5266 0.0000 ( 10678 PWs)   bands (ev):

   -62.4634 -36.7993 -36.5730 -36.5301 -13.8561 -13.6738  -7.2723  -6.4554
    -5.6430  -4.7622  -3.4806  -3.0959  -2.1285   0.6511   1.1426   2.2365

     occupation numbers 
     1.0000   1.0000   1.0000   1.0000   1.0000   1.0000   1.0000   1.0000
     1.0000   1.0000   1.0000   1.0000   1.0000   0.0000   0.0000   0.0000

          k = 0.1667 0.0957 0.0000 ( 10746 PWs)   bands (ev):

   -62.4919 -36.6298 -36.5287 -36.4575 -15.3297 -14.2634  -6.8330  -4.9672
    -4.5390  -3.8195  -3.6689  -2.7078  -1.9307   0.6767   0.9662   0.9972

     occupation numbers 
     1.0000   1.0000   1.0000   1.0000   1.0000   1.0000   1.0000   1.0000
     1.0000   1.0000   1.0000   1.0000   1.0000   0.0000   0.0000   0.0000

          k = 0.1667 0.1915 0.0000 ( 10754 PWs)   bands (ev):

   -62.4859 -36.6178 -36.5857 -36.4744 -15.0612 -14.1526  -6.6327  -5.2916
    -4.8637  -4.2107  -3.6051  -2.6385  -2.1803   0.4729   0.8437   0.9632

     occupation numbers 
     1.0000   1.0000   1.0000   1.0000   1.0000   1.0000   1.0000   1.0000
     1.0000   1.0000   1.0000   1.0000   1.0000   0.0000   0.0000   0.0000

          k = 0.1667 0.2872 0.0000 ( 10755 PWs)   bands (ev):

   -62.4777 -36.6550 -36.6014 -36.5055 -14.6655 -13.9887  -6.5509  -5.4413
    -5.2921  -4.8083  -3.5814  -2.6772  -2.4094   0.3035   0.8561   1.0674

     occupation numbers 
     1.0000   1.0000   1.0000   1.0000   1.0000   1.0000   1.0000   1.0000
     1.0000   1.0000   1.0000   1.0000   1.0000   0.0000   0.0000   0.0000

          k = 0.1667 0.3830 0.0000 ( 10727 PWs)   bands (ev):

   -62.4694 -36.7199 -36.5849 -36.5400 -14.2264 -13.8069  -6.7392  -5.9876
    -5.3551  -4.9094  -3.8533  -2.9808  -2.3592   0.4548   0.9446   1.3891

     occupation numbers 
     1.0000   1.0000   1.0000   1.0000   1.0000   1.0000   1.0000   1.0000
     1.0000   1.0000   1.0000   1.0000   1.0000   0.0000   0.0000   0.0000

          k = 0.1667 0.4787 0.0000 ( 10694 PWs)   bands (ev):

   -62.4633 -36.7657 -36.5728 -36.5666 -13.8674 -13.6593  -6.9413  -6.5149
    -5.4620  -4.8221  -3.9696  -3.3528  -2.1144   0.5985   1.1790   1.7245

     occupation numbers 
     1.0000   1.0000   1.0000   1.0000   1.0000   1.0000   1.0000   1.0000
     1.0000   1.0000   1.0000   1.0000   1.0000   0.0000   0.0000   0.0000

          k = 0.1667 0.5745 0.0000 ( 10672 PWs)   bands (ev):

   -62.4610 -36.7822 -36.5764 -36.5684 -13.7258 -13.6015  -7.0166  -6.7063
    -5.5811  -4.7471  -3.9626  -3.5326  -1.9414   0.5280   1.4239   1.8716

     occupation numbers 
     1.0000   1.0000   1.0000   1.0000   1.0000   1.0000   1.0000   1.0000
     1.0000   1.0000   1.0000   1.0000   1.0000   0.0000   0.0000   0.0000

          k = 0.1667 0.0000 0.0000 ( 10757 PWs)   bands (ev):

   -62.4941 -36.6342 -36.5040 -36.4551 -15.4242 -14.3023  -6.9183  -4.8045
    -4.3240  -3.9323  -3.6618  -2.6020  -1.8425   0.7799   0.8739   1.0606

     occupation numbers 
     1.0000   1.0000   1.0000   1.0000   1.0000   1.0000   1.0000   1.0000
     1.0000   1.0000   1.0000   1.0000   1.0000   0.0000   0.0000   0.0000

          k = 0.2500 0.1436 0.0000 ( 10740 PWs)   bands (ev):

   -62.4821 -36.6246 -36.6105 -36.4799 -14.8935 -14.0827  -6.6184  -5.4220
    -5.1994  -4.1060  -3.3980  -2.9594  -2.3538   0.5423   0.7322   1.2875

     occupation numbers 
     1.0000   1.0000   1.0000   1.0000   1.0000   1.0000   1.0000   1.0000
     1.0000   1.0000   1.0000   1.0000   1.0000   0.0000   0.0000   0.0000

          k = 0.2500 0.2394 0.0000 ( 10745 PWs)   bands (ev):

   -62.4761 -36.6757 -36.5985 -36.5019 -14.5950 -13.9598  -6.6546  -5.5174
    -5.4699  -4.5766  -3.3741  -2.9372  -2.4662   0.4123   0.7960   1.3612

     occupation numbers 
     1.0000   1.0000   1.0000   1.0000   1.0000   1.0000   1.0000   1.0000
     1.0000   1.0000   1.0000   1.0000   1.0000   0.0000   0.0000   0.0000

          k = 0.2500 0.3351 0.0000 ( 10724 PWs)   bands (ev):

   -62.4691 -36.7185 -36.5846 -36.5435 -14.2224 -13.8024  -6.7370  -5.9873
    -5.3423  -4.9199  -3.8711  -2.9825  -2.3554   0.4534   0.9408   1.3888

     occupation numbers 
     1.0000   1.0000   1.0000   1.0000   1.0000   1.0000   1.0000   1.0000
     1.0000   1.0000   1.0000   1.0000   1.0000   0.0000   0.0000   0.0000

          k = 0.2500 0.4308 0.0000 ( 10709 PWs)   bands (ev):

   -62.4631 -36.7422 -36.5927 -36.5725 -13.8703 -13.6489  -6.7387  -6.5453
    -5.2273  -4.8630  -4.5448  -3.2744  -2.1310   0.5556   1.2050   1.4737

     occupation numbers 
     1.0000   1.0000   1.0000   1.0000   1.0000   1.0000   1.0000   1.0000
     1.0000   1.0000   1.0000   1.0000   1.0000   0.0000   0.0000   0.0000

          k = 0.2500 0.5266 0.0000 ( 10668 PWs)   bands (ev):

   -62.4595 -36.7478 -36.6291 -36.5655 -13.6520 -13.5512  -6.8891  -6.6159
    -5.4497  -4.8296  -4.6633  -3.6095  -1.8260   0.3087   1.5162   1.6654

     occupation numbers 
     1.0000   1.0000   1.0000   1.0000   1.0000   1.0000   1.0000   1.0000
     1.0000   1.0000   1.0000   1.0000   1.0000   0.0000   0.0000   0.0000

          k = 0.2500-0.0479 0.0000 ( 10743 PWs)   bands (ev):

   -62.4856 -36.6174 -36.5851 -36.4770 -15.0571 -14.1490  -6.6305  -5.2898
    -4.8705  -4.2109  -3.6108  -2.6354  -2.1820   0.4731   0.8487   0.9398

     occupation numbers 
     1.0000   1.0000   1.0000   1.0000   1.0000   1.0000   1.0000   1.0000
     1.0000   1.0000   1.0000   1.0000   1.0000   0.0000   0.0000   0.0000

          k = 0.3333 0.1915 0.0000 ( 10729 PWs)   bands (ev):

   -62.4724 -36.7191 -36.5912 -36.5020 -14.4037 -13.8839  -6.8647  -5.8133
    -5.5179  -4.4735  -3.2611  -2.9789  -2.5979   0.5966   0.7136   1.7741

     occupation numbers 
     1.0000   1.0000   1.0000   1.0000   1.0000   1.0000   1.0000   1.0000
     1.0000   1.0000   1.0000   1.0000   1.0000   0.0000   0.0000   0.0000

          k = 0.3333 0.2872 0.0000 ( 10705 PWs)   bands (ev):

   -62.4676 -36.7533 -36.5817 -36.5251 -14.1376 -13.7744  -6.9990  -6.1145
    -5.5067  -4.7432  -3.2693  -3.2592  -2.3551   0.5597   0.9097   1.8404

     occupation numbers 
     1.0000   1.0000   1.0000   1.0000   1.0000   1.0000   1.0000   1.0000
     1.0000   1.0000   1.0000   1.0000   1.0000   0.0000   0.0000   0.0000

          k = 0.3333 0.3830 0.0000 ( 10690 PWs)   bands (ev):

   -62.4628 -36.7641 -36.5722 -36.5721 -13.8587 -13.6496  -6.9357  -6.5214
    -5.4509  -4.8385  -3.9958  -3.3514  -2.1050   0.6005   1.1778   1.7205

     occupation numbers 
     1.0000   1.0000   1.0000   1.0000   1.0000   1.0000   1.0000   1.0000
     1.0000   1.0000   1.0000   1.0000   1.0000   0.0000   0.0000   0.0000

          k = 0.3333 0.4787 0.0000 ( 10665 PWs)   bands (ev):

   -62.4593 -36.7468 -36.6322 -36.5652 -13.6472 -13.5461  -6.8941  -6.6142
    -5.4419  -4.8444  -4.6711  -3.6064  -1.8222   0.3113   1.5141   1.6708

     occupation numbers 
     1.0000   1.0000   1.0000   1.0000   1.0000   1.0000   1.0000   1.0000
     1.0000   1.0000   1.0000   1.0000   1.0000   0.0000   0.0000   0.0000

          k = 0.3333 0.5745 0.0000 ( 10664 PWs)   bands (ev):

   -62.4580 -36.7190 -36.6756 -36.5626 -13.5684 -13.5052  -7.0405  -6.2226
    -5.7014  -5.1767  -4.5125  -3.7946  -1.6356   0.0767   1.4173   1.9268

     occupation numbers 
     1.0000   1.0000   1.0000   1.0000   1.0000   1.0000   1.0000   1.0000
     1.0000   1.0000   1.0000   1.0000   1.0000   0.0000   0.0000   0.0000

          k = 0.3333-0.0957 0.0000 ( 10746 PWs)   bands (ev):

   -62.4759 -36.6768 -36.5981 -36.5028 -14.5902 -13.9560  -6.6577  -5.5242
    -5.4737  -4.5797  -3.3561  -2.9304  -2.4838   0.4081   0.8158   1.3335

     occupation numbers 
     1.0000   1.0000   1.0000   1.0000   1.0000   1.0000   1.0000   1.0000
     1.0000   1.0000   1.0000   1.0000   1.0000   0.0000   0.0000   0.0000

          k = 0.3333 0.0000 0.0000 ( 10743 PWs)   bands (ev):

   -62.4772 -36.6552 -36.6007 -36.5093 -14.6568 -13.9809  -6.5534  -5.4393
    -5.3000  -4.8178  -3.5726  -2.6712  -2.4248   0.2997   0.8734   1.0371

     occupation numbers 
     1.0000   1.0000   1.0000   1.0000   1.0000   1.0000   1.0000   1.0000
     1.0000   1.0000   1.0000   1.0000   1.0000   0.0000   0.0000   0.0000

          k = 0.4167 0.2394 0.0000 ( 10689 PWs)   bands (ev):

   -62.4652 -36.7874 -36.5770 -36.5182 -13.9959 -13.7237  -7.2436  -6.2639
    -5.6177  -4.7121  -3.4509  -2.6908  -2.4236   0.6088   0.9949   2.1318

     occupation numbers 
     1.0000   1.0000   1.0000   1.0000   1.0000   1.0000   1.0000   1.0000
     1.0000   1.0000   1.0000   1.0000   1.0000   0.0000   0.0000   0.0000

          k = 0.4167 0.3351 0.0000 ( 10682 PWs)   bands (ev):

   -62.4626 -36.7981 -36.5719 -36.5383 -13.8409 -13.6572  -7.2649  -6.4634
    -5.6353  -4.8009  -3.4705  -3.1274  -2.1169   0.6537   1.1467   2.2314

     occupation numbers 
     1.0000   1.0000   1.0000   1.0000   1.0000   1.0000   1.0000   1.0000
     1.0000   1.0000   1.0000   1.0000   1.0000   0.0000   0.0000   0.0000

          k = 0.4167 0.4308 0.0000 ( 10688 PWs)   bands (ev):

   -62.4604 -36.7813 -36.5827 -36.5675 -13.7129 -13.5881  -7.0138  -6.7177
    -5.5747  -4.7716  -3.9842  -3.5234  -1.9358   0.5354   1.4382   1.8628

     occupation numbers 
     1.0000   1.0000   1.0000   1.0000   1.0000   1.0000   1.0000   1.0000
     1.0000   1.0000   1.0000   1.0000   1.0000   0.0000   0.0000   0.0000

          k = 0.4167 0.5266 0.0000 ( 10683 PWs)   bands (ev):

   -62.4591 -36.7478 -36.6326 -36.5649 -13.6429 -13.5426  -6.8983  -6.6239
    -5.4422  -4.8347  -4.6779  -3.6006  -1.8329   0.3224   1.5112   1.6858

     occupation numbers 
     1.0000   1.0000   1.0000   1.0000   1.0000   1.0000   1.0000   1.0000
     1.0000   1.0000   1.0000   1.0000   1.0000   0.0000   0.0000   0.0000

          k = 0.4167-0.1436 0.0000 ( 10715 PWs)   bands (ev):

   -62.4674 -36.7546 -36.5814 -36.5252 -14.1335 -13.7714  -7.0061  -6.1184
    -5.5075  -4.7501  -3.2606  -3.2385  -2.3775   0.5530   0.9394   1.8143

     occupation numbers 
     1.0000   1.0000   1.0000   1.0000   1.0000   1.0000   1.0000   1.0000
     1.0000   1.0000   1.0000   1.0000   1.0000   0.0000   0.0000   0.0000

          k = 0.4167-0.0479 0.0000 ( 10735 PWs)   bands (ev):

   -62.4688 -36.7205 -36.5840 -36.5449 -14.2135 -13.7951  -6.7489  -5.9967
    -5.3458  -4.9287  -3.8447  -2.9728  -2.3809   0.4498   0.9780   1.3628

     occupation numbers 
     1.0000   1.0000   1.0000   1.0000   1.0000   1.0000   1.0000   1.0000
     1.0000   1.0000   1.0000   1.0000   1.0000   0.0000   0.0000   0.0000

          k =-0.5000-0.2872 0.0000 ( 10692 PWs)   bands (ev):

   -62.4626 -36.8122 -36.5718 -36.5241 -13.8323 -13.6614  -7.4055  -6.4309
    -5.6947  -4.7942  -3.5115  -2.5934  -2.2560   0.6449   1.1546   2.2465

     occupation numbers 
     1.0000   1.0000   1.0000   1.0000   1.0000   1.0000   1.0000   1.0000
     1.0000   1.0000   1.0000   1.0000   1.0000   0.0000   0.0000   0.0000

          k =-0.5000-0.1915 0.0000 ( 10692 PWs)   bands (ev):

   -62.4626 -36.7987 -36.5718 -36.5383 -13.8392 -13.6560  -7.2684  -6.4647
    -5.6348  -4.8046  -3.4662  -3.1192  -2.1279   0.6539   1.1604   2.2101

     occupation numbers 
     1.0000   1.0000   1.0000   1.0000   1.0000   1.0000   1.0000   1.0000
     1.0000   1.0000   1.0000   1.0000   1.0000   0.0000   0.0000   0.0000

          k =-0.5000-0.0957 0.0000 ( 10685 PWs)   bands (ev):

   -62.4626 -36.7658 -36.5724 -36.5718 -13.8529 -13.6451  -6.9475  -6.5269
    -5.4515  -4.8470  -3.9778  -3.3422  -2.1258   0.6054   1.2094   1.7064

     occupation numbers 
     1.0000   1.0000   1.0000   1.0000   1.0000   1.0000   1.0000   1.0000
     1.0000   1.0000   1.0000   1.0000   1.0000   0.0000   0.0000   0.0000

          k =-0.5000-0.0000 0.0000 ( 10711 PWs)   bands (ev):

   -62.4626 -36.7439 -36.5949 -36.5718 -13.8596 -13.6397  -6.7540  -6.5556
    -5.2297  -4.8762  -4.5252  -3.2649  -2.1519   0.5652   1.2408   1.4602

     occupation numbers 
     1.0000   1.0000   1.0000   1.0000   1.0000   1.0000   1.0000   1.0000
     1.0000   1.0000   1.0000   1.0000   1.0000   0.0000   0.0000   0.0000

     highest occupied, lowest unoccupied level (ev):    -1.6356    0.0767

!    total energy              =    -181.57951220 Ry
     estimated scf accuracy    <          5.1E-13 Ry

     The total energy is the sum of the following terms:
     one-electron contribution =   -1385.99752452 Ry
     hartree contribution      =     692.59275166 Ry
     xc contribution           =     -29.69782590 Ry
     ewald contribution        =     541.52308656 Ry

     convergence has been achieved in  11 iterations

     negative rho (up, down):  3.857E-04 0.000E+00

     Forces acting on atoms (cartesian axes, Ry/au):

     atom    1 type  1   force =     0.00000000   -0.00045826    0.00000000
     atom    2 type  2   force =     0.00000000    0.00022913    0.00118632
     atom    3 type  2   force =     0.00000000    0.00022913   -0.00118632
     The non-local contrib.  to forces
     atom    1 type  1   force =     0.00000000    0.00002852    0.00000000
     atom    2 type  2   force =     0.00000000   -0.00000258   -0.27226560
     atom    3 type  2   force =     0.00000000   -0.00000258    0.27226560
     The ionic contribution  to forces
     atom    1 type  1   force =     0.00000000   -0.04892166    0.00000000
     atom    2 type  2   force =    -0.00000000    0.02446083   37.43883833
     atom    3 type  2   force =    -0.00000000    0.02446083  -37.43883833
     The local contribution  to forces
     atom    1 type  1   force =    -0.00000000    0.04847254    0.00000000
     atom    2 type  2   force =    -0.00000000   -0.02420149  -37.16780855
     atom    3 type  2   force =    -0.00000000   -0.02420149   37.16780855
     The core correction contribution to forces
     atom    1 type  1   force =    -0.00000000   -0.00003760   -0.00000000
     atom    2 type  2   force =     0.00000000   -0.00002801    0.00242362
     atom    3 type  2   force =     0.00000000   -0.00002801   -0.00242362
     The Hubbard contrib.    to forces
     atom    1 type  1   force =     0.00000000    0.00000000    0.00000000
     atom    2 type  2   force =     0.00000000    0.00000000    0.00000000
     atom    3 type  2   force =     0.00000000    0.00000000    0.00000000
     The SCF correction term to forces
     atom    1 type  1   force =     0.00000000   -0.00000037    0.00000000
     atom    2 type  2   force =     0.00000000    0.00000009   -0.00000148
     atom    3 type  2   force =     0.00000000    0.00000009    0.00000148

     Total force =     0.001769     Total SCF correction =     0.000002


     Computing stress (Cartesian axis) and pressure


     negative rho (up, down):  3.857E-04 0.000E+00
          total   stress  (Ry/bohr**3)                   (kbar)     P=        1.37
   0.00002180   0.00000000   0.00000000            3.21        0.00        0.00
   0.00000000   0.00000636   0.00000000            0.00        0.94        0.00
   0.00000000   0.00000000  -0.00000019            0.00        0.00       -0.03

     kinetic stress (kbar)   4898.28      0.00      0.00
                                0.00   4894.09      0.00
                                0.00      0.00   4939.91

     local   stress (kbar)-148438.53      0.00     -0.00
                                0.00-148410.41      0.00
                               -0.00      0.00 145411.74

     nonloc. stress (kbar)   2238.69      0.00      0.00
                                0.00   2239.26      0.00
                                0.00      0.00   2229.38

     hartree stress (kbar)  72799.52     -0.00     -0.00
                               -0.00  72790.47      0.00
                               -0.00      0.00 -71004.29

     exc-cor stress (kbar)   -415.81     -0.00     -0.00
                               -0.00   -415.87      0.00
                               -0.00      0.00   -416.95

     corecor stress (kbar)   -550.61      0.00      0.00
                                0.00   -550.60     -0.00
                                0.00     -0.00   -551.05

     ewald   stress (kbar)  69471.69     -0.00      0.00
                               -0.00  69454.00      0.00
                                0.00      0.00 -80608.77

     hubbard stress (kbar)      0.00      0.00      0.00
                                0.00      0.00      0.00
                                0.00      0.00      0.00

     DFT-D   stress (kbar)      0.00      0.00      0.00
                                0.00      0.00      0.00
                                0.00      0.00      0.00

     XDM     stress (kbar)      0.00      0.00      0.00
                                0.00      0.00      0.00
                                0.00      0.00      0.00

     dft-nl  stress (kbar)      0.00      0.00      0.00
                                0.00      0.00      0.00
                                0.00      0.00      0.00

     TS-vdW  stress (kbar)      0.00      0.00      0.00
                                0.00      0.00      0.00
                                0.00      0.00      0.00

     MDB     stress (kbar)      0.00      0.00      0.00
                                0.00      0.00      0.00
                                0.00      0.00      0.00

     3D-RISM stress (kbar)      0.00      0.00      0.00
                                0.00      0.00      0.00
                                0.00      0.00      0.00

     Energy error            =      7.5E-06 Ry
     Gradient error          =      1.2E-03 Ry/Bohr

     number of scf cycles    =   2
     number of bfgs steps    =   1

     energy             old  =    -181.5795046495 Ry
     energy             new  =    -181.5795121978 Ry

     CASE: energy            _new < energy            _old

     new trust radius        =       0.0022299010 bohr
     new conv_thr            =            1.0E-12 Ry


ATOMIC_POSITIONS (crystal)
Mo              -0.0001989143       -0.0003978285        0.5000000000
S                0.6667661238        0.3335322476        0.5675759755
S                0.6667661238        0.3335322476        0.4324240245



     Writing config-only to output data dir ./tmp/mos2.save/ :
     XML data file
     NEW-OLD atomic charge density approx. for the potential

     negative rho (up, down):  3.855E-04 0.000E+00

     total cpu time spent up to now is      308.6 secs

     Self-consistent Calculation

     iteration #  1     ecut=    60.00 Ry     beta= 0.30
     CG style diagonalization

---- Real-time Memory Report at c_bands before calling an iterative solver
           208 MiB given to the printing process from OS
             0 MiB allocation reported by mallinfo(arena+hblkhd)
          2298 MiB available memory on the node where the printing process lives
------------------
     ethr =  1.00E-06,  avg # of iterations =  3.1

     Threshold (ethr) on eigenvalues was too large:
     Diagonalizing with lowered threshold

     CG style diagonalization

---- Real-time Memory Report at c_bands before calling an iterative solver
           208 MiB given to the printing process from OS
             0 MiB allocation reported by mallinfo(arena+hblkhd)
          2340 MiB available memory on the node where the printing process lives
------------------
     ethr =  3.82E-09,  avg # of iterations =  6.8

     negative rho (up, down):  3.855E-04 0.000E+00

     total cpu time spent up to now is      329.2 secs

     total energy              =    -181.57951562 Ry
     estimated scf accuracy    <       0.00000061 Ry

     iteration #  2     ecut=    60.00 Ry     beta= 0.30
     CG style diagonalization

---- Real-time Memory Report at c_bands before calling an iterative solver
           208 MiB given to the printing process from OS
             0 MiB allocation reported by mallinfo(arena+hblkhd)
          2380 MiB available memory on the node where the printing process lives
------------------
     ethr =  2.34E-09,  avg # of iterations =  3.8

     negative rho (up, down):  3.855E-04 0.000E+00

     total cpu time spent up to now is      337.2 secs

     total energy              =    -181.57951574 Ry
     estimated scf accuracy    <       0.00000042 Ry

     iteration #  3     ecut=    60.00 Ry     beta= 0.30
     CG style diagonalization

---- Real-time Memory Report at c_bands before calling an iterative solver
           208 MiB given to the printing process from OS
             0 MiB allocation reported by mallinfo(arena+hblkhd)
          2411 MiB available memory on the node where the printing process lives
------------------
     ethr =  1.60E-09,  avg # of iterations =  3.2

     negative rho (up, down):  3.855E-04 0.000E+00

     total cpu time spent up to now is      343.7 secs

     total energy              =    -181.57951578 Ry
     estimated scf accuracy    <       0.00000005 Ry

     iteration #  4     ecut=    60.00 Ry     beta= 0.30
     CG style diagonalization

---- Real-time Memory Report at c_bands before calling an iterative solver
           208 MiB given to the printing process from OS
             0 MiB allocation reported by mallinfo(arena+hblkhd)
          2295 MiB available memory on the node where the printing process lives
------------------
     ethr =  2.03E-10,  avg # of iterations =  4.4

     negative rho (up, down):  3.855E-04 0.000E+00

     total cpu time spent up to now is      352.6 secs

     total energy              =    -181.57951578 Ry
     estimated scf accuracy    <       0.00000006 Ry

     iteration #  5     ecut=    60.00 Ry     beta= 0.30
     CG style diagonalization

---- Real-time Memory Report at c_bands before calling an iterative solver
           208 MiB given to the printing process from OS
             0 MiB allocation reported by mallinfo(arena+hblkhd)
          2103 MiB available memory on the node where the printing process lives
------------------
     ethr =  2.03E-10,  avg # of iterations =  3.3

     negative rho (up, down):  3.855E-04 0.000E+00

     total cpu time spent up to now is      358.2 secs

     total energy              =    -181.57951579 Ry
     estimated scf accuracy    <          1.1E-09 Ry

     iteration #  6     ecut=    60.00 Ry     beta= 0.30
     CG style diagonalization

---- Real-time Memory Report at c_bands before calling an iterative solver
           208 MiB given to the printing process from OS
             0 MiB allocation reported by mallinfo(arena+hblkhd)
          1939 MiB available memory on the node where the printing process lives
------------------
     ethr =  4.37E-12,  avg # of iterations =  5.1

     negative rho (up, down):  3.855E-04 0.000E+00

     total cpu time spent up to now is      367.7 secs

     total energy              =    -181.57951579 Ry
     estimated scf accuracy    <          2.0E-09 Ry

     iteration #  7     ecut=    60.00 Ry     beta= 0.30
     CG style diagonalization

---- Real-time Memory Report at c_bands before calling an iterative solver
           208 MiB given to the printing process from OS
             0 MiB allocation reported by mallinfo(arena+hblkhd)
          1615 MiB available memory on the node where the printing process lives
------------------
     ethr =  4.37E-12,  avg # of iterations =  3.1

     negative rho (up, down):  3.855E-04 0.000E+00

     total cpu time spent up to now is      374.2 secs

     total energy              =    -181.57951579 Ry
     estimated scf accuracy    <          3.6E-10 Ry

     iteration #  8     ecut=    60.00 Ry     beta= 0.30
     CG style diagonalization

---- Real-time Memory Report at c_bands before calling an iterative solver
           208 MiB given to the printing process from OS
             0 MiB allocation reported by mallinfo(arena+hblkhd)
          2235 MiB available memory on the node where the printing process lives
------------------
     ethr =  1.40E-12,  avg # of iterations =  3.8

     negative rho (up, down):  3.855E-04 0.000E+00

     total cpu time spent up to now is      382.0 secs

     total energy              =    -181.57951579 Ry
     estimated scf accuracy    <          1.2E-11 Ry

     iteration #  9     ecut=    60.00 Ry     beta= 0.30
     CG style diagonalization

---- Real-time Memory Report at c_bands before calling an iterative solver
           208 MiB given to the printing process from OS
             0 MiB allocation reported by mallinfo(arena+hblkhd)
          2249 MiB available memory on the node where the printing process lives
------------------
     ethr =  1.00E-13,  avg # of iterations =  4.1

     negative rho (up, down):  3.855E-04 0.000E+00

     total cpu time spent up to now is      390.3 secs

     total energy              =    -181.57951579 Ry
     estimated scf accuracy    <          3.2E-11 Ry

     iteration # 10     ecut=    60.00 Ry     beta= 0.30
     CG style diagonalization

---- Real-time Memory Report at c_bands before calling an iterative solver
           208 MiB given to the printing process from OS
             0 MiB allocation reported by mallinfo(arena+hblkhd)
          2129 MiB available memory on the node where the printing process lives
------------------
     ethr =  1.00E-13,  avg # of iterations =  3.0

     negative rho (up, down):  3.855E-04 0.000E+00

     total cpu time spent up to now is      396.8 secs

     total energy              =    -181.57951579 Ry
     estimated scf accuracy    <          7.9E-12 Ry

     iteration # 11     ecut=    60.00 Ry     beta= 0.30
     CG style diagonalization

---- Real-time Memory Report at c_bands before calling an iterative solver
           208 MiB given to the printing process from OS
             0 MiB allocation reported by mallinfo(arena+hblkhd)
          2048 MiB available memory on the node where the printing process lives
------------------
     ethr =  1.00E-13,  avg # of iterations =  3.0

     negative rho (up, down):  3.855E-04 0.000E+00

     total cpu time spent up to now is      403.1 secs

     End of self-consistent calculation

          k = 0.0000 0.0000 0.0000 ( 10807 PWs)   bands (ev):

   -62.5015 -36.6485 -36.4366 -36.4285 -15.7235 -14.4290  -7.2454  -4.2352
    -4.1815  -3.4270  -3.1162  -3.0832  -1.6617   1.1429   1.1696   1.3688

     occupation numbers 
     1.0000   1.0000   1.0000   1.0000   1.0000   1.0000   1.0000   1.0000
     1.0000   1.0000   1.0000   1.0000   1.0000   0.0000   0.0000   0.0000

          k = 0.0000 0.0957 0.0000 ( 10803 PWs)   bands (ev):

   -62.4990 -36.6434 -36.4624 -36.4343 -15.6209 -14.3866  -7.1278  -4.4626
    -4.0741  -3.9033  -3.2456  -2.8016  -1.7119   1.0124   1.0873   1.2988

     occupation numbers 
     1.0000   1.0000   1.0000   1.0000   1.0000   1.0000   1.0000   1.0000
     1.0000   1.0000   1.0000   1.0000   1.0000   0.0000   0.0000   0.0000

          k = 0.0000 0.1915 0.0000 ( 10775 PWs)   bands (ev):

   -62.4920 -36.6296 -36.5325 -36.4501 -15.3290 -14.2661  -6.8312  -4.9876
    -4.5499  -3.7749  -3.6284  -2.7197  -1.9422   0.6503   0.9635   1.0308

     occupation numbers 
     1.0000   1.0000   1.0000   1.0000   1.0000   1.0000   1.0000   1.0000
     1.0000   1.0000   1.0000   1.0000   1.0000   0.0000   0.0000   0.0000

          k = 0.0000 0.2872 0.0000 ( 10735 PWs)   bands (ev):

   -62.4824 -36.6271 -36.6107 -36.4715 -14.8967 -14.0893  -6.6147  -5.4422
    -5.2081  -4.0580  -3.3549  -2.9698  -2.3689   0.5265   0.7634   1.2898

     occupation numbers 
     1.0000   1.0000   1.0000   1.0000   1.0000   1.0000   1.0000   1.0000
     1.0000   1.0000   1.0000   1.0000   1.0000   0.0000   0.0000   0.0000

          k = 0.0000 0.3830 0.0000 ( 10739 PWs)   bands (ev):

   -62.4729 -36.7203 -36.5917 -36.4930 -14.4113 -13.8951  -6.8617  -5.8148
    -5.5364  -4.4198  -3.2738  -2.9340  -2.6138   0.6181   0.7033   1.7793

     occupation numbers 
     1.0000   1.0000   1.0000   1.0000   1.0000   1.0000   1.0000   1.0000
     1.0000   1.0000   1.0000   1.0000   1.0000   0.0000   0.0000   0.0000

          k = 0.0000 0.4787 0.0000 ( 10677 PWs)   bands (ev):

   -62.4659 -36.7876 -36.5777 -36.5086 -14.0071 -13.7391  -7.2454  -6.2575
    -5.6257  -4.6548  -3.4683  -2.6415  -2.4447   0.6155   0.9863   2.1417

     occupation numbers 
     1.0000   1.0000   1.0000   1.0000   1.0000   1.0000   1.0000   1.0000
     1.0000   1.0000   1.0000   1.0000   1.0000   0.0000   0.0000   0.0000

          k = 0.0000-0.5745 0.0000 ( 10676 PWs)   bands (ev):

   -62.4633 -36.8121 -36.5726 -36.5143 -13.8450 -13.6786  -7.4099  -6.4212
    -5.6969  -4.7357  -3.5311  -2.5418  -2.2805   0.6441   1.1450   2.2591

     occupation numbers 
     1.0000   1.0000   1.0000   1.0000   1.0000   1.0000   1.0000   1.0000
     1.0000   1.0000   1.0000   1.0000   1.0000   0.0000   0.0000   0.0000

          k = 0.0833 0.0479 0.0000 ( 10799 PWs)   bands (ev):

   -62.4989 -36.6433 -36.4573 -36.4399 -15.6200 -14.3856  -7.1269  -4.4288
    -4.1122  -3.8923  -3.2741  -2.7864  -1.7093   1.0247   1.1177   1.2655

     occupation numbers 
     1.0000   1.0000   1.0000   1.0000   1.0000   1.0000   1.0000   1.0000
     1.0000   1.0000   1.0000   1.0000   1.0000   0.0000   0.0000   0.0000

          k = 0.0833 0.1436 0.0000 ( 10757 PWs)   bands (ev):

   -62.4941 -36.6339 -36.5072 -36.4488 -15.4226 -14.3040  -6.9163  -4.8201
    -4.3257  -3.8942  -3.6432  -2.6063  -1.8495   0.7605   0.8816   1.0771

     occupation numbers 
     1.0000   1.0000   1.0000   1.0000   1.0000   1.0000   1.0000   1.0000
     1.0000   1.0000   1.0000   1.0000   1.0000   0.0000   0.0000   0.0000

          k = 0.0833 0.2394 0.0000 ( 10739 PWs)   bands (ev):

   -62.4858 -36.6175 -36.5872 -36.4698 -15.0595 -14.1543  -6.6286  -5.3004
    -4.8743  -4.1816  -3.5786  -2.6404  -2.1892   0.4654   0.8579   0.9598

     occupation numbers 
     1.0000   1.0000   1.0000   1.0000   1.0000   1.0000   1.0000   1.0000
     1.0000   1.0000   1.0000   1.0000   1.0000   0.0000   0.0000   0.0000

          k = 0.0833 0.3351 0.0000 ( 10731 PWs)   bands (ev):

   -62.4763 -36.6774 -36.5986 -36.4948 -14.5972 -13.9656  -6.6503  -5.5239
    -5.4882  -4.5414  -3.3386  -2.9379  -2.4765   0.4162   0.8058   1.3570

     occupation numbers 
     1.0000   1.0000   1.0000   1.0000   1.0000   1.0000   1.0000   1.0000
     1.0000   1.0000   1.0000   1.0000   1.0000   0.0000   0.0000   0.0000

          k = 0.0833 0.4308 0.0000 ( 10715 PWs)   bands (ev):

   -62.4681 -36.7544 -36.5821 -36.5166 -14.1442 -13.7850  -7.0001  -6.1104
    -5.5198  -4.7051  -3.2740  -3.2245  -2.3627   0.5626   0.9154   1.8392

     occupation numbers 
     1.0000   1.0000   1.0000   1.0000   1.0000   1.0000   1.0000   1.0000
     1.0000   1.0000   1.0000   1.0000   1.0000   0.0000   0.0000   0.0000

          k = 0.0833 0.5266 0.0000 ( 10678 PWs)   bands (ev):

   -62.4633 -36.7984 -36.5725 -36.5292 -13.8512 -13.6718  -7.2689  -6.4521
    -5.6386  -4.7564  -3.4837  -3.0932  -2.1269   0.6516   1.1426   2.2343

     occupation numbers 
     1.0000   1.0000   1.0000   1.0000   1.0000   1.0000   1.0000   1.0000
     1.0000   1.0000   1.0000   1.0000   1.0000   0.0000   0.0000   0.0000

          k = 0.1667 0.0957 0.0000 ( 10746 PWs)   bands (ev):

   -62.4917 -36.6293 -36.5278 -36.4568 -15.3255 -14.2624  -6.8287  -4.9612
    -4.5356  -3.8121  -3.6642  -2.7082  -1.9322   0.6737   0.9648   0.9947

     occupation numbers 
     1.0000   1.0000   1.0000   1.0000   1.0000   1.0000   1.0000   1.0000
     1.0000   1.0000   1.0000   1.0000   1.0000   0.0000   0.0000   0.0000

          k = 0.1667 0.1915 0.0000 ( 10754 PWs)   bands (ev):

   -62.4857 -36.6173 -36.5848 -36.4736 -15.0570 -14.1514  -6.6276  -5.2862
    -4.8606  -4.2059  -3.5986  -2.6391  -2.1812   0.4701   0.8415   0.9626

     occupation numbers 
     1.0000   1.0000   1.0000   1.0000   1.0000   1.0000   1.0000   1.0000
     1.0000   1.0000   1.0000   1.0000   1.0000   0.0000   0.0000   0.0000

          k = 0.1667 0.2872 0.0000 ( 10755 PWs)   bands (ev):

   -62.4775 -36.6541 -36.6009 -36.5046 -14.6612 -13.9871  -6.5449  -5.4375
    -5.2877  -4.8053  -3.5768  -2.6778  -2.4087   0.3011   0.8548   1.0664

     occupation numbers 
     1.0000   1.0000   1.0000   1.0000   1.0000   1.0000   1.0000   1.0000
     1.0000   1.0000   1.0000   1.0000   1.0000   0.0000   0.0000   0.0000

          k = 0.1667 0.3830 0.0000 ( 10727 PWs)   bands (ev):

   -62.4692 -36.7190 -36.5844 -36.5391 -14.2219 -13.8050  -6.7338  -5.9828
    -5.3518  -4.9069  -3.8503  -2.9821  -2.3569   0.4521   0.9453   1.3871

     occupation numbers 
     1.0000   1.0000   1.0000   1.0000   1.0000   1.0000   1.0000   1.0000
     1.0000   1.0000   1.0000   1.0000   1.0000   0.0000   0.0000   0.0000

          k = 0.1667 0.4787 0.0000 ( 10694 PWs)   bands (ev):

   -62.4631 -36.7648 -36.5723 -36.5656 -13.8628 -13.6571  -6.9374  -6.5101
    -5.4580  -4.8192  -3.9670  -3.3550  -2.1121   0.5981   1.1791   1.7211

     occupation numbers 
     1.0000   1.0000   1.0000   1.0000   1.0000   1.0000   1.0000   1.0000
     1.0000   1.0000   1.0000   1.0000   1.0000   0.0000   0.0000   0.0000

          k = 0.1667 0.5745 0.0000 ( 10672 PWs)   bands (ev):

   -62.4609 -36.7812 -36.5755 -36.5679 -13.7210 -13.5992  -7.0135  -6.7016
    -5.5766  -4.7438  -3.9601  -3.5355  -1.9393   0.5295   1.4227   1.8673

     occupation numbers 
     1.0000   1.0000   1.0000   1.0000   1.0000   1.0000   1.0000   1.0000
     1.0000   1.0000   1.0000   1.0000   1.0000   0.0000   0.0000   0.0000

          k = 0.1667 0.0000 0.0000 ( 10757 PWs)   bands (ev):

   -62.4939 -36.6337 -36.5030 -36.4544 -15.4200 -14.3014  -6.9141  -4.7986
    -4.3200  -3.9245  -3.6587  -2.6012  -1.8441   0.7770   0.8716   1.0578

     occupation numbers 
     1.0000   1.0000   1.0000   1.0000   1.0000   1.0000   1.0000   1.0000
     1.0000   1.0000   1.0000   1.0000   1.0000   0.0000   0.0000   0.0000

          k = 0.2500 0.1436 0.0000 ( 10740 PWs)   bands (ev):

   -62.4820 -36.6236 -36.6100 -36.4791 -14.8894 -14.0811  -6.6130  -5.4181
    -5.1961  -4.1010  -3.3913  -2.9610  -2.3534   0.5389   0.7307   1.2856

     occupation numbers 
     1.0000   1.0000   1.0000   1.0000   1.0000   1.0000   1.0000   1.0000
     1.0000   1.0000   1.0000   1.0000   1.0000   0.0000   0.0000   0.0000

          k = 0.2500 0.2394 0.0000 ( 10745 PWs)   bands (ev):

   -62.4760 -36.6747 -36.5980 -36.5011 -14.5908 -13.9580  -6.6487  -5.5136
    -5.4669  -4.5732  -3.3686  -2.9380  -2.4651   0.4103   0.7943   1.3590

     occupation numbers 
     1.0000   1.0000   1.0000   1.0000   1.0000   1.0000   1.0000   1.0000
     1.0000   1.0000   1.0000   1.0000   1.0000   0.0000   0.0000   0.0000

          k = 0.2500 0.3351 0.0000 ( 10724 PWs)   bands (ev):

   -62.4690 -36.7175 -36.5841 -36.5426 -14.2181 -13.8002  -6.7315  -5.9823
    -5.3398  -4.9183  -3.8673  -2.9833  -2.3531   0.4509   0.9412   1.3860

     occupation numbers 
     1.0000   1.0000   1.0000   1.0000   1.0000   1.0000   1.0000   1.0000
     1.0000   1.0000   1.0000   1.0000   1.0000   0.0000   0.0000   0.0000

          k = 0.2500 0.4308 0.0000 ( 10709 PWs)   bands (ev):

   -62.4629 -36.7413 -36.5917 -36.5720 -13.8658 -13.6465  -6.7342  -6.5399
    -5.2247  -4.8620  -4.5415  -3.2757  -2.1283   0.5550   1.2051   1.4701

     occupation numbers 
     1.0000   1.0000   1.0000   1.0000   1.0000   1.0000   1.0000   1.0000
     1.0000   1.0000   1.0000   1.0000   1.0000   0.0000   0.0000   0.0000

          k = 0.2500 0.5266 0.0000 ( 10668 PWs)   bands (ev):

   -62.4594 -36.7469 -36.6281 -36.5651 -13.6474 -13.5486  -6.8837  -6.6126
    -5.4460  -4.8267  -4.6620  -3.6116  -1.8236   0.3110   1.5118   1.6632

     occupation numbers 
     1.0000   1.0000   1.0000   1.0000   1.0000   1.0000   1.0000   1.0000
     1.0000   1.0000   1.0000   1.0000   1.0000   0.0000   0.0000   0.0000

          k = 0.2500-0.0479 0.0000 ( 10743 PWs)   bands (ev):

   -62.4855 -36.6170 -36.5841 -36.4763 -15.0530 -14.1475  -6.6255  -5.2854
    -4.8666  -4.2073  -3.6039  -2.6363  -2.1815   0.4690   0.8475   0.9384

     occupation numbers 
     1.0000   1.0000   1.0000   1.0000   1.0000   1.0000   1.0000   1.0000
     1.0000   1.0000   1.0000   1.0000   1.0000   0.0000   0.0000   0.0000

          k = 0.3333 0.1915 0.0000 ( 10729 PWs)   bands (ev):

   -62.4722 -36.7180 -36.5907 -36.5013 -14.3997 -13.8816  -6.8592  -5.8108
    -5.5154  -4.4684  -3.2627  -2.9733  -2.5963   0.5964   0.7111   1.7713

     occupation numbers 
     1.0000   1.0000   1.0000   1.0000   1.0000   1.0000   1.0000   1.0000
     1.0000   1.0000   1.0000   1.0000   1.0000   0.0000   0.0000   0.0000

          k = 0.3333 0.2872 0.0000 ( 10705 PWs)   bands (ev):

   -62.4674 -36.7522 -36.5812 -36.5243 -14.1335 -13.7719  -6.9939  -6.1114
    -5.5042  -4.7398  -3.2701  -3.2548  -2.3530   0.5593   0.9089   1.8362

     occupation numbers 
     1.0000   1.0000   1.0000   1.0000   1.0000   1.0000   1.0000   1.0000
     1.0000   1.0000   1.0000   1.0000   1.0000   0.0000   0.0000   0.0000

          k = 0.3333 0.3830 0.0000 ( 10690 PWs)   bands (ev):

   -62.4627 -36.7630 -36.5717 -36.5713 -13.8545 -13.6468  -6.9313  -6.5172
    -5.4482  -4.8370  -3.9924  -3.3521  -2.1024   0.6006   1.1779   1.7161

     occupation numbers 
     1.0000   1.0000   1.0000   1.0000   1.0000   1.0000   1.0000   1.0000
     1.0000   1.0000   1.0000   1.0000   1.0000   0.0000   0.0000   0.0000

          k = 0.3333 0.4787 0.0000 ( 10665 PWs)   bands (ev):

   -62.4591 -36.7458 -36.6313 -36.5647 -13.6428 -13.5432  -6.8892  -6.6106
    -5.4390  -4.8413  -4.6705  -3.6076  -1.8197   0.3140   1.5098   1.6689

     occupation numbers 
     1.0000   1.0000   1.0000   1.0000   1.0000   1.0000   1.0000   1.0000
     1.0000   1.0000   1.0000   1.0000   1.0000   0.0000   0.0000   0.0000

          k = 0.3333 0.5745 0.0000 ( 10664 PWs)   bands (ev):

   -62.4578 -36.7180 -36.6747 -36.5622 -13.5640 -13.5022  -7.0353  -6.2198
    -5.6979  -5.1735  -4.5120  -3.7961  -1.6336   0.0806   1.4130   1.9239

     occupation numbers 
     1.0000   1.0000   1.0000   1.0000   1.0000   1.0000   1.0000   1.0000
     1.0000   1.0000   1.0000   1.0000   1.0000   0.0000   0.0000   0.0000

          k = 0.3333-0.0957 0.0000 ( 10746 PWs)   bands (ev):

   -62.4757 -36.6757 -36.5977 -36.5020 -14.5862 -13.9539  -6.6520  -5.5214
    -5.4711  -4.5753  -3.3513  -2.9320  -2.4810   0.4048   0.8155   1.3324

     occupation numbers 
     1.0000   1.0000   1.0000   1.0000   1.0000   1.0000   1.0000   1.0000
     1.0000   1.0000   1.0000   1.0000   1.0000   0.0000   0.0000   0.0000

          k = 0.3333 0.0000 0.0000 ( 10743 PWs)   bands (ev):

   -62.4770 -36.6541 -36.6002 -36.5086 -14.6527 -13.9789  -6.5476  -5.4367
    -5.2964  -4.8143  -3.5676  -2.6726  -2.4220   0.2960   0.8732   1.0366

     occupation numbers 
     1.0000   1.0000   1.0000   1.0000   1.0000   1.0000   1.0000   1.0000
     1.0000   1.0000   1.0000   1.0000   1.0000   0.0000   0.0000   0.0000

          k = 0.4167 0.2394 0.0000 ( 10689 PWs)   bands (ev):

   -62.4650 -36.7862 -36.5765 -36.5174 -13.9918 -13.7208  -7.2392  -6.2623
    -5.6149  -4.7068  -3.4524  -2.6863  -2.4219   0.6101   0.9940   2.1285

     occupation numbers 
     1.0000   1.0000   1.0000   1.0000   1.0000   1.0000   1.0000   1.0000
     1.0000   1.0000   1.0000   1.0000   1.0000   0.0000   0.0000   0.0000

          k = 0.4167 0.3351 0.0000 ( 10682 PWs)   bands (ev):

   -62.4625 -36.7970 -36.5714 -36.5375 -13.8367 -13.6541  -7.2609  -6.4612
    -5.6322  -4.7971  -3.4716  -3.1242  -2.1147   0.6551   1.1467   2.2261

     occupation numbers 
     1.0000   1.0000   1.0000   1.0000   1.0000   1.0000   1.0000   1.0000
     1.0000   1.0000   1.0000   1.0000   1.0000   0.0000   0.0000   0.0000

          k = 0.4167 0.4308 0.0000 ( 10688 PWs)   bands (ev):

   -62.4603 -36.7802 -36.5819 -36.5670 -13.7087 -13.5849  -7.0102  -6.7141
    -5.5713  -4.7695  -3.9817  -3.5245  -1.9331   0.5374   1.4378   1.8591

     occupation numbers 
     1.0000   1.0000   1.0000   1.0000   1.0000   1.0000   1.0000   1.0000
     1.0000   1.0000   1.0000   1.0000   1.0000   0.0000   0.0000   0.0000

          k = 0.4167 0.5266 0.0000 ( 10683 PWs)   bands (ev):

   -62.4590 -36.7467 -36.6318 -36.5645 -13.6387 -13.5394  -6.8939  -6.6204
    -5.4384  -4.8325  -4.6769  -3.6019  -1.8305   0.3252   1.5077   1.6845

     occupation numbers 
     1.0000   1.0000   1.0000   1.0000   1.0000   1.0000   1.0000   1.0000
     1.0000   1.0000   1.0000   1.0000   1.0000   0.0000   0.0000   0.0000

          k = 0.4167-0.1436 0.0000 ( 10715 PWs)   bands (ev):

   -62.4673 -36.7535 -36.5810 -36.5245 -14.1295 -13.7686  -7.0012  -6.1163
    -5.5049  -4.7454  -3.2622  -3.2354  -2.3739   0.5518   0.9400   1.8134

     occupation numbers 
     1.0000   1.0000   1.0000   1.0000   1.0000   1.0000   1.0000   1.0000
     1.0000   1.0000   1.0000   1.0000   1.0000   0.0000   0.0000   0.0000

          k = 0.4167-0.0479 0.0000 ( 10735 PWs)   bands (ev):

   -62.4686 -36.7193 -36.5835 -36.5442 -14.2095 -13.7925  -6.7436  -5.9936
    -5.3435  -4.9254  -3.8414  -2.9745  -2.3774   0.4469   0.9797   1.3622

     occupation numbers 
     1.0000   1.0000   1.0000   1.0000   1.0000   1.0000   1.0000   1.0000
     1.0000   1.0000   1.0000   1.0000   1.0000   0.0000   0.0000   0.0000

          k =-0.5000-0.2872 0.0000 ( 10692 PWs)   bands (ev):

   -62.4624 -36.8111 -36.5713 -36.5233 -13.8282 -13.6582  -7.4017  -6.4297
    -5.6915  -4.7889  -3.5128  -2.5895  -2.2547   0.6469   1.1548   2.2430

     occupation numbers 
     1.0000   1.0000   1.0000   1.0000   1.0000   1.0000   1.0000   1.0000
     1.0000   1.0000   1.0000   1.0000   1.0000   0.0000   0.0000   0.0000

          k =-0.5000-0.1915 0.0000 ( 10692 PWs)   bands (ev):

   -62.4624 -36.7975 -36.5713 -36.5375 -13.8351 -13.6529  -7.2645  -6.4628
    -5.6316  -4.8002  -3.4677  -3.1165  -2.1252   0.6550   1.1610   2.2092

     occupation numbers 
     1.0000   1.0000   1.0000   1.0000   1.0000   1.0000   1.0000   1.0000
     1.0000   1.0000   1.0000   1.0000   1.0000   0.0000   0.0000   0.0000

          k =-0.5000-0.0957 0.0000 ( 10685 PWs)   bands (ev):

   -62.4624 -36.7646 -36.5716 -36.5714 -13.8488 -13.6420  -6.9434  -6.5237
    -5.4484  -4.8443  -3.9754  -3.3437  -2.1227   0.6053   1.2107   1.7047

     occupation numbers 
     1.0000   1.0000   1.0000   1.0000   1.0000   1.0000   1.0000   1.0000
     1.0000   1.0000   1.0000   1.0000   1.0000   0.0000   0.0000   0.0000

          k =-0.5000-0.0000 0.0000 ( 10711 PWs)   bands (ev):

   -62.4625 -36.7428 -36.5941 -36.5714 -13.8555 -13.6366  -6.7496  -6.5518
    -5.2268  -4.8743  -4.5226  -3.2664  -2.1489   0.5647   1.2423   1.4584

     occupation numbers 
     1.0000   1.0000   1.0000   1.0000   1.0000   1.0000   1.0000   1.0000
     1.0000   1.0000   1.0000   1.0000   1.0000   0.0000   0.0000   0.0000

     highest occupied, lowest unoccupied level (ev):    -1.6336    0.0806

!    total energy              =    -181.57951579 Ry
     estimated scf accuracy    <          5.9E-13 Ry

     The total energy is the sum of the following terms:
     one-electron contribution =   -1385.67523636 Ry
     hartree contribution      =     692.43257410 Ry
     xc contribution           =     -29.69606686 Ry
     ewald contribution        =     541.35921333 Ry

     convergence has been achieved in  11 iterations

     negative rho (up, down):  3.855E-04 0.000E+00

     Forces acting on atoms (cartesian axes, Ry/au):

     atom    1 type  1   force =     0.00000000    0.00007771    0.00000000
     atom    2 type  2   force =     0.00000000   -0.00003886    0.00034384
     atom    3 type  2   force =     0.00000000   -0.00003886   -0.00034384
     The non-local contrib.  to forces
     atom    1 type  1   force =     0.00000000   -0.00016333    0.00000000
     atom    2 type  2   force =     0.00000000   -0.00020923   -0.27261479
     atom    3 type  2   force =     0.00000000   -0.00020923    0.27261479
     The ionic contribution  to forces
     atom    1 type  1   force =     0.00000000   -0.04521396   -0.00000000
     atom    2 type  2   force =    -0.00000000    0.02260698   37.43826533
     atom    3 type  2   force =    -0.00000000    0.02260698  -37.43826533
     The local contribution  to forces
     atom    1 type  1   force =     0.00000000    0.04548002    0.00000000
     atom    2 type  2   force =    -0.00000000   -0.02241678  -37.16774519
     atom    3 type  2   force =    -0.00000000   -0.02241678   37.16774519
     The core correction contribution to forces
     atom    1 type  1   force =    -0.00000000   -0.00002515   -0.00000000
     atom    2 type  2   force =     0.00000000   -0.00002021    0.00243998
     atom    3 type  2   force =     0.00000000   -0.00002021   -0.00243998
     The Hubbard contrib.    to forces
     atom    1 type  1   force =     0.00000000    0.00000000    0.00000000
     atom    2 type  2   force =     0.00000000    0.00000000    0.00000000
     atom    3 type  2   force =     0.00000000    0.00000000    0.00000000
     The SCF correction term to forces
     atom    1 type  1   force =    -0.00000000   -0.00000018    0.00000000
     atom    2 type  2   force =     0.00000000    0.00000004   -0.00000149
     atom    3 type  2   force =     0.00000000    0.00000004    0.00000149

     Total force =     0.000495     Total SCF correction =     0.000002


     Computing stress (Cartesian axis) and pressure


     negative rho (up, down):  3.855E-04 0.000E+00
          total   stress  (Ry/bohr**3)                   (kbar)     P=        1.07
   0.00002034   0.00000000   0.00000000            2.99        0.00        0.00
   0.00000000   0.00000533   0.00000000            0.00        0.78        0.00
   0.00000000   0.00000000  -0.00000384            0.00        0.00       -0.56

     kinetic stress (kbar)   4898.16      0.00      0.00
                                0.00   4893.94      0.00
                                0.00      0.00   4939.05

     local   stress (kbar)-148399.57      0.00      0.00
                                0.00-148375.42      0.00
                                0.00      0.00 145372.84

     nonloc. stress (kbar)   2238.62      0.00      0.00
                                0.00   2239.19      0.00
                                0.00      0.00   2229.43

     hartree stress (kbar)  72781.43     -0.00      0.00
                               -0.00  72773.45      0.00
                                0.00      0.00 -70986.44

     exc-cor stress (kbar)   -415.77     -0.00      0.00
                               -0.00   -415.81     -0.00
                                0.00     -0.00   -416.90

     corecor stress (kbar)   -550.61      0.00      0.00
                                0.00   -550.60      0.00
                                0.00      0.00   -551.04

     ewald   stress (kbar)  69450.73     -0.00      0.00
                               -0.00  69436.03      0.00
                                0.00      0.00 -80587.49

     hubbard stress (kbar)      0.00      0.00      0.00
                                0.00      0.00      0.00
                                0.00      0.00      0.00

     DFT-D   stress (kbar)      0.00      0.00      0.00
                                0.00      0.00      0.00
                                0.00      0.00      0.00

     XDM     stress (kbar)      0.00      0.00      0.00
                                0.00      0.00      0.00
                                0.00      0.00      0.00

     dft-nl  stress (kbar)      0.00      0.00      0.00
                                0.00      0.00      0.00
                                0.00      0.00      0.00

     TS-vdW  stress (kbar)      0.00      0.00      0.00
                                0.00      0.00      0.00
                                0.00      0.00      0.00

     MDB     stress (kbar)      0.00      0.00      0.00
                                0.00      0.00      0.00
                                0.00      0.00      0.00

     3D-RISM stress (kbar)      0.00      0.00      0.00
                                0.00      0.00      0.00
                                0.00      0.00      0.00

     Energy error            =      3.6E-06 Ry
     Gradient error          =      3.4E-04 Ry/Bohr

     number of scf cycles    =   3
     number of bfgs steps    =   2

     energy             old  =    -181.5795121978 Ry
     energy             new  =    -181.5795157898 Ry

     CASE: energy            _new < energy            _old

     new trust radius        =       0.0008093749 bohr
     new conv_thr            =            3.4E-13 Ry


ATOMIC_POSITIONS (crystal)
Mo              -0.0002037798       -0.0004075596        0.5000000000
S                0.6667685566        0.3335371131        0.5675944357
S                0.6667685566        0.3335371131        0.4324055643



     Writing config-only to output data dir ./tmp/mos2.save/ :
     XML data file
     NEW-OLD atomic charge density approx. for the potential

     negative rho (up, down):  3.855E-04 0.000E+00

     total cpu time spent up to now is      410.6 secs

     Self-consistent Calculation

     iteration #  1     ecut=    60.00 Ry     beta= 0.30
     CG style diagonalization

---- Real-time Memory Report at c_bands before calling an iterative solver
           211 MiB given to the printing process from OS
             0 MiB allocation reported by mallinfo(arena+hblkhd)
          2400 MiB available memory on the node where the printing process lives
------------------
     ethr =  1.00E-06,  avg # of iterations =  2.0

     Threshold (ethr) on eigenvalues was too large:
     Diagonalizing with lowered threshold

     CG style diagonalization

---- Real-time Memory Report at c_bands before calling an iterative solver
           211 MiB given to the printing process from OS
             0 MiB allocation reported by mallinfo(arena+hblkhd)
          2085 MiB available memory on the node where the printing process lives
------------------
     ethr =  7.53E-09,  avg # of iterations =  3.5

     negative rho (up, down):  3.855E-04 0.000E+00

     total cpu time spent up to now is      423.1 secs

     total energy              =    -181.57951605 Ry
     estimated scf accuracy    <       0.00000003 Ry

     iteration #  2     ecut=    60.00 Ry     beta= 0.30
     CG style diagonalization

---- Real-time Memory Report at c_bands before calling an iterative solver
           211 MiB given to the printing process from OS
             0 MiB allocation reported by mallinfo(arena+hblkhd)
          2333 MiB available memory on the node where the printing process lives
------------------
     ethr =  1.21E-10,  avg # of iterations =  5.4

     negative rho (up, down):  3.855E-04 0.000E+00

     total cpu time spent up to now is      433.7 secs

     total energy              =    -181.57951609 Ry
     estimated scf accuracy    <       0.00000013 Ry

     iteration #  3     ecut=    60.00 Ry     beta= 0.30
     CG style diagonalization

---- Real-time Memory Report at c_bands before calling an iterative solver
           211 MiB given to the printing process from OS
             0 MiB allocation reported by mallinfo(arena+hblkhd)
          1418 MiB available memory on the node where the printing process lives
------------------
     ethr =  1.21E-10,  avg # of iterations =  3.1

     negative rho (up, down):  3.855E-04 0.000E+00

     total cpu time spent up to now is      439.9 secs

     total energy              =    -181.57951607 Ry
     estimated scf accuracy    <       0.00000006 Ry

     iteration #  4     ecut=    60.00 Ry     beta= 0.30
     CG style diagonalization

---- Real-time Memory Report at c_bands before calling an iterative solver
           211 MiB given to the printing process from OS
             0 MiB allocation reported by mallinfo(arena+hblkhd)
          2647 MiB available memory on the node where the printing process lives
------------------
     ethr =  1.21E-10,  avg # of iterations =  4.1

     negative rho (up, down):  3.855E-04 0.000E+00

     total cpu time spent up to now is      448.0 secs

     total energy              =    -181.57951608 Ry
     estimated scf accuracy    <       0.00000004 Ry

     iteration #  5     ecut=    60.00 Ry     beta= 0.30
     CG style diagonalization

---- Real-time Memory Report at c_bands before calling an iterative solver
           211 MiB given to the printing process from OS
             0 MiB allocation reported by mallinfo(arena+hblkhd)
          2001 MiB available memory on the node where the printing process lives
------------------
     ethr =  1.21E-10,  avg # of iterations =  3.3

     negative rho (up, down):  3.855E-04 0.000E+00

     total cpu time spent up to now is      454.5 secs

     total energy              =    -181.57951609 Ry
     estimated scf accuracy    <          2.2E-09 Ry

     iteration #  6     ecut=    60.00 Ry     beta= 0.30
     CG style diagonalization

---- Real-time Memory Report at c_bands before calling an iterative solver
           211 MiB given to the printing process from OS
             0 MiB allocation reported by mallinfo(arena+hblkhd)
          2455 MiB available memory on the node where the printing process lives
------------------
     ethr =  8.64E-12,  avg # of iterations =  4.0

     negative rho (up, down):  3.855E-04 0.000E+00

     total cpu time spent up to now is      462.5 secs

     total energy              =    -181.57951609 Ry
     estimated scf accuracy    <          4.4E-11 Ry

     iteration #  7     ecut=    60.00 Ry     beta= 0.30
     CG style diagonalization

---- Real-time Memory Report at c_bands before calling an iterative solver
           211 MiB given to the printing process from OS
             0 MiB allocation reported by mallinfo(arena+hblkhd)
          2391 MiB available memory on the node where the printing process lives
------------------
     ethr =  1.68E-13,  avg # of iterations =  5.3

     negative rho (up, down):  3.855E-04 0.000E+00

     total cpu time spent up to now is      471.7 secs

     total energy              =    -181.57951609 Ry
     estimated scf accuracy    <          1.2E-10 Ry

     iteration #  8     ecut=    60.00 Ry     beta= 0.30
     CG style diagonalization

---- Real-time Memory Report at c_bands before calling an iterative solver
           211 MiB given to the printing process from OS
             0 MiB allocation reported by mallinfo(arena+hblkhd)
          2241 MiB available memory on the node where the printing process lives
------------------
     ethr =  1.68E-13,  avg # of iterations =  3.8

     negative rho (up, down):  3.855E-04 0.000E+00

     total cpu time spent up to now is      479.2 secs

     total energy              =    -181.57951609 Ry
     estimated scf accuracy    <          1.1E-11 Ry

     iteration #  9     ecut=    60.00 Ry     beta= 0.30
     CG style diagonalization

---- Real-time Memory Report at c_bands before calling an iterative solver
           211 MiB given to the printing process from OS
             0 MiB allocation reported by mallinfo(arena+hblkhd)
          2217 MiB available memory on the node where the printing process lives
------------------
     ethr =  1.00E-13,  avg # of iterations =  3.6

     negative rho (up, down):  3.855E-04 0.000E+00

     total cpu time spent up to now is      486.2 secs

     total energy              =    -181.57951609 Ry
     estimated scf accuracy    <          7.4E-12 Ry

     iteration # 10     ecut=    60.00 Ry     beta= 0.30
     CG style diagonalization

---- Real-time Memory Report at c_bands before calling an iterative solver
           211 MiB given to the printing process from OS
             0 MiB allocation reported by mallinfo(arena+hblkhd)
          2515 MiB available memory on the node where the printing process lives
------------------
     ethr =  1.00E-13,  avg # of iterations =  3.1

     negative rho (up, down):  3.855E-04 0.000E+00

     total cpu time spent up to now is      492.5 secs

     total energy              =    -181.57951609 Ry
     estimated scf accuracy    <          2.5E-12 Ry

     iteration # 11     ecut=    60.00 Ry     beta= 0.30
     CG style diagonalization

---- Real-time Memory Report at c_bands before calling an iterative solver
           211 MiB given to the printing process from OS
             0 MiB allocation reported by mallinfo(arena+hblkhd)
          2051 MiB available memory on the node where the printing process lives
------------------
     ethr =  1.00E-13,  avg # of iterations =  3.0

     negative rho (up, down):  3.855E-04 0.000E+00

     total cpu time spent up to now is      498.7 secs

     total energy              =    -181.57951609 Ry
     estimated scf accuracy    <          5.4E-13 Ry

     iteration # 12     ecut=    60.00 Ry     beta= 0.30
     CG style diagonalization

---- Real-time Memory Report at c_bands before calling an iterative solver
           211 MiB given to the printing process from OS
             0 MiB allocation reported by mallinfo(arena+hblkhd)
          1832 MiB available memory on the node where the printing process lives
------------------
     ethr =  1.00E-13,  avg # of iterations =  3.0

     negative rho (up, down):  3.855E-04 0.000E+00

     total cpu time spent up to now is      505.1 secs

     End of self-consistent calculation

          k = 0.0000 0.0000 0.0000 ( 10807 PWs)   bands (ev):

   -62.5015 -36.6483 -36.4363 -36.4282 -15.7219 -14.4288  -7.2440  -4.2324
    -4.1788  -3.4279  -3.1143  -3.0809  -1.6629   1.1432   1.1694   1.3677

     occupation numbers 
     1.0000   1.0000   1.0000   1.0000   1.0000   1.0000   1.0000   1.0000
     1.0000   1.0000   1.0000   1.0000   1.0000   0.0000   0.0000   0.0000

          k = 0.0000 0.0957 0.0000 ( 10803 PWs)   bands (ev):

   -62.4989 -36.6432 -36.4621 -36.4340 -15.6193 -14.3863  -7.1263  -4.4600
    -4.0715  -3.9028  -3.2433  -2.8011  -1.7130   1.0125   1.0862   1.2979

     occupation numbers 
     1.0000   1.0000   1.0000   1.0000   1.0000   1.0000   1.0000   1.0000
     1.0000   1.0000   1.0000   1.0000   1.0000   0.0000   0.0000   0.0000

          k = 0.0000 0.1915 0.0000 ( 10775 PWs)   bands (ev):

   -62.4919 -36.6294 -36.5322 -36.4498 -15.3274 -14.2658  -6.8296  -4.9852
    -4.5490  -3.7723  -3.6261  -2.7199  -1.9430   0.6491   0.9635   1.0301

     occupation numbers 
     1.0000   1.0000   1.0000   1.0000   1.0000   1.0000   1.0000   1.0000
     1.0000   1.0000   1.0000   1.0000   1.0000   0.0000   0.0000   0.0000

          k = 0.0000 0.2872 0.0000 ( 10735 PWs)   bands (ev):

   -62.4824 -36.6267 -36.6105 -36.4712 -14.8951 -14.0888  -6.6127  -5.4406
    -5.2071  -4.0557  -3.3525  -2.9703  -2.3691   0.5253   0.7629   1.2894

     occupation numbers 
     1.0000   1.0000   1.0000   1.0000   1.0000   1.0000   1.0000   1.0000
     1.0000   1.0000   1.0000   1.0000   1.0000   0.0000   0.0000   0.0000

          k = 0.0000 0.3830 0.0000 ( 10739 PWs)   bands (ev):

   -62.4729 -36.7199 -36.5915 -36.4927 -14.4097 -13.8944  -6.8596  -5.8139
    -5.5353  -4.4175  -3.2745  -2.9319  -2.6136   0.6181   0.7025   1.7787

     occupation numbers 
     1.0000   1.0000   1.0000   1.0000   1.0000   1.0000   1.0000   1.0000
     1.0000   1.0000   1.0000   1.0000   1.0000   0.0000   0.0000   0.0000

          k = 0.0000 0.4787 0.0000 ( 10677 PWs)   bands (ev):

   -62.4658 -36.7872 -36.5776 -36.5083 -14.0055 -13.7382  -7.2439  -6.2568
    -5.6245  -4.6525  -3.4691  -2.6397  -2.4445   0.6159   0.9860   2.1409

     occupation numbers 
     1.0000   1.0000   1.0000   1.0000   1.0000   1.0000   1.0000   1.0000
     1.0000   1.0000   1.0000   1.0000   1.0000   0.0000   0.0000   0.0000

          k = 0.0000-0.5745 0.0000 ( 10676 PWs)   bands (ev):

   -62.4632 -36.8117 -36.5724 -36.5140 -13.8433 -13.6776  -7.4085  -6.4205
    -5.6955  -4.7335  -3.5319  -2.5402  -2.2803   0.6447   1.1451   2.2583

     occupation numbers 
     1.0000   1.0000   1.0000   1.0000   1.0000   1.0000   1.0000   1.0000
     1.0000   1.0000   1.0000   1.0000   1.0000   0.0000   0.0000   0.0000

          k = 0.0833 0.0479 0.0000 ( 10799 PWs)   bands (ev):

   -62.4988 -36.6431 -36.4570 -36.4396 -15.6183 -14.3854  -7.1254  -4.4262
    -4.1095  -3.8917  -3.2720  -2.7858  -1.7104   1.0246   1.1166   1.2645

     occupation numbers 
     1.0000   1.0000   1.0000   1.0000   1.0000   1.0000   1.0000   1.0000
     1.0000   1.0000   1.0000   1.0000   1.0000   0.0000   0.0000   0.0000

          k = 0.0833 0.1436 0.0000 ( 10757 PWs)   bands (ev):

   -62.4940 -36.6337 -36.5069 -36.4485 -15.4210 -14.3037  -6.9147  -4.8176
    -4.3249  -3.8916  -3.6411  -2.6061  -1.8503   0.7593   0.8816   1.0763

     occupation numbers 
     1.0000   1.0000   1.0000   1.0000   1.0000   1.0000   1.0000   1.0000
     1.0000   1.0000   1.0000   1.0000   1.0000   0.0000   0.0000   0.0000

          k = 0.0833 0.2394 0.0000 ( 10739 PWs)   bands (ev):

   -62.4858 -36.6173 -36.5869 -36.4695 -15.0580 -14.1538  -6.6267  -5.2985
    -4.8732  -4.1796  -3.5762  -2.6406  -2.1895   0.4642   0.8573   0.9597

     occupation numbers 
     1.0000   1.0000   1.0000   1.0000   1.0000   1.0000   1.0000   1.0000
     1.0000   1.0000   1.0000   1.0000   1.0000   0.0000   0.0000   0.0000

          k = 0.0833 0.3351 0.0000 ( 10731 PWs)   bands (ev):

   -62.4763 -36.6771 -36.5984 -36.4945 -14.5956 -13.9649  -6.6481  -5.5227
    -5.4870  -4.5397  -3.3368  -2.9383  -2.4761   0.4153   0.8055   1.3566

     occupation numbers 
     1.0000   1.0000   1.0000   1.0000   1.0000   1.0000   1.0000   1.0000
     1.0000   1.0000   1.0000   1.0000   1.0000   0.0000   0.0000   0.0000

          k = 0.0833 0.4308 0.0000 ( 10715 PWs)   bands (ev):

   -62.4680 -36.7540 -36.5819 -36.5163 -14.1426 -13.7842  -6.9983  -6.1094
    -5.5187  -4.7034  -3.2746  -3.2233  -2.3618   0.5623   0.9154   1.8384

     occupation numbers 
     1.0000   1.0000   1.0000   1.0000   1.0000   1.0000   1.0000   1.0000
     1.0000   1.0000   1.0000   1.0000   1.0000   0.0000   0.0000   0.0000

          k = 0.0833 0.5266 0.0000 ( 10678 PWs)   bands (ev):

   -62.4632 -36.7980 -36.5724 -36.5289 -13.8496 -13.6708  -7.2676  -6.4511
    -5.6372  -4.7546  -3.4844  -3.0921  -2.1261   0.6520   1.1427   2.2333

     occupation numbers 
     1.0000   1.0000   1.0000   1.0000   1.0000   1.0000   1.0000   1.0000
     1.0000   1.0000   1.0000   1.0000   1.0000   0.0000   0.0000   0.0000

          k = 0.1667 0.0957 0.0000 ( 10746 PWs)   bands (ev):

   -62.4916 -36.6291 -36.5275 -36.4565 -15.3239 -14.2621  -6.8270  -4.9590
    -4.5346  -3.8095  -3.6621  -2.7083  -1.9328   0.6726   0.9645   0.9939

     occupation numbers 
     1.0000   1.0000   1.0000   1.0000   1.0000   1.0000   1.0000   1.0000
     1.0000   1.0000   1.0000   1.0000   1.0000   0.0000   0.0000   0.0000

          k = 0.1667 0.1915 0.0000 ( 10754 PWs)   bands (ev):

   -62.4856 -36.6171 -36.5845 -36.4733 -15.0554 -14.1509  -6.6258  -5.2843
    -4.8595  -4.2041  -3.5962  -2.6393  -2.1815   0.4690   0.8409   0.9624

     occupation numbers 
     1.0000   1.0000   1.0000   1.0000   1.0000   1.0000   1.0000   1.0000
     1.0000   1.0000   1.0000   1.0000   1.0000   0.0000   0.0000   0.0000

          k = 0.1667 0.2872 0.0000 ( 10755 PWs)   bands (ev):

   -62.4774 -36.6537 -36.6007 -36.5043 -14.6597 -13.9865  -6.5427  -5.4362
    -5.2861  -4.8041  -3.5750  -2.6781  -2.4082   0.3000   0.8545   1.0660

     occupation numbers 
     1.0000   1.0000   1.0000   1.0000   1.0000   1.0000   1.0000   1.0000
     1.0000   1.0000   1.0000   1.0000   1.0000   0.0000   0.0000   0.0000

          k = 0.1667 0.3830 0.0000 ( 10727 PWs)   bands (ev):

   -62.4692 -36.7186 -36.5842 -36.5388 -14.2204 -13.8042  -6.7318  -5.9812
    -5.3507  -4.9060  -3.8491  -2.9825  -2.3560   0.4512   0.9457   1.3864

     occupation numbers 
     1.0000   1.0000   1.0000   1.0000   1.0000   1.0000   1.0000   1.0000
     1.0000   1.0000   1.0000   1.0000   1.0000   0.0000   0.0000   0.0000

          k = 0.1667 0.4787 0.0000 ( 10694 PWs)   bands (ev):

   -62.4631 -36.7644 -36.5722 -36.5653 -13.8611 -13.6562  -6.9359  -6.5086
    -5.4568  -4.8183  -3.9660  -3.3556  -2.1111   0.5981   1.1792   1.7199

     occupation numbers 
     1.0000   1.0000   1.0000   1.0000   1.0000   1.0000   1.0000   1.0000
     1.0000   1.0000   1.0000   1.0000   1.0000   0.0000   0.0000   0.0000

          k = 0.1667 0.5745 0.0000 ( 10672 PWs)   bands (ev):

   -62.4608 -36.7809 -36.5751 -36.5677 -13.7194 -13.5982  -7.0123  -6.7001
    -5.5752  -4.7428  -3.9592  -3.5362  -1.9384   0.5302   1.4225   1.8658

     occupation numbers 
     1.0000   1.0000   1.0000   1.0000   1.0000   1.0000   1.0000   1.0000
     1.0000   1.0000   1.0000   1.0000   1.0000   0.0000   0.0000   0.0000

          k = 0.1667 0.0000 0.0000 ( 10757 PWs)   bands (ev):

   -62.4939 -36.6335 -36.5027 -36.4542 -15.4184 -14.3011  -6.9125  -4.7962
    -4.3190  -3.9218  -3.6568  -2.6010  -1.8449   0.7758   0.8714   1.0570

     occupation numbers 
     1.0000   1.0000   1.0000   1.0000   1.0000   1.0000   1.0000   1.0000
     1.0000   1.0000   1.0000   1.0000   1.0000   0.0000   0.0000   0.0000

          k = 0.2500 0.1436 0.0000 ( 10740 PWs)   bands (ev):

   -62.4819 -36.6233 -36.6098 -36.4788 -14.8878 -14.0806  -6.6110  -5.4166
    -5.1950  -4.0989  -3.3889  -2.9615  -2.3535   0.5378   0.7302   1.2851

     occupation numbers 
     1.0000   1.0000   1.0000   1.0000   1.0000   1.0000   1.0000   1.0000
     1.0000   1.0000   1.0000   1.0000   1.0000   0.0000   0.0000   0.0000

          k = 0.2500 0.2394 0.0000 ( 10745 PWs)   bands (ev):

   -62.4759 -36.6744 -36.5978 -36.5008 -14.5893 -13.9573  -6.6465  -5.5124
    -5.4657  -4.5715  -3.3667  -2.9384  -2.4646   0.4095   0.7939   1.3584

     occupation numbers 
     1.0000   1.0000   1.0000   1.0000   1.0000   1.0000   1.0000   1.0000
     1.0000   1.0000   1.0000   1.0000   1.0000   0.0000   0.0000   0.0000

          k = 0.2500 0.3351 0.0000 ( 10724 PWs)   bands (ev):

   -62.4689 -36.7171 -36.5839 -36.5423 -14.2166 -13.7994  -6.7295  -5.9806
    -5.3388  -4.9175  -3.8660  -2.9837  -2.3521   0.4499   0.9415   1.3852

     occupation numbers 
     1.0000   1.0000   1.0000   1.0000   1.0000   1.0000   1.0000   1.0000
     1.0000   1.0000   1.0000   1.0000   1.0000   0.0000   0.0000   0.0000

          k = 0.2500 0.4308 0.0000 ( 10709 PWs)   bands (ev):

   -62.4629 -36.7409 -36.5914 -36.5719 -13.8642 -13.6455  -6.7325  -6.5381
    -5.2237  -4.8615  -4.5404  -3.2762  -2.1273   0.5548   1.2053   1.4689

     occupation numbers 
     1.0000   1.0000   1.0000   1.0000   1.0000   1.0000   1.0000   1.0000
     1.0000   1.0000   1.0000   1.0000   1.0000   0.0000   0.0000   0.0000

          k = 0.2500 0.5266 0.0000 ( 10668 PWs)   bands (ev):

   -62.4593 -36.7465 -36.6278 -36.5649 -13.6458 -13.5475  -6.8818  -6.6114
    -5.4447  -4.8257  -4.6617  -3.6122  -1.8228   0.3120   1.5103   1.6625

     occupation numbers 
     1.0000   1.0000   1.0000   1.0000   1.0000   1.0000   1.0000   1.0000
     1.0000   1.0000   1.0000   1.0000   1.0000   0.0000   0.0000   0.0000

          k = 0.2500-0.0479 0.0000 ( 10743 PWs)   bands (ev):

   -62.4854 -36.6168 -36.5838 -36.4761 -15.0514 -14.1471  -6.6237  -5.2835
    -4.8655  -4.2055  -3.6014  -2.6365  -2.1817   0.4678   0.8469   0.9381

     occupation numbers 
     1.0000   1.0000   1.0000   1.0000   1.0000   1.0000   1.0000   1.0000
     1.0000   1.0000   1.0000   1.0000   1.0000   0.0000   0.0000   0.0000

          k = 0.3333 0.1915 0.0000 ( 10729 PWs)   bands (ev):

   -62.4722 -36.7176 -36.5905 -36.5010 -14.3981 -13.8808  -6.8572  -5.8099
    -5.5143  -4.4663  -3.2634  -2.9712  -2.5960   0.5964   0.7102   1.7705

     occupation numbers 
     1.0000   1.0000   1.0000   1.0000   1.0000   1.0000   1.0000   1.0000
     1.0000   1.0000   1.0000   1.0000   1.0000   0.0000   0.0000   0.0000

          k = 0.3333 0.2872 0.0000 ( 10705 PWs)   bands (ev):

   -62.4674 -36.7518 -36.5810 -36.5240 -14.1319 -13.7710  -6.9921  -6.1103
    -5.5032  -4.7382  -3.2706  -3.2535  -2.3521   0.5590   0.9088   1.8352

     occupation numbers 
     1.0000   1.0000   1.0000   1.0000   1.0000   1.0000   1.0000   1.0000
     1.0000   1.0000   1.0000   1.0000   1.0000   0.0000   0.0000   0.0000

          k = 0.3333 0.3830 0.0000 ( 10690 PWs)   bands (ev):

   -62.4626 -36.7626 -36.5715 -36.5710 -13.8529 -13.6458  -6.9298  -6.5156
    -5.4471  -4.8362  -3.9914  -3.3527  -2.1014   0.6006   1.1780   1.7149

     occupation numbers 
     1.0000   1.0000   1.0000   1.0000   1.0000   1.0000   1.0000   1.0000
     1.0000   1.0000   1.0000   1.0000   1.0000   0.0000   0.0000   0.0000

          k = 0.3333 0.4787 0.0000 ( 10665 PWs)   bands (ev):

   -62.4591 -36.7454 -36.6309 -36.5646 -13.6412 -13.5421  -6.8873  -6.6093
    -5.4377  -4.8402  -4.6702  -3.6082  -1.8188   0.3150   1.5083   1.6682

     occupation numbers 
     1.0000   1.0000   1.0000   1.0000   1.0000   1.0000   1.0000   1.0000
     1.0000   1.0000   1.0000   1.0000   1.0000   0.0000   0.0000   0.0000

          k = 0.3333 0.5745 0.0000 ( 10664 PWs)   bands (ev):

   -62.4578 -36.7176 -36.6744 -36.5620 -13.5624 -13.5011  -7.0334  -6.2187
    -5.6967  -5.1723  -4.5118  -3.7966  -1.6329   0.0820   1.4114   1.9228

     occupation numbers 
     1.0000   1.0000   1.0000   1.0000   1.0000   1.0000   1.0000   1.0000
     1.0000   1.0000   1.0000   1.0000   1.0000   0.0000   0.0000   0.0000

          k = 0.3333-0.0957 0.0000 ( 10746 PWs)   bands (ev):

   -62.4757 -36.6754 -36.5975 -36.5017 -14.5847 -13.9532  -6.6498  -5.5202
    -5.4700  -4.5736  -3.3494  -2.9325  -2.4805   0.4038   0.8151   1.3319

     occupation numbers 
     1.0000   1.0000   1.0000   1.0000   1.0000   1.0000   1.0000   1.0000
     1.0000   1.0000   1.0000   1.0000   1.0000   0.0000   0.0000   0.0000

          k = 0.3333 0.0000 0.0000 ( 10743 PWs)   bands (ev):

   -62.4770 -36.6537 -36.6000 -36.5083 -14.6512 -13.9782  -6.5454  -5.4355
    -5.2949  -4.8132  -3.5658  -2.6730  -2.4214   0.2949   0.8729   1.0363

     occupation numbers 
     1.0000   1.0000   1.0000   1.0000   1.0000   1.0000   1.0000   1.0000
     1.0000   1.0000   1.0000   1.0000   1.0000   0.0000   0.0000   0.0000

          k = 0.4167 0.2394 0.0000 ( 10689 PWs)   bands (ev):

   -62.4650 -36.7859 -36.5764 -36.5171 -13.9903 -13.7198  -7.2376  -6.2616
    -5.6137  -4.7047  -3.4531  -2.6846  -2.4216   0.6106   0.9937   2.1275

     occupation numbers 
     1.0000   1.0000   1.0000   1.0000   1.0000   1.0000   1.0000   1.0000
     1.0000   1.0000   1.0000   1.0000   1.0000   0.0000   0.0000   0.0000

          k = 0.4167 0.3351 0.0000 ( 10682 PWs)   bands (ev):

   -62.4624 -36.7966 -36.5713 -36.5372 -13.8351 -13.6531  -7.2595  -6.4602
    -5.6309  -4.7954  -3.4722  -3.1231  -2.1139   0.6555   1.1467   2.2249

     occupation numbers 
     1.0000   1.0000   1.0000   1.0000   1.0000   1.0000   1.0000   1.0000
     1.0000   1.0000   1.0000   1.0000   1.0000   0.0000   0.0000   0.0000

          k = 0.4167 0.4308 0.0000 ( 10688 PWs)   bands (ev):

   -62.4602 -36.7798 -36.5816 -36.5669 -13.7071 -13.5838  -7.0089  -6.7127
    -5.5699  -4.7686  -3.9808  -3.5251  -1.9322   0.5381   1.4376   1.8576

     occupation numbers 
     1.0000   1.0000   1.0000   1.0000   1.0000   1.0000   1.0000   1.0000
     1.0000   1.0000   1.0000   1.0000   1.0000   0.0000   0.0000   0.0000

          k = 0.4167 0.5266 0.0000 ( 10683 PWs)   bands (ev):

   -62.4589 -36.7463 -36.6314 -36.5643 -13.6371 -13.5383  -6.8921  -6.6192
    -5.4371  -4.8315  -4.6765  -3.6024  -1.8296   0.3262   1.5062   1.6839

     occupation numbers 
     1.0000   1.0000   1.0000   1.0000   1.0000   1.0000   1.0000   1.0000
     1.0000   1.0000   1.0000   1.0000   1.0000   0.0000   0.0000   0.0000

          k = 0.4167-0.1436 0.0000 ( 10715 PWs)   bands (ev):

   -62.4672 -36.7531 -36.5808 -36.5242 -14.1280 -13.7677  -6.9994  -6.1153
    -5.5038  -4.7437  -3.2628  -3.2341  -2.3729   0.5514   0.9400   1.8126

     occupation numbers 
     1.0000   1.0000   1.0000   1.0000   1.0000   1.0000   1.0000   1.0000
     1.0000   1.0000   1.0000   1.0000   1.0000   0.0000   0.0000   0.0000

          k = 0.4167-0.0479 0.0000 ( 10735 PWs)   bands (ev):

   -62.4685 -36.7189 -36.5834 -36.5439 -14.2080 -13.7916  -6.7416  -5.9920
    -5.3425  -4.9245  -3.8402  -2.9749  -2.3764   0.4459   0.9801   1.3616

     occupation numbers 
     1.0000   1.0000   1.0000   1.0000   1.0000   1.0000   1.0000   1.0000
     1.0000   1.0000   1.0000   1.0000   1.0000   0.0000   0.0000   0.0000

          k =-0.5000-0.2872 0.0000 ( 10692 PWs)   bands (ev):

   -62.4624 -36.8107 -36.5712 -36.5230 -13.8266 -13.6572  -7.4003  -6.4291
    -5.6902  -4.7868  -3.5135  -2.5879  -2.2544   0.6475   1.1548   2.2420

     occupation numbers 
     1.0000   1.0000   1.0000   1.0000   1.0000   1.0000   1.0000   1.0000
     1.0000   1.0000   1.0000   1.0000   1.0000   0.0000   0.0000   0.0000

          k =-0.5000-0.1915 0.0000 ( 10692 PWs)   bands (ev):

   -62.4624 -36.7971 -36.5712 -36.5372 -13.8335 -13.6518  -7.2631  -6.4619
    -5.6303  -4.7985  -3.4683  -3.1154  -2.1243   0.6554   1.1611   2.2082

     occupation numbers 
     1.0000   1.0000   1.0000   1.0000   1.0000   1.0000   1.0000   1.0000
     1.0000   1.0000   1.0000   1.0000   1.0000   0.0000   0.0000   0.0000

          k =-0.5000-0.0957 0.0000 ( 10685 PWs)   bands (ev):

   -62.4624 -36.7643 -36.5713 -36.5712 -13.8472 -13.6410  -6.9419  -6.5222
    -5.4472  -4.8434  -3.9744  -3.3442  -2.1217   0.6052   1.2110   1.7037

     occupation numbers 
     1.0000   1.0000   1.0000   1.0000   1.0000   1.0000   1.0000   1.0000
     1.0000   1.0000   1.0000   1.0000   1.0000   0.0000   0.0000   0.0000

          k =-0.5000-0.0000 0.0000 ( 10711 PWs)   bands (ev):

   -62.4624 -36.7424 -36.5938 -36.5712 -13.8540 -13.6356  -6.7479  -6.5501
    -5.2258  -4.8737  -4.5215  -3.2669  -2.1478   0.5645   1.2425   1.4574

     occupation numbers 
     1.0000   1.0000   1.0000   1.0000   1.0000   1.0000   1.0000   1.0000
     1.0000   1.0000   1.0000   1.0000   1.0000   0.0000   0.0000   0.0000

     highest occupied, lowest unoccupied level (ev):    -1.6329    0.0820

!    total energy              =    -181.57951609 Ry
     estimated scf accuracy    <          1.0E-13 Ry

     The total energy is the sum of the following terms:
     one-electron contribution =   -1385.55610863 Ry
     hartree contribution      =     692.37337460 Ry
     xc contribution           =     -29.69541865 Ry
     ewald contribution        =     541.29863660 Ry

     convergence has been achieved in  12 iterations

     negative rho (up, down):  3.855E-04 0.000E+00

     Forces acting on atoms (cartesian axes, Ry/au):

     atom    1 type  1   force =     0.00000000    0.00011070    0.00000000
     atom    2 type  2   force =     0.00000000   -0.00005535    0.00003314
     atom    3 type  2   force =     0.00000000   -0.00005535   -0.00003314
     The non-local contrib.  to forces
     atom    1 type  1   force =     0.00000000   -0.00017475    0.00000000
     atom    2 type  2   force =     0.00000000   -0.00022158   -0.27274311
     atom    3 type  2   force =     0.00000000   -0.00022158    0.27274311
     The ionic contribution  to forces
     atom    1 type  1   force =     0.00000000   -0.04496997    0.00000000
     atom    2 type  2   force =    -0.00000000    0.02248498   37.43805881
     atom    3 type  2   force =    -0.00000000    0.02248498  -37.43805881
     The local contribution  to forces
     atom    1 type  1   force =     0.00000000    0.04527961    0.00000000
     atom    2 type  2   force =    -0.00000000   -0.02229935  -37.16772821
     atom    3 type  2   force =    -0.00000000   -0.02229935   37.16772821
     The core correction contribution to forces
     atom    1 type  1   force =    -0.00000000   -0.00002440   -0.00000000
     atom    2 type  2   force =     0.00000000   -0.00001972    0.00244598
     atom    3 type  2   force =     0.00000000   -0.00001972   -0.00244598
     The Hubbard contrib.    to forces
     atom    1 type  1   force =     0.00000000    0.00000000    0.00000000
     atom    2 type  2   force =     0.00000000    0.00000000    0.00000000
     atom    3 type  2   force =     0.00000000    0.00000000    0.00000000
     The SCF correction term to forces
     atom    1 type  1   force =     0.00000000   -0.00000010   -0.00000000
     atom    2 type  2   force =    -0.00000000    0.00000001   -0.00000034
     atom    3 type  2   force =    -0.00000000    0.00000001    0.00000034

     Total force =     0.000143     Total SCF correction =     0.000000


     Computing stress (Cartesian axis) and pressure


     negative rho (up, down):  3.855E-04 0.000E+00
          total   stress  (Ry/bohr**3)                   (kbar)     P=        0.96
   0.00001987   0.00000000   0.00000000            2.92        0.00        0.00
   0.00000000   0.00000488   0.00000000            0.00        0.72        0.00
   0.00000000   0.00000000  -0.00000518            0.00        0.00       -0.76

     kinetic stress (kbar)   4898.12      0.00      0.00
                                0.00   4893.89      0.00
                                0.00      0.00   4938.73

     local   stress (kbar)-148385.78      0.00      0.00
                                0.00-148361.86     -0.00
                                0.00     -0.00 145358.45

     nonloc. stress (kbar)   2238.59      0.00      0.00
                                0.00   2239.17      0.00
                                0.00      0.00   2229.44

     hartree stress (kbar)  72774.91      0.00      0.00
                                0.00  72766.99      0.00
                                0.00      0.00 -70979.84

     exc-cor stress (kbar)   -415.75     -0.00     -0.00
                               -0.00   -415.79     -0.00
                               -0.00     -0.00   -416.88

     corecor stress (kbar)   -550.61      0.00      0.00
                                0.00   -550.60     -0.00
                                0.00     -0.00   -551.04

     ewald   stress (kbar)  69443.44     -0.00      0.00
                               -0.00  69428.92      0.00
                                0.00      0.00 -80579.62

     hubbard stress (kbar)      0.00      0.00      0.00
                                0.00      0.00      0.00
                                0.00      0.00      0.00

     DFT-D   stress (kbar)      0.00      0.00      0.00
                                0.00      0.00      0.00
                                0.00      0.00      0.00

     XDM     stress (kbar)      0.00      0.00      0.00
                                0.00      0.00      0.00
                                0.00      0.00      0.00

     dft-nl  stress (kbar)      0.00      0.00      0.00
                                0.00      0.00      0.00
                                0.00      0.00      0.00

     TS-vdW  stress (kbar)      0.00      0.00      0.00
                                0.00      0.00      0.00
                                0.00      0.00      0.00

     MDB     stress (kbar)      0.00      0.00      0.00
                                0.00      0.00      0.00
                                0.00      0.00      0.00

     3D-RISM stress (kbar)      0.00      0.00      0.00
                                0.00      0.00      0.00
                                0.00      0.00      0.00

     Energy error            =      3.0E-07 Ry
     Gradient error          =      1.1E-04 Ry/Bohr

     number of scf cycles    =   4
     number of bfgs steps    =   3

     energy             old  =    -181.5795157898 Ry
     energy             new  =    -181.5795160877 Ry

     CASE: energy            _new < energy            _old

     new trust radius        =       0.0001072893 bohr
     new conv_thr            =            1.1E-13 Ry


ATOMIC_POSITIONS (crystal)
Mo              -0.0001934807       -0.0003869614        0.5000000000
S                0.6667634070        0.3335268141        0.5675962906
S                0.6667634070        0.3335268141        0.4324037094



     Writing config-only to output data dir ./tmp/mos2.save/ :
     XML data file
     NEW-OLD atomic charge density approx. for the potential

     negative rho (up, down):  3.855E-04 0.000E+00

     total cpu time spent up to now is      513.1 secs

     Self-consistent Calculation

     iteration #  1     ecut=    60.00 Ry     beta= 0.30
     CG style diagonalization

---- Real-time Memory Report at c_bands before calling an iterative solver
           214 MiB given to the printing process from OS
             0 MiB allocation reported by mallinfo(arena+hblkhd)
          1912 MiB available memory on the node where the printing process lives
------------------
     ethr =  1.00E-06,  avg # of iterations =  2.0

     Threshold (ethr) on eigenvalues was too large:
     Diagonalizing with lowered threshold

     CG style diagonalization

---- Real-time Memory Report at c_bands before calling an iterative solver
           214 MiB given to the printing process from OS
             0 MiB allocation reported by mallinfo(arena+hblkhd)
          2079 MiB available memory on the node where the printing process lives
------------------
     ethr =  2.34E-10,  avg # of iterations =  4.7

     negative rho (up, down):  3.855E-04 0.000E+00

     total cpu time spent up to now is      527.2 secs

     total energy              =    -181.57951610 Ry
     estimated scf accuracy    <          7.4E-10 Ry

     iteration #  2     ecut=    60.00 Ry     beta= 0.30
     CG style diagonalization

---- Real-time Memory Report at c_bands before calling an iterative solver
           214 MiB given to the printing process from OS
             0 MiB allocation reported by mallinfo(arena+hblkhd)
          1886 MiB available memory on the node where the printing process lives
------------------
     ethr =  2.84E-12,  avg # of iterations =  5.8

     negative rho (up, down):  3.855E-04 0.000E+00

     total cpu time spent up to now is      538.5 secs

     total energy              =    -181.57951610 Ry
     estimated scf accuracy    <          9.2E-10 Ry

     iteration #  3     ecut=    60.00 Ry     beta= 0.30
     CG style diagonalization

---- Real-time Memory Report at c_bands before calling an iterative solver
           214 MiB given to the printing process from OS
             0 MiB allocation reported by mallinfo(arena+hblkhd)
          1631 MiB available memory on the node where the printing process lives
------------------
     ethr =  2.84E-12,  avg # of iterations =  3.0

     negative rho (up, down):  3.855E-04 0.000E+00

     total cpu time spent up to now is      545.0 secs

     total energy              =    -181.57951610 Ry
     estimated scf accuracy    <          3.6E-10 Ry

     iteration #  4     ecut=    60.00 Ry     beta= 0.30
     CG style diagonalization

---- Real-time Memory Report at c_bands before calling an iterative solver
           214 MiB given to the printing process from OS
             0 MiB allocation reported by mallinfo(arena+hblkhd)
          2275 MiB available memory on the node where the printing process lives
------------------
     ethr =  1.39E-12,  avg # of iterations =  3.9

     negative rho (up, down):  3.855E-04 0.000E+00

     total cpu time spent up to now is      552.7 secs

     total energy              =    -181.57951610 Ry
     estimated scf accuracy    <          1.5E-10 Ry

     iteration #  5     ecut=    60.00 Ry     beta= 0.30
     CG style diagonalization

---- Real-time Memory Report at c_bands before calling an iterative solver
           214 MiB given to the printing process from OS
             0 MiB allocation reported by mallinfo(arena+hblkhd)
          2054 MiB available memory on the node where the printing process lives
------------------
     ethr =  5.82E-13,  avg # of iterations =  3.5

     negative rho (up, down):  3.855E-04 0.000E+00

     total cpu time spent up to now is      559.6 secs

     total energy              =    -181.57951610 Ry
     estimated scf accuracy    <          7.2E-12 Ry

     iteration #  6     ecut=    60.00 Ry     beta= 0.30
     CG style diagonalization

---- Real-time Memory Report at c_bands before calling an iterative solver
           214 MiB given to the printing process from OS
             0 MiB allocation reported by mallinfo(arena+hblkhd)
          2447 MiB available memory on the node where the printing process lives
------------------
     ethr =  1.00E-13,  avg # of iterations =  3.6

     negative rho (up, down):  3.855E-04 0.000E+00

     total cpu time spent up to now is      566.8 secs

     total energy              =    -181.57951610 Ry
     estimated scf accuracy    <          6.3E-12 Ry

     iteration #  7     ecut=    60.00 Ry     beta= 0.30
     CG style diagonalization

---- Real-time Memory Report at c_bands before calling an iterative solver
           214 MiB given to the printing process from OS
             0 MiB allocation reported by mallinfo(arena+hblkhd)
          2226 MiB available memory on the node where the printing process lives
------------------
     ethr =  1.00E-13,  avg # of iterations =  3.0

     negative rho (up, down):  3.855E-04 0.000E+00

     total cpu time spent up to now is      572.9 secs

     total energy              =    -181.57951610 Ry
     estimated scf accuracy    <          8.9E-13 Ry

     iteration #  8     ecut=    60.00 Ry     beta= 0.30
     CG style diagonalization

---- Real-time Memory Report at c_bands before calling an iterative solver
           214 MiB given to the printing process from OS
             0 MiB allocation reported by mallinfo(arena+hblkhd)
          2154 MiB available memory on the node where the printing process lives
------------------
     ethr =  1.00E-13,  avg # of iterations =  3.0

     negative rho (up, down):  3.855E-04 0.000E+00

     total cpu time spent up to now is      579.0 secs

     total energy              =    -181.57951610 Ry
     estimated scf accuracy    <          4.3E-13 Ry

     iteration #  9     ecut=    60.00 Ry     beta= 0.30
     CG style diagonalization

---- Real-time Memory Report at c_bands before calling an iterative solver
           214 MiB given to the printing process from OS
             0 MiB allocation reported by mallinfo(arena+hblkhd)
          2032 MiB available memory on the node where the printing process lives
------------------
     ethr =  1.00E-13,  avg # of iterations =  3.0

     negative rho (up, down):  3.855E-04 0.000E+00

     total cpu time spent up to now is      585.6 secs

     total energy              =    -181.57951610 Ry
     estimated scf accuracy    <          1.2E-13 Ry

     iteration # 10     ecut=    60.00 Ry     beta= 0.30
     CG style diagonalization

---- Real-time Memory Report at c_bands before calling an iterative solver
           214 MiB given to the printing process from OS
             0 MiB allocation reported by mallinfo(arena+hblkhd)
          1438 MiB available memory on the node where the printing process lives
------------------
     ethr =  1.00E-13,  avg # of iterations =  3.0

     negative rho (up, down):  3.855E-04 0.000E+00

     total cpu time spent up to now is      592.0 secs

     End of self-consistent calculation

          k = 0.0000 0.0000 0.0000 ( 10807 PWs)   bands (ev):

   -62.5015 -36.6482 -36.4362 -36.4282 -15.7217 -14.4288  -7.2438  -4.2323
    -4.1784  -3.4279  -3.1137  -3.0811  -1.6630   1.1428   1.1698   1.3678

     occupation numbers 
     1.0000   1.0000   1.0000   1.0000   1.0000   1.0000   1.0000   1.0000
     1.0000   1.0000   1.0000   1.0000   1.0000   0.0000   0.0000   0.0000

          k = 0.0000 0.0957 0.0000 ( 10803 PWs)   bands (ev):

   -62.4989 -36.6432 -36.4621 -36.4339 -15.6191 -14.3863  -7.1261  -4.4598
    -4.0711  -3.9025  -3.2434  -2.8009  -1.7131   1.0121   1.0862   1.2976

     occupation numbers 
     1.0000   1.0000   1.0000   1.0000   1.0000   1.0000   1.0000   1.0000
     1.0000   1.0000   1.0000   1.0000   1.0000   0.0000   0.0000   0.0000

          k = 0.0000 0.1915 0.0000 ( 10775 PWs)   bands (ev):

   -62.4919 -36.6294 -36.5322 -36.4497 -15.3272 -14.2657  -6.8294  -4.9851
    -4.5487  -3.7719  -3.6262  -2.7199  -1.9429   0.6490   0.9632   1.0299

     occupation numbers 
     1.0000   1.0000   1.0000   1.0000   1.0000   1.0000   1.0000   1.0000
     1.0000   1.0000   1.0000   1.0000   1.0000   0.0000   0.0000   0.0000

          k = 0.0000 0.2872 0.0000 ( 10735 PWs)   bands (ev):

   -62.4824 -36.6267 -36.6105 -36.4712 -14.8950 -14.0887  -6.6125  -5.4406
    -5.2068  -4.0557  -3.3522  -2.9704  -2.3689   0.5252   0.7628   1.2892

     occupation numbers 
     1.0000   1.0000   1.0000   1.0000   1.0000   1.0000   1.0000   1.0000
     1.0000   1.0000   1.0000   1.0000   1.0000   0.0000   0.0000   0.0000

          k = 0.0000 0.3830 0.0000 ( 10739 PWs)   bands (ev):

   -62.4729 -36.7199 -36.5915 -36.4926 -14.4096 -13.8942  -6.8594  -5.8138
    -5.5353  -4.4175  -3.2745  -2.9317  -2.6134   0.6181   0.7023   1.7784

     occupation numbers 
     1.0000   1.0000   1.0000   1.0000   1.0000   1.0000   1.0000   1.0000
     1.0000   1.0000   1.0000   1.0000   1.0000   0.0000   0.0000   0.0000

          k = 0.0000 0.4787 0.0000 ( 10677 PWs)   bands (ev):

   -62.4658 -36.7872 -36.5775 -36.5082 -14.0054 -13.7380  -7.2437  -6.2568
    -5.6245  -4.6525  -3.4690  -2.6396  -2.4443   0.6160   0.9859   2.1406

     occupation numbers 
     1.0000   1.0000   1.0000   1.0000   1.0000   1.0000   1.0000   1.0000
     1.0000   1.0000   1.0000   1.0000   1.0000   0.0000   0.0000   0.0000

          k = 0.0000-0.5745 0.0000 ( 10676 PWs)   bands (ev):

   -62.4632 -36.8117 -36.5724 -36.5139 -13.8432 -13.6774  -7.4083  -6.4206
    -5.6955  -4.7334  -3.5318  -2.5401  -2.2801   0.6448   1.1451   2.2579

     occupation numbers 
     1.0000   1.0000   1.0000   1.0000   1.0000   1.0000   1.0000   1.0000
     1.0000   1.0000   1.0000   1.0000   1.0000   0.0000   0.0000   0.0000

          k = 0.0833 0.0479 0.0000 ( 10799 PWs)   bands (ev):

   -62.4988 -36.6431 -36.4570 -36.4396 -15.6182 -14.3854  -7.1253  -4.4259
    -4.1093  -3.8917  -3.2716  -2.7858  -1.7105   1.0248   1.1165   1.2645

     occupation numbers 
     1.0000   1.0000   1.0000   1.0000   1.0000   1.0000   1.0000   1.0000
     1.0000   1.0000   1.0000   1.0000   1.0000   0.0000   0.0000   0.0000

          k = 0.0833 0.1436 0.0000 ( 10757 PWs)   bands (ev):

   -62.4940 -36.6337 -36.5068 -36.4485 -15.4208 -14.3037  -6.9146  -4.8174
    -4.3247  -3.8913  -3.6410  -2.6061  -1.8504   0.7593   0.8815   1.0762

     occupation numbers 
     1.0000   1.0000   1.0000   1.0000   1.0000   1.0000   1.0000   1.0000
     1.0000   1.0000   1.0000   1.0000   1.0000   0.0000   0.0000   0.0000

          k = 0.0833 0.2394 0.0000 ( 10739 PWs)   bands (ev):

   -62.4858 -36.6173 -36.5868 -36.4694 -15.0578 -14.1537  -6.6265  -5.2984
    -4.8730  -4.1796  -3.5759  -2.6407  -2.1894   0.4641   0.8573   0.9595

     occupation numbers 
     1.0000   1.0000   1.0000   1.0000   1.0000   1.0000   1.0000   1.0000
     1.0000   1.0000   1.0000   1.0000   1.0000   0.0000   0.0000   0.0000

          k = 0.0833 0.3351 0.0000 ( 10731 PWs)   bands (ev):

   -62.4763 -36.6770 -36.5984 -36.4945 -14.5955 -13.9648  -6.6479  -5.5226
    -5.4870  -4.5396  -3.3366  -2.9383  -2.4759   0.4151   0.8055   1.3564

     occupation numbers 
     1.0000   1.0000   1.0000   1.0000   1.0000   1.0000   1.0000   1.0000
     1.0000   1.0000   1.0000   1.0000   1.0000   0.0000   0.0000   0.0000

          k = 0.0833 0.4308 0.0000 ( 10715 PWs)   bands (ev):

   -62.4680 -36.7540 -36.5819 -36.5163 -14.1425 -13.7840  -6.9981  -6.1093
    -5.5186  -4.7033  -3.2745  -3.2231  -2.3616   0.5623   0.9153   1.8382

     occupation numbers 
     1.0000   1.0000   1.0000   1.0000   1.0000   1.0000   1.0000   1.0000
     1.0000   1.0000   1.0000   1.0000   1.0000   0.0000   0.0000   0.0000

          k = 0.0833 0.5266 0.0000 ( 10678 PWs)   bands (ev):

   -62.4632 -36.7979 -36.5724 -36.5289 -13.8495 -13.6706  -7.2674  -6.4511
    -5.6372  -4.7546  -3.4843  -3.0920  -2.1260   0.6521   1.1427   2.2331

     occupation numbers 
     1.0000   1.0000   1.0000   1.0000   1.0000   1.0000   1.0000   1.0000
     1.0000   1.0000   1.0000   1.0000   1.0000   0.0000   0.0000   0.0000

          k = 0.1667 0.0957 0.0000 ( 10746 PWs)   bands (ev):

   -62.4916 -36.6291 -36.5275 -36.4565 -15.3237 -14.2620  -6.8268  -4.9587
    -4.5346  -3.8093  -3.6618  -2.7083  -1.9329   0.6724   0.9646   0.9939

     occupation numbers 
     1.0000   1.0000   1.0000   1.0000   1.0000   1.0000   1.0000   1.0000
     1.0000   1.0000   1.0000   1.0000   1.0000   0.0000   0.0000   0.0000

          k = 0.1667 0.1915 0.0000 ( 10754 PWs)   bands (ev):

   -62.4856 -36.6171 -36.5845 -36.4733 -15.0552 -14.1509  -6.6256  -5.2842
    -4.8594  -4.2038  -3.5959  -2.6393  -2.1815   0.4688   0.8409   0.9624

     occupation numbers 
     1.0000   1.0000   1.0000   1.0000   1.0000   1.0000   1.0000   1.0000
     1.0000   1.0000   1.0000   1.0000   1.0000   0.0000   0.0000   0.0000

          k = 0.1667 0.2872 0.0000 ( 10755 PWs)   bands (ev):

   -62.4774 -36.6537 -36.6007 -36.5043 -14.6595 -13.9864  -6.5425  -5.4361
    -5.2860  -4.8040  -3.5748  -2.6782  -2.4081   0.2999   0.8545   1.0660

     occupation numbers 
     1.0000   1.0000   1.0000   1.0000   1.0000   1.0000   1.0000   1.0000
     1.0000   1.0000   1.0000   1.0000   1.0000   0.0000   0.0000   0.0000

          k = 0.1667 0.3830 0.0000 ( 10727 PWs)   bands (ev):

   -62.4691 -36.7185 -36.5842 -36.5388 -14.2202 -13.8041  -6.7316  -5.9811
    -5.3507  -4.9059  -3.8490  -2.9825  -2.3558   0.4510   0.9458   1.3864

     occupation numbers 
     1.0000   1.0000   1.0000   1.0000   1.0000   1.0000   1.0000   1.0000
     1.0000   1.0000   1.0000   1.0000   1.0000   0.0000   0.0000   0.0000

          k = 0.1667 0.4787 0.0000 ( 10694 PWs)   bands (ev):

   -62.4631 -36.7643 -36.5722 -36.5653 -13.8610 -13.6560  -6.9357  -6.5085
    -5.4568  -4.8183  -3.9659  -3.3556  -2.1109   0.5981   1.1793   1.7198

     occupation numbers 
     1.0000   1.0000   1.0000   1.0000   1.0000   1.0000   1.0000   1.0000
     1.0000   1.0000   1.0000   1.0000   1.0000   0.0000   0.0000   0.0000

          k = 0.1667 0.5745 0.0000 ( 10672 PWs)   bands (ev):

   -62.4608 -36.7808 -36.5751 -36.5677 -13.7193 -13.5981  -7.0121  -6.7000
    -5.5751  -4.7428  -3.9591  -3.5361  -1.9382   0.5303   1.4225   1.8657

     occupation numbers 
     1.0000   1.0000   1.0000   1.0000   1.0000   1.0000   1.0000   1.0000
     1.0000   1.0000   1.0000   1.0000   1.0000   0.0000   0.0000   0.0000

          k = 0.1667 0.0000 0.0000 ( 10757 PWs)   bands (ev):

   -62.4938 -36.6334 -36.5027 -36.4541 -15.4182 -14.3011  -6.9124  -4.7959
    -4.3192  -3.9216  -3.6563  -2.6011  -1.8450   0.7757   0.8716   1.0570

     occupation numbers 
     1.0000   1.0000   1.0000   1.0000   1.0000   1.0000   1.0000   1.0000
     1.0000   1.0000   1.0000   1.0000   1.0000   0.0000   0.0000   0.0000

          k = 0.2500 0.1436 0.0000 ( 10740 PWs)   bands (ev):

   -62.4819 -36.6232 -36.6098 -36.4788 -14.8876 -14.0806  -6.6107  -5.4164
    -5.1949  -4.0986  -3.3886  -2.9616  -2.3536   0.5376   0.7302   1.2851

     occupation numbers 
     1.0000   1.0000   1.0000   1.0000   1.0000   1.0000   1.0000   1.0000
     1.0000   1.0000   1.0000   1.0000   1.0000   0.0000   0.0000   0.0000

          k = 0.2500 0.2394 0.0000 ( 10745 PWs)   bands (ev):

   -62.4759 -36.6743 -36.5978 -36.5007 -14.5891 -13.9573  -6.6463  -5.5124
    -5.4656  -4.5712  -3.3666  -2.9385  -2.4645   0.4093   0.7939   1.3585

     occupation numbers 
     1.0000   1.0000   1.0000   1.0000   1.0000   1.0000   1.0000   1.0000
     1.0000   1.0000   1.0000   1.0000   1.0000   0.0000   0.0000   0.0000

          k = 0.2500 0.3351 0.0000 ( 10724 PWs)   bands (ev):

   -62.4689 -36.7171 -36.5839 -36.5423 -14.2164 -13.7993  -6.7293  -5.9806
    -5.3386  -4.9173  -3.8660  -2.9838  -2.3519   0.4498   0.9416   1.3853

     occupation numbers 
     1.0000   1.0000   1.0000   1.0000   1.0000   1.0000   1.0000   1.0000
     1.0000   1.0000   1.0000   1.0000   1.0000   0.0000   0.0000   0.0000

          k = 0.2500 0.4308 0.0000 ( 10709 PWs)   bands (ev):

   -62.4629 -36.7408 -36.5914 -36.5719 -13.8641 -13.6454  -6.7324  -6.5380
    -5.2236  -4.8614  -4.5403  -3.2763  -2.1272   0.5548   1.2054   1.4689

     occupation numbers 
     1.0000   1.0000   1.0000   1.0000   1.0000   1.0000   1.0000   1.0000
     1.0000   1.0000   1.0000   1.0000   1.0000   0.0000   0.0000   0.0000

          k = 0.2500 0.5266 0.0000 ( 10668 PWs)   bands (ev):

   -62.4593 -36.7465 -36.6278 -36.5649 -13.6456 -13.5474  -6.8817  -6.6112
    -5.4446  -4.8256  -4.6617  -3.6122  -1.8227   0.3121   1.5102   1.6625

     occupation numbers 
     1.0000   1.0000   1.0000   1.0000   1.0000   1.0000   1.0000   1.0000
     1.0000   1.0000   1.0000   1.0000   1.0000   0.0000   0.0000   0.0000

          k = 0.2500-0.0479 0.0000 ( 10743 PWs)   bands (ev):

   -62.4854 -36.6168 -36.5838 -36.4760 -15.0513 -14.1471  -6.6235  -5.2832
    -4.8655  -4.2051  -3.6012  -2.6365  -2.1819   0.4678   0.8468   0.9382

     occupation numbers 
     1.0000   1.0000   1.0000   1.0000   1.0000   1.0000   1.0000   1.0000
     1.0000   1.0000   1.0000   1.0000   1.0000   0.0000   0.0000   0.0000

          k = 0.3333 0.1915 0.0000 ( 10729 PWs)   bands (ev):

   -62.4722 -36.7176 -36.5905 -36.5009 -14.3979 -13.8807  -6.8570  -5.8098
    -5.5142  -4.4659  -3.2635  -2.9710  -2.5961   0.5964   0.7101   1.7705

     occupation numbers 
     1.0000   1.0000   1.0000   1.0000   1.0000   1.0000   1.0000   1.0000
     1.0000   1.0000   1.0000   1.0000   1.0000   0.0000   0.0000   0.0000

          k = 0.3333 0.2872 0.0000 ( 10705 PWs)   bands (ev):

   -62.4674 -36.7518 -36.5810 -36.5239 -14.1318 -13.7709  -6.9920  -6.1103
    -5.5030  -4.7379  -3.2708  -3.2534  -2.3520   0.5589   0.9089   1.8354

     occupation numbers 
     1.0000   1.0000   1.0000   1.0000   1.0000   1.0000   1.0000   1.0000
     1.0000   1.0000   1.0000   1.0000   1.0000   0.0000   0.0000   0.0000

          k = 0.3333 0.3830 0.0000 ( 10690 PWs)   bands (ev):

   -62.4626 -36.7626 -36.5715 -36.5710 -13.8527 -13.6458  -6.9297  -6.5155
    -5.4469  -4.8360  -3.9913  -3.3528  -2.1013   0.6006   1.1780   1.7149

     occupation numbers 
     1.0000   1.0000   1.0000   1.0000   1.0000   1.0000   1.0000   1.0000
     1.0000   1.0000   1.0000   1.0000   1.0000   0.0000   0.0000   0.0000

          k = 0.3333 0.4787 0.0000 ( 10665 PWs)   bands (ev):

   -62.4591 -36.7453 -36.6309 -36.5646 -13.6410 -13.5420  -6.8872  -6.6092
    -5.4375  -4.8402  -4.6701  -3.6083  -1.8188   0.3151   1.5082   1.6682

     occupation numbers 
     1.0000   1.0000   1.0000   1.0000   1.0000   1.0000   1.0000   1.0000
     1.0000   1.0000   1.0000   1.0000   1.0000   0.0000   0.0000   0.0000

          k = 0.3333 0.5745 0.0000 ( 10664 PWs)   bands (ev):

   -62.4578 -36.7175 -36.6744 -36.5620 -13.5622 -13.5010  -7.0332  -6.2186
    -5.6965  -5.1721  -4.5118  -3.7967  -1.6328   0.0821   1.4112   1.9227

     occupation numbers 
     1.0000   1.0000   1.0000   1.0000   1.0000   1.0000   1.0000   1.0000
     1.0000   1.0000   1.0000   1.0000   1.0000   0.0000   0.0000   0.0000

          k = 0.3333-0.0957 0.0000 ( 10746 PWs)   bands (ev):

   -62.4757 -36.6753 -36.5975 -36.5017 -14.5845 -13.9532  -6.6496  -5.5201
    -5.4698  -4.5734  -3.3492  -2.9324  -2.4806   0.4039   0.8150   1.3319

     occupation numbers 
     1.0000   1.0000   1.0000   1.0000   1.0000   1.0000   1.0000   1.0000
     1.0000   1.0000   1.0000   1.0000   1.0000   0.0000   0.0000   0.0000

          k = 0.3333 0.0000 0.0000 ( 10743 PWs)   bands (ev):

   -62.4769 -36.6537 -36.6000 -36.5082 -14.6510 -13.9782  -6.5451  -5.4352
    -5.2947  -4.8131  -3.5657  -2.6729  -2.4216   0.2949   0.8728   1.0362

     occupation numbers 
     1.0000   1.0000   1.0000   1.0000   1.0000   1.0000   1.0000   1.0000
     1.0000   1.0000   1.0000   1.0000   1.0000   0.0000   0.0000   0.0000

          k = 0.4167 0.2394 0.0000 ( 10689 PWs)   bands (ev):

   -62.4650 -36.7858 -36.5763 -36.5171 -13.9901 -13.7198  -7.2375  -6.2615
    -5.6135  -4.7044  -3.4532  -2.6844  -2.4216   0.6106   0.9936   2.1275

     occupation numbers 
     1.0000   1.0000   1.0000   1.0000   1.0000   1.0000   1.0000   1.0000
     1.0000   1.0000   1.0000   1.0000   1.0000   0.0000   0.0000   0.0000

          k = 0.4167 0.3351 0.0000 ( 10682 PWs)   bands (ev):

   -62.4624 -36.7966 -36.5712 -36.5371 -13.8350 -13.6530  -7.2594  -6.4601
    -5.6307  -4.7951  -3.4724  -3.1230  -2.1138   0.6555   1.1468   2.2251

     occupation numbers 
     1.0000   1.0000   1.0000   1.0000   1.0000   1.0000   1.0000   1.0000
     1.0000   1.0000   1.0000   1.0000   1.0000   0.0000   0.0000   0.0000

          k = 0.4167 0.4308 0.0000 ( 10688 PWs)   bands (ev):

   -62.4602 -36.7798 -36.5816 -36.5669 -13.7069 -13.5838  -7.0088  -6.7125
    -5.5697  -4.7685  -3.9807  -3.5253  -1.9322   0.5381   1.4376   1.8575

     occupation numbers 
     1.0000   1.0000   1.0000   1.0000   1.0000   1.0000   1.0000   1.0000
     1.0000   1.0000   1.0000   1.0000   1.0000   0.0000   0.0000   0.0000

          k = 0.4167 0.5266 0.0000 ( 10683 PWs)   bands (ev):

   -62.4589 -36.7463 -36.6314 -36.5643 -13.6369 -13.5382  -6.8919  -6.6191
    -5.4371  -4.8313  -4.6765  -3.6025  -1.8295   0.3263   1.5060   1.6838

     occupation numbers 
     1.0000   1.0000   1.0000   1.0000   1.0000   1.0000   1.0000   1.0000
     1.0000   1.0000   1.0000   1.0000   1.0000   0.0000   0.0000   0.0000

          k = 0.4167-0.1436 0.0000 ( 10715 PWs)   bands (ev):

   -62.4672 -36.7530 -36.5808 -36.5241 -14.1278 -13.7677  -6.9992  -6.1151
    -5.5037  -4.7435  -3.2628  -3.2339  -2.3730   0.5514   0.9399   1.8124

     occupation numbers 
     1.0000   1.0000   1.0000   1.0000   1.0000   1.0000   1.0000   1.0000
     1.0000   1.0000   1.0000   1.0000   1.0000   0.0000   0.0000   0.0000

          k = 0.4167-0.0479 0.0000 ( 10735 PWs)   bands (ev):

   -62.4685 -36.7189 -36.5833 -36.5438 -14.2078 -13.7916  -6.7413  -5.9917
    -5.3423  -4.9245  -3.8401  -2.9749  -2.3764   0.4458   0.9800   1.3614

     occupation numbers 
     1.0000   1.0000   1.0000   1.0000   1.0000   1.0000   1.0000   1.0000
     1.0000   1.0000   1.0000   1.0000   1.0000   0.0000   0.0000   0.0000

          k =-0.5000-0.2872 0.0000 ( 10692 PWs)   bands (ev):

   -62.4624 -36.8106 -36.5711 -36.5230 -13.8264 -13.6571  -7.4002  -6.4290
    -5.6900  -4.7865  -3.5137  -2.5878  -2.2545   0.6475   1.1548   2.2421

     occupation numbers 
     1.0000   1.0000   1.0000   1.0000   1.0000   1.0000   1.0000   1.0000
     1.0000   1.0000   1.0000   1.0000   1.0000   0.0000   0.0000   0.0000

          k =-0.5000-0.1915 0.0000 ( 10692 PWs)   bands (ev):

   -62.4624 -36.7971 -36.5712 -36.5371 -13.8333 -13.6518  -7.2630  -6.4618
    -5.6302  -4.7983  -3.4684  -3.1153  -2.1243   0.6554   1.1611   2.2079

     occupation numbers 
     1.0000   1.0000   1.0000   1.0000   1.0000   1.0000   1.0000   1.0000
     1.0000   1.0000   1.0000   1.0000   1.0000   0.0000   0.0000   0.0000

          k =-0.5000-0.0957 0.0000 ( 10685 PWs)   bands (ev):

   -62.4624 -36.7642 -36.5713 -36.5712 -13.8470 -13.6410  -6.9417  -6.5219
    -5.4471  -4.8434  -3.9742  -3.3443  -2.1216   0.6052   1.2109   1.7034

     occupation numbers 
     1.0000   1.0000   1.0000   1.0000   1.0000   1.0000   1.0000   1.0000
     1.0000   1.0000   1.0000   1.0000   1.0000   0.0000   0.0000   0.0000

          k =-0.5000-0.0000 0.0000 ( 10711 PWs)   bands (ev):

   -62.4624 -36.7424 -36.5938 -36.5712 -13.8538 -13.6356  -6.7478  -6.5498
    -5.2257  -4.8738  -4.5213  -3.2670  -2.1478   0.5644   1.2425   1.4571

     occupation numbers 
     1.0000   1.0000   1.0000   1.0000   1.0000   1.0000   1.0000   1.0000
     1.0000   1.0000   1.0000   1.0000   1.0000   0.0000   0.0000   0.0000

     highest occupied, lowest unoccupied level (ev):    -1.6328    0.0821

!    total energy              =    -181.57951610 Ry
     estimated scf accuracy    <          2.7E-14 Ry

     The total energy is the sum of the following terms:
     one-electron contribution =   -1385.54415401 Ry
     hartree contribution      =     692.36743464 Ry
     xc contribution           =     -29.69535409 Ry
     ewald contribution        =     541.29255736 Ry

     convergence has been achieved in  10 iterations

     negative rho (up, down):  3.855E-04 0.000E+00

     Forces acting on atoms (cartesian axes, Ry/au):

     atom    1 type  1   force =     0.00000000    0.00004528    0.00000000
     atom    2 type  2   force =     0.00000000   -0.00002264    0.00000206
     atom    3 type  2   force =     0.00000000   -0.00002264   -0.00000206
     The non-local contrib.  to forces
     atom    1 type  1   force =     0.00000000   -0.00015116    0.00000000
     atom    2 type  2   force =     0.00000000   -0.00019604   -0.27275580
     atom    3 type  2   force =     0.00000000   -0.00019604    0.27275580
     The ionic contribution  to forces
     atom    1 type  1   force =     0.00000000   -0.04541592    0.00000000
     atom    2 type  2   force =    -0.00000000    0.02270796   37.43804128
     atom    3 type  2   force =    -0.00000000    0.02270796  -37.43804128
     The local contribution  to forces
     atom    1 type  1   force =    -0.00000000    0.04563801    0.00000000
     atom    2 type  2   force =    -0.00000000   -0.02251419  -37.16772968
     atom    3 type  2   force =    -0.00000000   -0.02251419   37.16772968
     The core correction contribution to forces
     atom    1 type  1   force =    -0.00000000   -0.00002592   -0.00000000
     atom    2 type  2   force =     0.00000000   -0.00002068    0.00244657
     atom    3 type  2   force =     0.00000000   -0.00002068   -0.00244657
     The Hubbard contrib.    to forces
     atom    1 type  1   force =     0.00000000    0.00000000    0.00000000
     atom    2 type  2   force =     0.00000000    0.00000000    0.00000000
     atom    3 type  2   force =     0.00000000    0.00000000    0.00000000
     The SCF correction term to forces
     atom    1 type  1   force =    -0.00000000   -0.00000000    0.00000000
     atom    2 type  2   force =     0.00000000    0.00000004   -0.00000032
     atom    3 type  2   force =     0.00000000    0.00000004    0.00000032

     Total force =     0.000056     Total SCF correction =     0.000000


     Computing stress (Cartesian axis) and pressure


     negative rho (up, down):  3.855E-04 0.000E+00
          total   stress  (Ry/bohr**3)                   (kbar)     P=        0.95
   0.00001985   0.00000000   0.00000000            2.92        0.00        0.00
   0.00000000   0.00000481   0.00000000            0.00        0.71        0.00
   0.00000000   0.00000000  -0.00000532            0.00        0.00       -0.78

     kinetic stress (kbar)   4898.11      0.00      0.00
                                0.00   4893.89      0.00
                                0.00      0.00   4938.69

     local   stress (kbar)-148384.66      0.00     -0.00
                                0.00-148360.24      0.00
                               -0.00      0.00 145357.00

     nonloc. stress (kbar)   2238.59      0.00      0.00
                                0.00   2239.16      0.00
                                0.00      0.00   2229.44

     hartree stress (kbar)  72774.33     -0.00      0.00
                               -0.00  72766.27      0.00
                                0.00      0.00 -70979.17

     exc-cor stress (kbar)   -415.74     -0.00      0.00
                               -0.00   -415.79      0.00
                                0.00      0.00   -416.88

     corecor stress (kbar)   -550.61      0.00      0.00
                                0.00   -550.60      0.00
                                0.00      0.00   -551.04

     ewald   stress (kbar)  69442.90     -0.00      0.00
                               -0.00  69428.01      0.00
                                0.00      0.00 -80578.82

     hubbard stress (kbar)      0.00      0.00      0.00
                                0.00      0.00      0.00
                                0.00      0.00      0.00

     DFT-D   stress (kbar)      0.00      0.00      0.00
                                0.00      0.00      0.00
                                0.00      0.00      0.00

     XDM     stress (kbar)      0.00      0.00      0.00
                                0.00      0.00      0.00
                                0.00      0.00      0.00

     dft-nl  stress (kbar)      0.00      0.00      0.00
                                0.00      0.00      0.00
                                0.00      0.00      0.00

     TS-vdW  stress (kbar)      0.00      0.00      0.00
                                0.00      0.00      0.00
                                0.00      0.00      0.00

     MDB     stress (kbar)      0.00      0.00      0.00
                                0.00      0.00      0.00
                                0.00      0.00      0.00

     3D-RISM stress (kbar)      0.00      0.00      0.00
                                0.00      0.00      0.00
                                0.00      0.00      0.00

     Energy error            =      1.5E-08 Ry
     Gradient error          =      4.5E-05 Ry/Bohr

     number of scf cycles    =   5
     number of bfgs steps    =   4

     energy             old  =    -181.5795160877 Ry
     energy             new  =    -181.5795161023 Ry

     CASE: energy            _new < energy            _old

     small trust_radius: resetting bfgs history

     new trust radius        =       0.0000452784 bohr
     new conv_thr            =            1.5E-14 Ry


ATOMIC_POSITIONS (crystal)
Mo              -0.0001891343       -0.0003782686        0.5000000000
S                0.6667612338        0.3335224676        0.5675963376
S                0.6667612338        0.3335224676        0.4324036624



     Writing config-only to output data dir ./tmp/mos2.save/ :
     XML data file
     NEW-OLD atomic charge density approx. for the potential

     negative rho (up, down):  3.855E-04 0.000E+00

     total cpu time spent up to now is      599.8 secs

     Self-consistent Calculation

     iteration #  1     ecut=    60.00 Ry     beta= 0.30
     CG style diagonalization

---- Real-time Memory Report at c_bands before calling an iterative solver
           217 MiB given to the printing process from OS
             0 MiB allocation reported by mallinfo(arena+hblkhd)
          1919 MiB available memory on the node where the printing process lives
------------------
     ethr =  1.00E-06,  avg # of iterations =  2.0

     Threshold (ethr) on eigenvalues was too large:
     Diagonalizing with lowered threshold

     CG style diagonalization

---- Real-time Memory Report at c_bands before calling an iterative solver
           217 MiB given to the printing process from OS
             0 MiB allocation reported by mallinfo(arena+hblkhd)
          2242 MiB available memory on the node where the printing process lives
------------------
     ethr =  2.50E-11,  avg # of iterations =  5.2

     negative rho (up, down):  3.855E-04 0.000E+00

     total cpu time spent up to now is      615.3 secs

     total energy              =    -181.57951610 Ry
     estimated scf accuracy    <          7.8E-11 Ry

     iteration #  2     ecut=    60.00 Ry     beta= 0.30
     CG style diagonalization

---- Real-time Memory Report at c_bands before calling an iterative solver
           217 MiB given to the printing process from OS
             0 MiB allocation reported by mallinfo(arena+hblkhd)
          2374 MiB available memory on the node where the printing process lives
------------------
     ethr =  3.00E-13,  avg # of iterations =  5.6

     negative rho (up, down):  3.855E-04 0.000E+00

     total cpu time spent up to now is      626.1 secs

     total energy              =    -181.57951610 Ry
     estimated scf accuracy    <          4.5E-11 Ry

     iteration #  3     ecut=    60.00 Ry     beta= 0.30
     CG style diagonalization

---- Real-time Memory Report at c_bands before calling an iterative solver
           217 MiB given to the printing process from OS
             0 MiB allocation reported by mallinfo(arena+hblkhd)
          1975 MiB available memory on the node where the printing process lives
------------------
     ethr =  1.73E-13,  avg # of iterations =  3.2

     negative rho (up, down):  3.855E-04 0.000E+00

     total cpu time spent up to now is      632.8 secs

     total energy              =    -181.57951610 Ry
     estimated scf accuracy    <          1.3E-11 Ry

     iteration #  4     ecut=    60.00 Ry     beta= 0.30
     CG style diagonalization

---- Real-time Memory Report at c_bands before calling an iterative solver
           217 MiB given to the printing process from OS
             0 MiB allocation reported by mallinfo(arena+hblkhd)
          1914 MiB available memory on the node where the printing process lives
------------------
     ethr =  1.00E-13,  avg # of iterations =  3.3

     negative rho (up, down):  3.855E-04 0.000E+00

     total cpu time spent up to now is      639.7 secs

     total energy              =    -181.57951610 Ry
     estimated scf accuracy    <          1.5E-12 Ry

     iteration #  5     ecut=    60.00 Ry     beta= 0.30
     CG style diagonalization

---- Real-time Memory Report at c_bands before calling an iterative solver
           217 MiB given to the printing process from OS
             0 MiB allocation reported by mallinfo(arena+hblkhd)
          1918 MiB available memory on the node where the printing process lives
------------------
     ethr =  1.00E-13,  avg # of iterations =  3.0

     negative rho (up, down):  3.855E-04 0.000E+00

     total cpu time spent up to now is      645.9 secs

     total energy              =    -181.57951610 Ry
     estimated scf accuracy    <          7.7E-13 Ry

     iteration #  6     ecut=    60.00 Ry     beta= 0.30
     CG style diagonalization

---- Real-time Memory Report at c_bands before calling an iterative solver
           217 MiB given to the printing process from OS
             0 MiB allocation reported by mallinfo(arena+hblkhd)
          2182 MiB available memory on the node where the printing process lives
------------------
     ethr =  1.00E-13,  avg # of iterations =  3.0

     negative rho (up, down):  3.855E-04 0.000E+00

     total cpu time spent up to now is      652.1 secs

     total energy              =    -181.57951610 Ry
     estimated scf accuracy    <          7.2E-14 Ry

     iteration #  7     ecut=    60.00 Ry     beta= 0.30
     CG style diagonalization

---- Real-time Memory Report at c_bands before calling an iterative solver
           217 MiB given to the printing process from OS
             0 MiB allocation reported by mallinfo(arena+hblkhd)
          1964 MiB available memory on the node where the printing process lives
------------------
     ethr =  1.00E-13,  avg # of iterations =  3.0

     negative rho (up, down):  3.855E-04 0.000E+00

     total cpu time spent up to now is      658.1 secs

     total energy              =    -181.57951610 Ry
     estimated scf accuracy    <          1.7E-14 Ry

     iteration #  8     ecut=    60.00 Ry     beta= 0.30
     CG style diagonalization

---- Real-time Memory Report at c_bands before calling an iterative solver
           217 MiB given to the printing process from OS
             0 MiB allocation reported by mallinfo(arena+hblkhd)
          2171 MiB available memory on the node where the printing process lives
------------------
     ethr =  1.00E-13,  avg # of iterations =  3.0

     negative rho (up, down):  3.855E-04 0.000E+00

     total cpu time spent up to now is      664.6 secs

     End of self-consistent calculation

          k = 0.0000 0.0000 0.0000 ( 10807 PWs)   bands (ev):

   -62.5015 -36.6482 -36.4362 -36.4282 -15.7217 -14.4288  -7.2438  -4.2323
    -4.1784  -3.4280  -3.1135  -3.0812  -1.6631   1.1426   1.1700   1.3679

     occupation numbers 
     1.0000   1.0000   1.0000   1.0000   1.0000   1.0000   1.0000   1.0000
     1.0000   1.0000   1.0000   1.0000   1.0000   0.0000   0.0000   0.0000

          k = 0.0000 0.0957 0.0000 ( 10803 PWs)   bands (ev):

   -62.4989 -36.6432 -36.4621 -36.4340 -15.6191 -14.3863  -7.1261  -4.4598
    -4.0711  -3.9024  -3.2435  -2.8008  -1.7131   1.0120   1.0863   1.2975

     occupation numbers 
     1.0000   1.0000   1.0000   1.0000   1.0000   1.0000   1.0000   1.0000
     1.0000   1.0000   1.0000   1.0000   1.0000   0.0000   0.0000   0.0000

          k = 0.0000 0.1915 0.0000 ( 10775 PWs)   bands (ev):

   -62.4919 -36.6294 -36.5322 -36.4497 -15.3272 -14.2657  -6.8294  -4.9851
    -4.5486  -3.7719  -3.6263  -2.7199  -1.9429   0.6491   0.9631   1.0298

     occupation numbers 
     1.0000   1.0000   1.0000   1.0000   1.0000   1.0000   1.0000   1.0000
     1.0000   1.0000   1.0000   1.0000   1.0000   0.0000   0.0000   0.0000

          k = 0.0000 0.2872 0.0000 ( 10735 PWs)   bands (ev):

   -62.4824 -36.6267 -36.6105 -36.4712 -14.8950 -14.0887  -6.6125  -5.4406
    -5.2068  -4.0558  -3.3522  -2.9704  -2.3688   0.5252   0.7628   1.2891

     occupation numbers 
     1.0000   1.0000   1.0000   1.0000   1.0000   1.0000   1.0000   1.0000
     1.0000   1.0000   1.0000   1.0000   1.0000   0.0000   0.0000   0.0000

          k = 0.0000 0.3830 0.0000 ( 10739 PWs)   bands (ev):

   -62.4729 -36.7198 -36.5915 -36.4926 -14.4096 -13.8942  -6.8594  -5.8138
    -5.5353  -4.4176  -3.2745  -2.9317  -2.6133   0.6181   0.7023   1.7783

     occupation numbers 
     1.0000   1.0000   1.0000   1.0000   1.0000   1.0000   1.0000   1.0000
     1.0000   1.0000   1.0000   1.0000   1.0000   0.0000   0.0000   0.0000

          k = 0.0000 0.4787 0.0000 ( 10677 PWs)   bands (ev):

   -62.4658 -36.7872 -36.5775 -36.5082 -14.0055 -13.7380  -7.2437  -6.2568
    -5.6245  -4.6525  -3.4689  -2.6396  -2.4442   0.6160   0.9859   2.1404

     occupation numbers 
     1.0000   1.0000   1.0000   1.0000   1.0000   1.0000   1.0000   1.0000
     1.0000   1.0000   1.0000   1.0000   1.0000   0.0000   0.0000   0.0000

          k = 0.0000-0.5745 0.0000 ( 10676 PWs)   bands (ev):

   -62.4632 -36.8117 -36.5724 -36.5139 -13.8432 -13.6773  -7.4083  -6.4206
    -5.6955  -4.7335  -3.5317  -2.5401  -2.2800   0.6448   1.1451   2.2578

     occupation numbers 
     1.0000   1.0000   1.0000   1.0000   1.0000   1.0000   1.0000   1.0000
     1.0000   1.0000   1.0000   1.0000   1.0000   0.0000   0.0000   0.0000

          k = 0.0833 0.0479 0.0000 ( 10799 PWs)   bands (ev):

   -62.4988 -36.6431 -36.4570 -36.4396 -15.6182 -14.3854  -7.1253  -4.4258
    -4.1093  -3.8917  -3.2716  -2.7858  -1.7106   1.0248   1.1165   1.2645

     occupation numbers 
     1.0000   1.0000   1.0000   1.0000   1.0000   1.0000   1.0000   1.0000
     1.0000   1.0000   1.0000   1.0000   1.0000   0.0000   0.0000   0.0000

          k = 0.0833 0.1436 0.0000 ( 10757 PWs)   bands (ev):

   -62.4940 -36.6337 -36.5068 -36.4485 -15.4208 -14.3037  -6.9146  -4.8174
    -4.3247  -3.8912  -3.6411  -2.6061  -1.8504   0.7593   0.8814   1.0762

     occupation numbers 
     1.0000   1.0000   1.0000   1.0000   1.0000   1.0000   1.0000   1.0000
     1.0000   1.0000   1.0000   1.0000   1.0000   0.0000   0.0000   0.0000

          k = 0.0833 0.2394 0.0000 ( 10739 PWs)   bands (ev):

   -62.4858 -36.6173 -36.5868 -36.4695 -15.0578 -14.1537  -6.6265  -5.2984
    -4.8729  -4.1797  -3.5759  -2.6407  -2.1894   0.4641   0.8572   0.9595

     occupation numbers 
     1.0000   1.0000   1.0000   1.0000   1.0000   1.0000   1.0000   1.0000
     1.0000   1.0000   1.0000   1.0000   1.0000   0.0000   0.0000   0.0000

          k = 0.0833 0.3351 0.0000 ( 10731 PWs)   bands (ev):

   -62.4763 -36.6770 -36.5984 -36.4945 -14.5955 -13.9648  -6.6479  -5.5226
    -5.4870  -4.5397  -3.3366  -2.9383  -2.4758   0.4151   0.8055   1.3564

     occupation numbers 
     1.0000   1.0000   1.0000   1.0000   1.0000   1.0000   1.0000   1.0000
     1.0000   1.0000   1.0000   1.0000   1.0000   0.0000   0.0000   0.0000

          k = 0.0833 0.4308 0.0000 ( 10715 PWs)   bands (ev):

   -62.4680 -36.7540 -36.5819 -36.5163 -14.1425 -13.7840  -6.9981  -6.1094
    -5.5187  -4.7034  -3.2745  -3.2231  -2.3615   0.5623   0.9153   1.8382

     occupation numbers 
     1.0000   1.0000   1.0000   1.0000   1.0000   1.0000   1.0000   1.0000
     1.0000   1.0000   1.0000   1.0000   1.0000   0.0000   0.0000   0.0000

          k = 0.0833 0.5266 0.0000 ( 10678 PWs)   bands (ev):

   -62.4632 -36.7979 -36.5724 -36.5289 -13.8495 -13.6706  -7.2673  -6.4512
    -5.6372  -4.7546  -3.4842  -3.0920  -2.1259   0.6521   1.1428   2.2331

     occupation numbers 
     1.0000   1.0000   1.0000   1.0000   1.0000   1.0000   1.0000   1.0000
     1.0000   1.0000   1.0000   1.0000   1.0000   0.0000   0.0000   0.0000

          k = 0.1667 0.0957 0.0000 ( 10746 PWs)   bands (ev):

   -62.4916 -36.6291 -36.5275 -36.4565 -15.3237 -14.2620  -6.8268  -4.9587
    -4.5346  -3.8093  -3.6617  -2.7083  -1.9330   0.6724   0.9647   0.9939

     occupation numbers 
     1.0000   1.0000   1.0000   1.0000   1.0000   1.0000   1.0000   1.0000
     1.0000   1.0000   1.0000   1.0000   1.0000   0.0000   0.0000   0.0000

          k = 0.1667 0.1915 0.0000 ( 10754 PWs)   bands (ev):

   -62.4856 -36.6171 -36.5845 -36.4733 -15.0552 -14.1509  -6.6256  -5.2842
    -4.8594  -4.2038  -3.5959  -2.6393  -2.1815   0.4688   0.8409   0.9624

     occupation numbers 
     1.0000   1.0000   1.0000   1.0000   1.0000   1.0000   1.0000   1.0000
     1.0000   1.0000   1.0000   1.0000   1.0000   0.0000   0.0000   0.0000

          k = 0.1667 0.2872 0.0000 ( 10755 PWs)   bands (ev):

   -62.4774 -36.6537 -36.6007 -36.5043 -14.6595 -13.9864  -6.5425  -5.4361
    -5.2860  -4.8040  -3.5748  -2.6782  -2.4080   0.2998   0.8545   1.0660

     occupation numbers 
     1.0000   1.0000   1.0000   1.0000   1.0000   1.0000   1.0000   1.0000
     1.0000   1.0000   1.0000   1.0000   1.0000   0.0000   0.0000   0.0000

          k = 0.1667 0.3830 0.0000 ( 10727 PWs)   bands (ev):

   -62.4692 -36.7185 -36.5842 -36.5388 -14.2202 -13.8040  -6.7316  -5.9811
    -5.3507  -4.9059  -3.8489  -2.9825  -2.3558   0.4510   0.9458   1.3864

     occupation numbers 
     1.0000   1.0000   1.0000   1.0000   1.0000   1.0000   1.0000   1.0000
     1.0000   1.0000   1.0000   1.0000   1.0000   0.0000   0.0000   0.0000

          k = 0.1667 0.4787 0.0000 ( 10694 PWs)   bands (ev):

   -62.4631 -36.7643 -36.5722 -36.5653 -13.8610 -13.6560  -6.9357  -6.5086
    -5.4568  -4.8183  -3.9659  -3.3555  -2.1109   0.5981   1.1793   1.7198

     occupation numbers 
     1.0000   1.0000   1.0000   1.0000   1.0000   1.0000   1.0000   1.0000
     1.0000   1.0000   1.0000   1.0000   1.0000   0.0000   0.0000   0.0000

          k = 0.1667 0.5745 0.0000 ( 10672 PWs)   bands (ev):

   -62.4608 -36.7808 -36.5751 -36.5677 -13.7193 -13.5980  -7.0121  -6.7000
    -5.5751  -4.7429  -3.9591  -3.5360  -1.9382   0.5303   1.4225   1.8657

     occupation numbers 
     1.0000   1.0000   1.0000   1.0000   1.0000   1.0000   1.0000   1.0000
     1.0000   1.0000   1.0000   1.0000   1.0000   0.0000   0.0000   0.0000

          k = 0.1667 0.0000 0.0000 ( 10757 PWs)   bands (ev):

   -62.4939 -36.6334 -36.5027 -36.4541 -15.4182 -14.3011  -6.9123  -4.7958
    -4.3192  -3.9216  -3.6562  -2.6011  -1.8450   0.7757   0.8718   1.0570

     occupation numbers 
     1.0000   1.0000   1.0000   1.0000   1.0000   1.0000   1.0000   1.0000
     1.0000   1.0000   1.0000   1.0000   1.0000   0.0000   0.0000   0.0000

          k = 0.2500 0.1436 0.0000 ( 10740 PWs)   bands (ev):

   -62.4819 -36.6232 -36.6098 -36.4788 -14.8876 -14.0806  -6.6107  -5.4164
    -5.1950  -4.0986  -3.3886  -2.9616  -2.3536   0.5377   0.7302   1.2852

     occupation numbers 
     1.0000   1.0000   1.0000   1.0000   1.0000   1.0000   1.0000   1.0000
     1.0000   1.0000   1.0000   1.0000   1.0000   0.0000   0.0000   0.0000

          k = 0.2500 0.2394 0.0000 ( 10745 PWs)   bands (ev):

   -62.4759 -36.6743 -36.5978 -36.5007 -14.5891 -13.9573  -6.6463  -5.5124
    -5.4656  -4.5712  -3.3666  -2.9385  -2.4645   0.4093   0.7940   1.3585

     occupation numbers 
     1.0000   1.0000   1.0000   1.0000   1.0000   1.0000   1.0000   1.0000
     1.0000   1.0000   1.0000   1.0000   1.0000   0.0000   0.0000   0.0000

          k = 0.2500 0.3351 0.0000 ( 10724 PWs)   bands (ev):

   -62.4689 -36.7171 -36.5839 -36.5423 -14.2164 -13.7993  -6.7293  -5.9806
    -5.3386  -4.9173  -3.8660  -2.9838  -2.3519   0.4498   0.9416   1.3853

     occupation numbers 
     1.0000   1.0000   1.0000   1.0000   1.0000   1.0000   1.0000   1.0000
     1.0000   1.0000   1.0000   1.0000   1.0000   0.0000   0.0000   0.0000

          k = 0.2500 0.4308 0.0000 ( 10709 PWs)   bands (ev):

   -62.4629 -36.7408 -36.5914 -36.5719 -13.8641 -13.6454  -6.7324  -6.5380
    -5.2236  -4.8614  -4.5403  -3.2763  -2.1272   0.5548   1.2054   1.4689

     occupation numbers 
     1.0000   1.0000   1.0000   1.0000   1.0000   1.0000   1.0000   1.0000
     1.0000   1.0000   1.0000   1.0000   1.0000   0.0000   0.0000   0.0000

          k = 0.2500 0.5266 0.0000 ( 10668 PWs)   bands (ev):

   -62.4593 -36.7465 -36.6278 -36.5649 -13.6456 -13.5473  -6.8817  -6.6112
    -5.4446  -4.8256  -4.6617  -3.6122  -1.8227   0.3122   1.5102   1.6625

     occupation numbers 
     1.0000   1.0000   1.0000   1.0000   1.0000   1.0000   1.0000   1.0000
     1.0000   1.0000   1.0000   1.0000   1.0000   0.0000   0.0000   0.0000

          k = 0.2500-0.0479 0.0000 ( 10743 PWs)   bands (ev):

   -62.4854 -36.6168 -36.5838 -36.4760 -15.0513 -14.1471  -6.6235  -5.2832
    -4.8655  -4.2051  -3.6013  -2.6365  -2.1819   0.4678   0.8467   0.9382

     occupation numbers 
     1.0000   1.0000   1.0000   1.0000   1.0000   1.0000   1.0000   1.0000
     1.0000   1.0000   1.0000   1.0000   1.0000   0.0000   0.0000   0.0000

          k = 0.3333 0.1915 0.0000 ( 10729 PWs)   bands (ev):

   -62.4722 -36.7176 -36.5905 -36.5009 -14.3979 -13.8808  -6.8570  -5.8098
    -5.5142  -4.4659  -3.2636  -2.9710  -2.5961   0.5964   0.7101   1.7705

     occupation numbers 
     1.0000   1.0000   1.0000   1.0000   1.0000   1.0000   1.0000   1.0000
     1.0000   1.0000   1.0000   1.0000   1.0000   0.0000   0.0000   0.0000

          k = 0.3333 0.2872 0.0000 ( 10705 PWs)   bands (ev):

   -62.4674 -36.7518 -36.5810 -36.5239 -14.1318 -13.7709  -6.9920  -6.1103
    -5.5030  -4.7379  -3.2708  -3.2535  -2.3519   0.5589   0.9089   1.8355

     occupation numbers 
     1.0000   1.0000   1.0000   1.0000   1.0000   1.0000   1.0000   1.0000
     1.0000   1.0000   1.0000   1.0000   1.0000   0.0000   0.0000   0.0000

          k = 0.3333 0.3830 0.0000 ( 10690 PWs)   bands (ev):

   -62.4626 -36.7626 -36.5715 -36.5710 -13.8527 -13.6458  -6.9297  -6.5155
    -5.4468  -4.8359  -3.9913  -3.3528  -2.1013   0.6006   1.1781   1.7150

     occupation numbers 
     1.0000   1.0000   1.0000   1.0000   1.0000   1.0000   1.0000   1.0000
     1.0000   1.0000   1.0000   1.0000   1.0000   0.0000   0.0000   0.0000

          k = 0.3333 0.4787 0.0000 ( 10665 PWs)   bands (ev):

   -62.4591 -36.7453 -36.6309 -36.5646 -13.6410 -13.5420  -6.8872  -6.6092
    -5.4375  -4.8402  -4.6701  -3.6083  -1.8188   0.3151   1.5082   1.6682

     occupation numbers 
     1.0000   1.0000   1.0000   1.0000   1.0000   1.0000   1.0000   1.0000
     1.0000   1.0000   1.0000   1.0000   1.0000   0.0000   0.0000   0.0000

          k = 0.3333 0.5745 0.0000 ( 10664 PWs)   bands (ev):

   -62.4578 -36.7175 -36.6744 -36.5620 -13.5622 -13.5010  -7.0332  -6.2186
    -5.6965  -5.1721  -4.5118  -3.7967  -1.6328   0.0821   1.4112   1.9227

     occupation numbers 
     1.0000   1.0000   1.0000   1.0000   1.0000   1.0000   1.0000   1.0000
     1.0000   1.0000   1.0000   1.0000   1.0000   0.0000   0.0000   0.0000

          k = 0.3333-0.0957 0.0000 ( 10746 PWs)   bands (ev):

   -62.4757 -36.6753 -36.5975 -36.5017 -14.5845 -13.9532  -6.6496  -5.5201
    -5.4697  -4.5734  -3.3492  -2.9324  -2.4807   0.4039   0.8150   1.3318

     occupation numbers 
     1.0000   1.0000   1.0000   1.0000   1.0000   1.0000   1.0000   1.0000
     1.0000   1.0000   1.0000   1.0000   1.0000   0.0000   0.0000   0.0000

          k = 0.3333 0.0000 0.0000 ( 10743 PWs)   bands (ev):

   -62.4769 -36.6537 -36.6000 -36.5082 -14.6510 -13.9782  -6.5451  -5.4352
    -5.2947  -4.8131  -3.5657  -2.6729  -2.4216   0.2949   0.8728   1.0362

     occupation numbers 
     1.0000   1.0000   1.0000   1.0000   1.0000   1.0000   1.0000   1.0000
     1.0000   1.0000   1.0000   1.0000   1.0000   0.0000   0.0000   0.0000

          k = 0.4167 0.2394 0.0000 ( 10689 PWs)   bands (ev):

   -62.4650 -36.7858 -36.5763 -36.5171 -13.9900 -13.7198  -7.2375  -6.2615
    -5.6135  -4.7043  -3.4532  -2.6844  -2.4217   0.6106   0.9936   2.1276

     occupation numbers 
     1.0000   1.0000   1.0000   1.0000   1.0000   1.0000   1.0000   1.0000
     1.0000   1.0000   1.0000   1.0000   1.0000   0.0000   0.0000   0.0000

          k = 0.4167 0.3351 0.0000 ( 10682 PWs)   bands (ev):

   -62.4624 -36.7966 -36.5712 -36.5371 -13.8349 -13.6530  -7.2594  -6.4601
    -5.6307  -4.7951  -3.4724  -3.1230  -2.1138   0.6555   1.1468   2.2252

     occupation numbers 
     1.0000   1.0000   1.0000   1.0000   1.0000   1.0000   1.0000   1.0000
     1.0000   1.0000   1.0000   1.0000   1.0000   0.0000   0.0000   0.0000

          k = 0.4167 0.4308 0.0000 ( 10688 PWs)   bands (ev):

   -62.4602 -36.7798 -36.5816 -36.5669 -13.7069 -13.5838  -7.0088  -6.7124
    -5.5697  -4.7684  -3.9807  -3.5253  -1.9322   0.5381   1.4375   1.8574

     occupation numbers 
     1.0000   1.0000   1.0000   1.0000   1.0000   1.0000   1.0000   1.0000
     1.0000   1.0000   1.0000   1.0000   1.0000   0.0000   0.0000   0.0000

          k = 0.4167 0.5266 0.0000 ( 10683 PWs)   bands (ev):

   -62.4589 -36.7463 -36.6314 -36.5643 -13.6369 -13.5382  -6.8918  -6.6191
    -5.4371  -4.8313  -4.6765  -3.6025  -1.8295   0.3262   1.5060   1.6837

     occupation numbers 
     1.0000   1.0000   1.0000   1.0000   1.0000   1.0000   1.0000   1.0000
     1.0000   1.0000   1.0000   1.0000   1.0000   0.0000   0.0000   0.0000

          k = 0.4167-0.1436 0.0000 ( 10715 PWs)   bands (ev):

   -62.4672 -36.7530 -36.5808 -36.5241 -14.1277 -13.7677  -6.9992  -6.1150
    -5.5037  -4.7436  -3.2628  -3.2339  -2.3730   0.5514   0.9399   1.8123

     occupation numbers 
     1.0000   1.0000   1.0000   1.0000   1.0000   1.0000   1.0000   1.0000
     1.0000   1.0000   1.0000   1.0000   1.0000   0.0000   0.0000   0.0000

          k = 0.4167-0.0479 0.0000 ( 10735 PWs)   bands (ev):

   -62.4685 -36.7189 -36.5833 -36.5438 -14.2078 -13.7916  -6.7413  -5.9917
    -5.3423  -4.9245  -3.8400  -2.9749  -2.3764   0.4459   0.9800   1.3613

     occupation numbers 
     1.0000   1.0000   1.0000   1.0000   1.0000   1.0000   1.0000   1.0000
     1.0000   1.0000   1.0000   1.0000   1.0000   0.0000   0.0000   0.0000

          k =-0.5000-0.2872 0.0000 ( 10692 PWs)   bands (ev):

   -62.4624 -36.8106 -36.5711 -36.5230 -13.8263 -13.6572  -7.4002  -6.4290
    -5.6900  -4.7864  -3.5137  -2.5877  -2.2545   0.6475   1.1548   2.2421

     occupation numbers 
     1.0000   1.0000   1.0000   1.0000   1.0000   1.0000   1.0000   1.0000
     1.0000   1.0000   1.0000   1.0000   1.0000   0.0000   0.0000   0.0000

          k =-0.5000-0.1915 0.0000 ( 10692 PWs)   bands (ev):

   -62.4624 -36.7971 -36.5712 -36.5371 -13.8333 -13.6518  -7.2630  -6.4617
    -5.6301  -4.7983  -3.4684  -3.1153  -2.1243   0.6554   1.1611   2.2078

     occupation numbers 
     1.0000   1.0000   1.0000   1.0000   1.0000   1.0000   1.0000   1.0000
     1.0000   1.0000   1.0000   1.0000   1.0000   0.0000   0.0000   0.0000

          k =-0.5000-0.0957 0.0000 ( 10685 PWs)   bands (ev):

   -62.4624 -36.7642 -36.5713 -36.5712 -13.8470 -13.6410  -6.9417  -6.5219
    -5.4471  -4.8434  -3.9742  -3.3443  -2.1217   0.6052   1.2109   1.7033

     occupation numbers 
     1.0000   1.0000   1.0000   1.0000   1.0000   1.0000   1.0000   1.0000
     1.0000   1.0000   1.0000   1.0000   1.0000   0.0000   0.0000   0.0000

          k =-0.5000-0.0000 0.0000 ( 10711 PWs)   bands (ev):

   -62.4624 -36.7424 -36.5938 -36.5712 -13.8537 -13.6356  -6.7478  -6.5497
    -5.2257  -4.8738  -4.5213  -3.2670  -2.1478   0.5644   1.2424   1.4571

     occupation numbers 
     1.0000   1.0000   1.0000   1.0000   1.0000   1.0000   1.0000   1.0000
     1.0000   1.0000   1.0000   1.0000   1.0000   0.0000   0.0000   0.0000

     highest occupied, lowest unoccupied level (ev):    -1.6328    0.0821

!    total energy              =    -181.57951610 Ry
     estimated scf accuracy    <          2.9E-15 Ry

     The total energy is the sum of the following terms:
     one-electron contribution =   -1385.54385939 Ry
     hartree contribution      =     692.36728962 Ry
     xc contribution           =     -29.69535271 Ry
     ewald contribution        =     541.29240637 Ry

     convergence has been achieved in   8 iterations

     negative rho (up, down):  3.855E-04 0.000E+00

     Forces acting on atoms (cartesian axes, Ry/au):

     atom    1 type  1   force =     0.00000000    0.00001759    0.00000000
     atom    2 type  2   force =     0.00000000   -0.00000879    0.00000136
     atom    3 type  2   force =     0.00000000   -0.00000879   -0.00000136
     The non-local contrib.  to forces
     atom    1 type  1   force =     0.00000000   -0.00014114    0.00000000
     atom    2 type  2   force =     0.00000000   -0.00018534   -0.27275608
     atom    3 type  2   force =     0.00000000   -0.00018534    0.27275608
     The ionic contribution  to forces
     atom    1 type  1   force =     0.00000000   -0.04560535    0.00000000
     atom    2 type  2   force =    -0.00000000    0.02280267   37.43804210
     atom    3 type  2   force =    -0.00000000    0.02280267  -37.43804210
     The local contribution  to forces
     atom    1 type  1   force =     0.00000000    0.04579027    0.00000000
     atom    2 type  2   force =    -0.00000000   -0.02260532  -37.16773123
     atom    3 type  2   force =    -0.00000000   -0.02260532   37.16773123
     The core correction contribution to forces
     atom    1 type  1   force =    -0.00000000   -0.00002657   -0.00000000
     atom    2 type  2   force =     0.00000000   -0.00002108    0.00244658
     atom    3 type  2   force =     0.00000000   -0.00002108   -0.00244658
     The Hubbard contrib.    to forces
     atom    1 type  1   force =     0.00000000    0.00000000    0.00000000
     atom    2 type  2   force =     0.00000000    0.00000000    0.00000000
     atom    3 type  2   force =     0.00000000    0.00000000    0.00000000
     The SCF correction term to forces
     atom    1 type  1   force =    -0.00000000    0.00000007   -0.00000000
     atom    2 type  2   force =     0.00000000   -0.00000004   -0.00000002
     atom    3 type  2   force =     0.00000000   -0.00000004    0.00000002

     Total force =     0.000022     Total SCF correction =     0.000000


     Computing stress (Cartesian axis) and pressure


     negative rho (up, down):  3.855E-04 0.000E+00
          total   stress  (Ry/bohr**3)                   (kbar)     P=        0.95
   0.00001986   0.00000000   0.00000000            2.92        0.00        0.00
   0.00000000   0.00000480   0.00000000            0.00        0.71        0.00
   0.00000000   0.00000000  -0.00000532            0.00        0.00       -0.78

     kinetic stress (kbar)   4898.11      0.00      0.00
                                0.00   4893.89      0.00
                                0.00      0.00   4938.69

     local   stress (kbar)-148384.73      0.00     -0.00
                                0.00-148360.10      0.00
                               -0.00      0.00 145356.96

     nonloc. stress (kbar)   2238.59      0.00      0.00
                                0.00   2239.16      0.00
                                0.00      0.00   2229.44

     hartree stress (kbar)  72774.34     -0.00     -0.00
                               -0.00  72766.23      0.00
                               -0.00      0.00 -70979.16

     exc-cor stress (kbar)   -415.74     -0.00     -0.00
                               -0.00   -415.79     -0.00
                               -0.00     -0.00   -416.88

     corecor stress (kbar)   -550.61      0.00     -0.00
                                0.00   -550.60     -0.00
                               -0.00     -0.00   -551.04

     ewald   stress (kbar)  69442.96     -0.00     -0.00
                               -0.00  69427.91      0.00
                               -0.00      0.00 -80578.80

     hubbard stress (kbar)      0.00      0.00      0.00
                                0.00      0.00      0.00
                                0.00      0.00      0.00

     DFT-D   stress (kbar)      0.00      0.00      0.00
                                0.00      0.00      0.00
                                0.00      0.00      0.00

     XDM     stress (kbar)      0.00      0.00      0.00
                                0.00      0.00      0.00
                                0.00      0.00      0.00

     dft-nl  stress (kbar)      0.00      0.00      0.00
                                0.00      0.00      0.00
                                0.00      0.00      0.00

     TS-vdW  stress (kbar)      0.00      0.00      0.00
                                0.00      0.00      0.00
                                0.00      0.00      0.00

     MDB     stress (kbar)      0.00      0.00      0.00
                                0.00      0.00      0.00
                                0.00      0.00      0.00

     3D-RISM stress (kbar)      0.00      0.00      0.00
                                0.00      0.00      0.00
                                0.00      0.00      0.00

     Energy error            =      2.3E-09 Ry
     Gradient error          =      1.8E-05 Ry/Bohr

     number of scf cycles    =   6
     number of bfgs steps    =   5

     energy             old  =    -181.5795161023 Ry
     energy             new  =    -181.5795161046 Ry

     CASE: energy            _new < energy            _old

     Message from routine bfgs :: compute_trust_radius:
     history already reset at previous step: stopping
     small trust_radius: resetting bfgs history

     new trust radius        =       0.0000175866 bohr
     new conv_thr            =            1.0E-14 Ry


ATOMIC_POSITIONS (crystal)
Mo              -0.0001874461       -0.0003748922        0.5000000000
S                0.6667603897        0.3335207794        0.5675963686
S                0.6667603897        0.3335207794        0.4324036314



     Writing config-only to output data dir ./tmp/mos2.save/ :
     XML data file
     NEW-OLD atomic charge density approx. for the potential

     negative rho (up, down):  3.855E-04 0.000E+00

     total cpu time spent up to now is      672.6 secs

     Self-consistent Calculation

     iteration #  1     ecut=    60.00 Ry     beta= 0.30
     CG style diagonalization

---- Real-time Memory Report at c_bands before calling an iterative solver
           219 MiB given to the printing process from OS
             0 MiB allocation reported by mallinfo(arena+hblkhd)
          2098 MiB available memory on the node where the printing process lives
------------------
     ethr =  1.00E-06,  avg # of iterations =  2.0

     Threshold (ethr) on eigenvalues was too large:
     Diagonalizing with lowered threshold

     CG style diagonalization

---- Real-time Memory Report at c_bands before calling an iterative solver
           219 MiB given to the printing process from OS
             0 MiB allocation reported by mallinfo(arena+hblkhd)
          1968 MiB available memory on the node where the printing process lives
------------------
     ethr =  3.80E-12,  avg # of iterations =  5.2

     negative rho (up, down):  3.855E-04 0.000E+00

     total cpu time spent up to now is      687.6 secs

     total energy              =    -181.57951610 Ry
     estimated scf accuracy    <          1.2E-11 Ry

     iteration #  2     ecut=    60.00 Ry     beta= 0.30
     CG style diagonalization

---- Real-time Memory Report at c_bands before calling an iterative solver
           219 MiB given to the printing process from OS
             0 MiB allocation reported by mallinfo(arena+hblkhd)
          1840 MiB available memory on the node where the printing process lives
------------------
     ethr =  1.00E-13,  avg # of iterations =  5.1

     negative rho (up, down):  3.855E-04 0.000E+00

     total cpu time spent up to now is      697.5 secs

     total energy              =    -181.57951610 Ry
     estimated scf accuracy    <          6.8E-12 Ry

     iteration #  3     ecut=    60.00 Ry     beta= 0.30
     CG style diagonalization

---- Real-time Memory Report at c_bands before calling an iterative solver
           219 MiB given to the printing process from OS
             0 MiB allocation reported by mallinfo(arena+hblkhd)
          2058 MiB available memory on the node where the printing process lives
------------------
     ethr =  1.00E-13,  avg # of iterations =  3.0

     negative rho (up, down):  3.855E-04 0.000E+00

     total cpu time spent up to now is      703.6 secs

     total energy              =    -181.57951610 Ry
     estimated scf accuracy    <          1.4E-12 Ry

     iteration #  4     ecut=    60.00 Ry     beta= 0.30
     CG style diagonalization

---- Real-time Memory Report at c_bands before calling an iterative solver
           219 MiB given to the printing process from OS
             0 MiB allocation reported by mallinfo(arena+hblkhd)
          2243 MiB available memory on the node where the printing process lives
------------------
     ethr =  1.00E-13,  avg # of iterations =  3.0

     negative rho (up, down):  3.855E-04 0.000E+00

     total cpu time spent up to now is      710.1 secs

     total energy              =    -181.57951610 Ry
     estimated scf accuracy    <          1.6E-13 Ry

     iteration #  5     ecut=    60.00 Ry     beta= 0.30
     CG style diagonalization

---- Real-time Memory Report at c_bands before calling an iterative solver
           219 MiB given to the printing process from OS
             0 MiB allocation reported by mallinfo(arena+hblkhd)
          2213 MiB available memory on the node where the printing process lives
------------------
     ethr =  1.00E-13,  avg # of iterations =  3.0

     negative rho (up, down):  3.855E-04 0.000E+00

     total cpu time spent up to now is      716.5 secs

     total energy              =    -181.57951610 Ry
     estimated scf accuracy    <          1.1E-13 Ry

     iteration #  6     ecut=    60.00 Ry     beta= 0.30
     CG style diagonalization

---- Real-time Memory Report at c_bands before calling an iterative solver
           219 MiB given to the printing process from OS
             0 MiB allocation reported by mallinfo(arena+hblkhd)
          1814 MiB available memory on the node where the printing process lives
------------------
     ethr =  1.00E-13,  avg # of iterations =  3.0

     negative rho (up, down):  3.855E-04 0.000E+00

     total cpu time spent up to now is      723.0 secs

     total energy              =    -181.57951610 Ry
     estimated scf accuracy    <          4.1E-14 Ry

     iteration #  7     ecut=    60.00 Ry     beta= 0.30
     CG style diagonalization

---- Real-time Memory Report at c_bands before calling an iterative solver
           219 MiB given to the printing process from OS
             0 MiB allocation reported by mallinfo(arena+hblkhd)
          1787 MiB available memory on the node where the printing process lives
------------------
     ethr =  1.00E-13,  avg # of iterations =  3.0

     negative rho (up, down):  3.855E-04 0.000E+00

     total cpu time spent up to now is      728.9 secs

     End of self-consistent calculation

          k = 0.0000 0.0000 0.0000 ( 10807 PWs)   bands (ev):

   -62.5015 -36.6482 -36.4362 -36.4282 -15.7217 -14.4288  -7.2438  -4.2323
    -4.1783  -3.4280  -3.1135  -3.0813  -1.6631   1.1425   1.1701   1.3679

     occupation numbers 
     1.0000   1.0000   1.0000   1.0000   1.0000   1.0000   1.0000   1.0000
     1.0000   1.0000   1.0000   1.0000   1.0000   0.0000   0.0000   0.0000

          k = 0.0000 0.0957 0.0000 ( 10803 PWs)   bands (ev):

   -62.4989 -36.6432 -36.4621 -36.4340 -15.6191 -14.3863  -7.1261  -4.4598
    -4.0711  -3.9024  -3.2436  -2.8008  -1.7131   1.0119   1.0863   1.2975

     occupation numbers 
     1.0000   1.0000   1.0000   1.0000   1.0000   1.0000   1.0000   1.0000
     1.0000   1.0000   1.0000   1.0000   1.0000   0.0000   0.0000   0.0000

          k = 0.0000 0.1915 0.0000 ( 10775 PWs)   bands (ev):

   -62.4919 -36.6294 -36.5322 -36.4497 -15.3272 -14.2657  -6.8294  -4.9851
    -4.5486  -3.7719  -3.6263  -2.7199  -1.9429   0.6491   0.9631   1.0298

     occupation numbers 
     1.0000   1.0000   1.0000   1.0000   1.0000   1.0000   1.0000   1.0000
     1.0000   1.0000   1.0000   1.0000   1.0000   0.0000   0.0000   0.0000

          k = 0.0000 0.2872 0.0000 ( 10735 PWs)   bands (ev):

   -62.4824 -36.6267 -36.6105 -36.4712 -14.8950 -14.0887  -6.6125  -5.4406
    -5.2068  -4.0559  -3.3522  -2.9704  -2.3688   0.5252   0.7628   1.2891

     occupation numbers 
     1.0000   1.0000   1.0000   1.0000   1.0000   1.0000   1.0000   1.0000
     1.0000   1.0000   1.0000   1.0000   1.0000   0.0000   0.0000   0.0000

          k = 0.0000 0.3830 0.0000 ( 10739 PWs)   bands (ev):

   -62.4729 -36.7198 -36.5915 -36.4926 -14.4097 -13.8942  -6.8594  -5.8138
    -5.5354  -4.4176  -3.2745  -2.9317  -2.6132   0.6181   0.7023   1.7783

     occupation numbers 
     1.0000   1.0000   1.0000   1.0000   1.0000   1.0000   1.0000   1.0000
     1.0000   1.0000   1.0000   1.0000   1.0000   0.0000   0.0000   0.0000

          k = 0.0000 0.4787 0.0000 ( 10677 PWs)   bands (ev):

   -62.4658 -36.7872 -36.5775 -36.5082 -14.0055 -13.7380  -7.2437  -6.2569
    -5.6245  -4.6525  -3.4689  -2.6396  -2.4442   0.6160   0.9859   2.1404

     occupation numbers 
     1.0000   1.0000   1.0000   1.0000   1.0000   1.0000   1.0000   1.0000
     1.0000   1.0000   1.0000   1.0000   1.0000   0.0000   0.0000   0.0000

          k = 0.0000-0.5745 0.0000 ( 10676 PWs)   bands (ev):

   -62.4632 -36.8117 -36.5724 -36.5139 -13.8433 -13.6773  -7.4083  -6.4207
    -5.6955  -4.7335  -3.5317  -2.5401  -2.2800   0.6448   1.1451   2.2577

     occupation numbers 
     1.0000   1.0000   1.0000   1.0000   1.0000   1.0000   1.0000   1.0000
     1.0000   1.0000   1.0000   1.0000   1.0000   0.0000   0.0000   0.0000

          k = 0.0833 0.0479 0.0000 ( 10799 PWs)   bands (ev):

   -62.4988 -36.6431 -36.4570 -36.4396 -15.6182 -14.3854  -7.1253  -4.4258
    -4.1093  -3.8918  -3.2715  -2.7858  -1.7106   1.0249   1.1164   1.2645

     occupation numbers 
     1.0000   1.0000   1.0000   1.0000   1.0000   1.0000   1.0000   1.0000
     1.0000   1.0000   1.0000   1.0000   1.0000   0.0000   0.0000   0.0000

          k = 0.0833 0.1436 0.0000 ( 10757 PWs)   bands (ev):

   -62.4940 -36.6337 -36.5068 -36.4485 -15.4208 -14.3037  -6.9146  -4.8174
    -4.3246  -3.8912  -3.6411  -2.6061  -1.8503   0.7593   0.8814   1.0761

     occupation numbers 
     1.0000   1.0000   1.0000   1.0000   1.0000   1.0000   1.0000   1.0000
     1.0000   1.0000   1.0000   1.0000   1.0000   0.0000   0.0000   0.0000

          k = 0.0833 0.2394 0.0000 ( 10739 PWs)   bands (ev):

   -62.4858 -36.6173 -36.5868 -36.4695 -15.0578 -14.1537  -6.6265  -5.2984
    -4.8729  -4.1798  -3.5759  -2.6407  -2.1894   0.4641   0.8572   0.9595

     occupation numbers 
     1.0000   1.0000   1.0000   1.0000   1.0000   1.0000   1.0000   1.0000
     1.0000   1.0000   1.0000   1.0000   1.0000   0.0000   0.0000   0.0000

          k = 0.0833 0.3351 0.0000 ( 10731 PWs)   bands (ev):

   -62.4763 -36.6770 -36.5984 -36.4945 -14.5955 -13.9648  -6.6479  -5.5226
    -5.4870  -4.5397  -3.3365  -2.9383  -2.4758   0.4151   0.8055   1.3564

     occupation numbers 
     1.0000   1.0000   1.0000   1.0000   1.0000   1.0000   1.0000   1.0000
     1.0000   1.0000   1.0000   1.0000   1.0000   0.0000   0.0000   0.0000

          k = 0.0833 0.4308 0.0000 ( 10715 PWs)   bands (ev):

   -62.4680 -36.7540 -36.5819 -36.5163 -14.1425 -13.7840  -6.9981  -6.1094
    -5.5187  -4.7034  -3.2745  -3.2231  -2.3615   0.5623   0.9153   1.8382

     occupation numbers 
     1.0000   1.0000   1.0000   1.0000   1.0000   1.0000   1.0000   1.0000
     1.0000   1.0000   1.0000   1.0000   1.0000   0.0000   0.0000   0.0000

          k = 0.0833 0.5266 0.0000 ( 10678 PWs)   bands (ev):

   -62.4632 -36.7979 -36.5724 -36.5289 -13.8495 -13.6706  -7.2673  -6.4512
    -5.6372  -4.7546  -3.4842  -3.0920  -2.1259   0.6521   1.1428   2.2331

     occupation numbers 
     1.0000   1.0000   1.0000   1.0000   1.0000   1.0000   1.0000   1.0000
     1.0000   1.0000   1.0000   1.0000   1.0000   0.0000   0.0000   0.0000

          k = 0.1667 0.0957 0.0000 ( 10746 PWs)   bands (ev):

   -62.4916 -36.6291 -36.5275 -36.4565 -15.3237 -14.2620  -6.8268  -4.9587
    -4.5346  -3.8093  -3.6617  -2.7083  -1.9330   0.6724   0.9647   0.9939

     occupation numbers 
     1.0000   1.0000   1.0000   1.0000   1.0000   1.0000   1.0000   1.0000
     1.0000   1.0000   1.0000   1.0000   1.0000   0.0000   0.0000   0.0000

          k = 0.1667 0.1915 0.0000 ( 10754 PWs)   bands (ev):

   -62.4856 -36.6171 -36.5845 -36.4733 -15.0552 -14.1509  -6.6256  -5.2842
    -4.8594  -4.2038  -3.5959  -2.6393  -2.1815   0.4687   0.8410   0.9624

     occupation numbers 
     1.0000   1.0000   1.0000   1.0000   1.0000   1.0000   1.0000   1.0000
     1.0000   1.0000   1.0000   1.0000   1.0000   0.0000   0.0000   0.0000

          k = 0.1667 0.2872 0.0000 ( 10755 PWs)   bands (ev):

   -62.4774 -36.6537 -36.6007 -36.5043 -14.6595 -13.9864  -6.5425  -5.4361
    -5.2860  -4.8040  -3.5748  -2.6782  -2.4080   0.2998   0.8545   1.0660

     occupation numbers 
     1.0000   1.0000   1.0000   1.0000   1.0000   1.0000   1.0000   1.0000
     1.0000   1.0000   1.0000   1.0000   1.0000   0.0000   0.0000   0.0000

          k = 0.1667 0.3830 0.0000 ( 10727 PWs)   bands (ev):

   -62.4692 -36.7185 -36.5842 -36.5388 -14.2202 -13.8040  -6.7316  -5.9811
    -5.3507  -4.9059  -3.8489  -2.9825  -2.3558   0.4510   0.9458   1.3864

     occupation numbers 
     1.0000   1.0000   1.0000   1.0000   1.0000   1.0000   1.0000   1.0000
     1.0000   1.0000   1.0000   1.0000   1.0000   0.0000   0.0000   0.0000

          k = 0.1667 0.4787 0.0000 ( 10694 PWs)   bands (ev):

   -62.4631 -36.7643 -36.5722 -36.5653 -13.8610 -13.6559  -6.9357  -6.5086
    -5.4568  -4.8183  -3.9659  -3.3555  -2.1109   0.5981   1.1793   1.7198

     occupation numbers 
     1.0000   1.0000   1.0000   1.0000   1.0000   1.0000   1.0000   1.0000
     1.0000   1.0000   1.0000   1.0000   1.0000   0.0000   0.0000   0.0000

          k = 0.1667 0.5745 0.0000 ( 10672 PWs)   bands (ev):

   -62.4608 -36.7808 -36.5751 -36.5677 -13.7193 -13.5980  -7.0121  -6.7001
    -5.5752  -4.7429  -3.9591  -3.5360  -1.9382   0.5303   1.4225   1.8657

     occupation numbers 
     1.0000   1.0000   1.0000   1.0000   1.0000   1.0000   1.0000   1.0000
     1.0000   1.0000   1.0000   1.0000   1.0000   0.0000   0.0000   0.0000

          k = 0.1667 0.0000 0.0000 ( 10757 PWs)   bands (ev):

   -62.4939 -36.6334 -36.5027 -36.4541 -15.4182 -14.3011  -6.9123  -4.7958
    -4.3193  -3.9217  -3.6561  -2.6011  -1.8450   0.7756   0.8718   1.0570

     occupation numbers 
     1.0000   1.0000   1.0000   1.0000   1.0000   1.0000   1.0000   1.0000
     1.0000   1.0000   1.0000   1.0000   1.0000   0.0000   0.0000   0.0000

          k = 0.2500 0.1436 0.0000 ( 10740 PWs)   bands (ev):

   -62.4819 -36.6232 -36.6098 -36.4788 -14.8876 -14.0806  -6.6107  -5.4164
    -5.1950  -4.0985  -3.3886  -2.9616  -2.3536   0.5377   0.7302   1.2852

     occupation numbers 
     1.0000   1.0000   1.0000   1.0000   1.0000   1.0000   1.0000   1.0000
     1.0000   1.0000   1.0000   1.0000   1.0000   0.0000   0.0000   0.0000

          k = 0.2500 0.2394 0.0000 ( 10745 PWs)   bands (ev):

   -62.4759 -36.6743 -36.5978 -36.5007 -14.5891 -13.9573  -6.6463  -5.5124
    -5.4656  -4.5712  -3.3666  -2.9385  -2.4645   0.4093   0.7940   1.3585

     occupation numbers 
     1.0000   1.0000   1.0000   1.0000   1.0000   1.0000   1.0000   1.0000
     1.0000   1.0000   1.0000   1.0000   1.0000   0.0000   0.0000   0.0000

          k = 0.2500 0.3351 0.0000 ( 10724 PWs)   bands (ev):

   -62.4689 -36.7171 -36.5839 -36.5423 -14.2164 -13.7993  -6.7293  -5.9806
    -5.3386  -4.9172  -3.8660  -2.9838  -2.3519   0.4498   0.9417   1.3854

     occupation numbers 
     1.0000   1.0000   1.0000   1.0000   1.0000   1.0000   1.0000   1.0000
     1.0000   1.0000   1.0000   1.0000   1.0000   0.0000   0.0000   0.0000

          k = 0.2500 0.4308 0.0000 ( 10709 PWs)   bands (ev):

   -62.4629 -36.7408 -36.5914 -36.5719 -13.8641 -13.6454  -6.7324  -6.5380
    -5.2236  -4.8614  -4.5403  -3.2763  -2.1272   0.5548   1.2054   1.4689

     occupation numbers 
     1.0000   1.0000   1.0000   1.0000   1.0000   1.0000   1.0000   1.0000
     1.0000   1.0000   1.0000   1.0000   1.0000   0.0000   0.0000   0.0000

          k = 0.2500 0.5266 0.0000 ( 10668 PWs)   bands (ev):

   -62.4593 -36.7465 -36.6278 -36.5649 -13.6456 -13.5473  -6.8817  -6.6112
    -5.4446  -4.8256  -4.6617  -3.6122  -1.8227   0.3122   1.5102   1.6625

     occupation numbers 
     1.0000   1.0000   1.0000   1.0000   1.0000   1.0000   1.0000   1.0000
     1.0000   1.0000   1.0000   1.0000   1.0000   0.0000   0.0000   0.0000

          k = 0.2500-0.0479 0.0000 ( 10743 PWs)   bands (ev):

   -62.4854 -36.6168 -36.5838 -36.4760 -15.0513 -14.1471  -6.6234  -5.2832
    -4.8655  -4.2050  -3.6013  -2.6365  -2.1820   0.4678   0.8467   0.9383

     occupation numbers 
     1.0000   1.0000   1.0000   1.0000   1.0000   1.0000   1.0000   1.0000
     1.0000   1.0000   1.0000   1.0000   1.0000   0.0000   0.0000   0.0000

          k = 0.3333 0.1915 0.0000 ( 10729 PWs)   bands (ev):

   -62.4722 -36.7176 -36.5905 -36.5009 -14.3979 -13.8808  -6.8570  -5.8098
    -5.5141  -4.4659  -3.2636  -2.9710  -2.5961   0.5964   0.7101   1.7706

     occupation numbers 
     1.0000   1.0000   1.0000   1.0000   1.0000   1.0000   1.0000   1.0000
     1.0000   1.0000   1.0000   1.0000   1.0000   0.0000   0.0000   0.0000

          k = 0.3333 0.2872 0.0000 ( 10705 PWs)   bands (ev):

   -62.4674 -36.7518 -36.5810 -36.5239 -14.1317 -13.7709  -6.9920  -6.1103
    -5.5030  -4.7378  -3.2709  -3.2535  -2.3519   0.5589   0.9089   1.8355

     occupation numbers 
     1.0000   1.0000   1.0000   1.0000   1.0000   1.0000   1.0000   1.0000
     1.0000   1.0000   1.0000   1.0000   1.0000   0.0000   0.0000   0.0000

          k = 0.3333 0.3830 0.0000 ( 10690 PWs)   bands (ev):

   -62.4626 -36.7626 -36.5715 -36.5710 -13.8527 -13.6458  -6.9297  -6.5155
    -5.4468  -4.8359  -3.9913  -3.3529  -2.1013   0.6006   1.1781   1.7150

     occupation numbers 
     1.0000   1.0000   1.0000   1.0000   1.0000   1.0000   1.0000   1.0000
     1.0000   1.0000   1.0000   1.0000   1.0000   0.0000   0.0000   0.0000

          k = 0.3333 0.4787 0.0000 ( 10665 PWs)   bands (ev):

   -62.4591 -36.7453 -36.6309 -36.5646 -13.6410 -13.5420  -6.8872  -6.6092
    -5.4375  -4.8402  -4.6701  -3.6083  -1.8188   0.3151   1.5082   1.6682

     occupation numbers 
     1.0000   1.0000   1.0000   1.0000   1.0000   1.0000   1.0000   1.0000
     1.0000   1.0000   1.0000   1.0000   1.0000   0.0000   0.0000   0.0000

          k = 0.3333 0.5745 0.0000 ( 10664 PWs)   bands (ev):

   -62.4578 -36.7175 -36.6744 -36.5620 -13.5622 -13.5010  -7.0332  -6.2186
    -5.6965  -5.1721  -4.5118  -3.7967  -1.6328   0.0821   1.4112   1.9227

     occupation numbers 
     1.0000   1.0000   1.0000   1.0000   1.0000   1.0000   1.0000   1.0000
     1.0000   1.0000   1.0000   1.0000   1.0000   0.0000   0.0000   0.0000

          k = 0.3333-0.0957 0.0000 ( 10746 PWs)   bands (ev):

   -62.4757 -36.6753 -36.5975 -36.5017 -14.5845 -13.9532  -6.6495  -5.5200
    -5.4697  -4.5734  -3.3492  -2.9324  -2.4807   0.4039   0.8150   1.3318

     occupation numbers 
     1.0000   1.0000   1.0000   1.0000   1.0000   1.0000   1.0000   1.0000
     1.0000   1.0000   1.0000   1.0000   1.0000   0.0000   0.0000   0.0000

          k = 0.3333 0.0000 0.0000 ( 10743 PWs)   bands (ev):

   -62.4769 -36.6537 -36.6000 -36.5082 -14.6510 -13.9782  -6.5451  -5.4352
    -5.2947  -4.8131  -3.5657  -2.6729  -2.4217   0.2950   0.8727   1.0362

     occupation numbers 
     1.0000   1.0000   1.0000   1.0000   1.0000   1.0000   1.0000   1.0000
     1.0000   1.0000   1.0000   1.0000   1.0000   0.0000   0.0000   0.0000

          k = 0.4167 0.2394 0.0000 ( 10689 PWs)   bands (ev):

   -62.4650 -36.7858 -36.5763 -36.5171 -13.9900 -13.7198  -7.2375  -6.2615
    -5.6135  -4.7043  -3.4533  -2.6844  -2.4217   0.6106   0.9936   2.1276

     occupation numbers 
     1.0000   1.0000   1.0000   1.0000   1.0000   1.0000   1.0000   1.0000
     1.0000   1.0000   1.0000   1.0000   1.0000   0.0000   0.0000   0.0000

          k = 0.4167 0.3351 0.0000 ( 10682 PWs)   bands (ev):

   -62.4624 -36.7966 -36.5712 -36.5371 -13.8349 -13.6530  -7.2594  -6.4601
    -5.6307  -4.7951  -3.4724  -3.1230  -2.1138   0.6555   1.1468   2.2253

     occupation numbers 
     1.0000   1.0000   1.0000   1.0000   1.0000   1.0000   1.0000   1.0000
     1.0000   1.0000   1.0000   1.0000   1.0000   0.0000   0.0000   0.0000

          k = 0.4167 0.4308 0.0000 ( 10688 PWs)   bands (ev):

   -62.4602 -36.7798 -36.5816 -36.5669 -13.7069 -13.5838  -7.0088  -6.7124
    -5.5697  -4.7684  -3.9807  -3.5253  -1.9322   0.5381   1.4375   1.8574

     occupation numbers 
     1.0000   1.0000   1.0000   1.0000   1.0000   1.0000   1.0000   1.0000
     1.0000   1.0000   1.0000   1.0000   1.0000   0.0000   0.0000   0.0000

          k = 0.4167 0.5266 0.0000 ( 10683 PWs)   bands (ev):

   -62.4589 -36.7463 -36.6314 -36.5643 -13.6369 -13.5382  -6.8918  -6.6191
    -5.4371  -4.8313  -4.6765  -3.6025  -1.8295   0.3262   1.5060   1.6837

     occupation numbers 
     1.0000   1.0000   1.0000   1.0000   1.0000   1.0000   1.0000   1.0000
     1.0000   1.0000   1.0000   1.0000   1.0000   0.0000   0.0000   0.0000

          k = 0.4167-0.1436 0.0000 ( 10715 PWs)   bands (ev):

   -62.4672 -36.7530 -36.5808 -36.5241 -14.1277 -13.7677  -6.9992  -6.1150
    -5.5036  -4.7436  -3.2628  -3.2339  -2.3730   0.5514   0.9399   1.8123

     occupation numbers 
     1.0000   1.0000   1.0000   1.0000   1.0000   1.0000   1.0000   1.0000
     1.0000   1.0000   1.0000   1.0000   1.0000   0.0000   0.0000   0.0000

          k = 0.4167-0.0479 0.0000 ( 10735 PWs)   bands (ev):

   -62.4685 -36.7189 -36.5833 -36.5438 -14.2078 -13.7916  -6.7413  -5.9916
    -5.3423  -4.9246  -3.8400  -2.9749  -2.3764   0.4459   0.9800   1.3613

     occupation numbers 
     1.0000   1.0000   1.0000   1.0000   1.0000   1.0000   1.0000   1.0000
     1.0000   1.0000   1.0000   1.0000   1.0000   0.0000   0.0000   0.0000

          k =-0.5000-0.2872 0.0000 ( 10692 PWs)   bands (ev):

   -62.4624 -36.8106 -36.5711 -36.5230 -13.8263 -13.6572  -7.4002  -6.4290
    -5.6900  -4.7864  -3.5137  -2.5877  -2.2545   0.6475   1.1548   2.2421

     occupation numbers 
     1.0000   1.0000   1.0000   1.0000   1.0000   1.0000   1.0000   1.0000
     1.0000   1.0000   1.0000   1.0000   1.0000   0.0000   0.0000   0.0000

          k =-0.5000-0.1915 0.0000 ( 10692 PWs)   bands (ev):

   -62.4624 -36.7971 -36.5712 -36.5371 -13.8333 -13.6518  -7.2630  -6.4617
    -5.6301  -4.7983  -3.4685  -3.1153  -2.1244   0.6554   1.1611   2.2078

     occupation numbers 
     1.0000   1.0000   1.0000   1.0000   1.0000   1.0000   1.0000   1.0000
     1.0000   1.0000   1.0000   1.0000   1.0000   0.0000   0.0000   0.0000

          k =-0.5000-0.0957 0.0000 ( 10685 PWs)   bands (ev):

   -62.4624 -36.7642 -36.5713 -36.5712 -13.8470 -13.6410  -6.9417  -6.5219
    -5.4471  -4.8434  -3.9742  -3.3443  -2.1217   0.6052   1.2108   1.7033

     occupation numbers 
     1.0000   1.0000   1.0000   1.0000   1.0000   1.0000   1.0000   1.0000
     1.0000   1.0000   1.0000   1.0000   1.0000   0.0000   0.0000   0.0000

          k =-0.5000-0.0000 0.0000 ( 10711 PWs)   bands (ev):

   -62.4624 -36.7424 -36.5938 -36.5712 -13.8537 -13.6356  -6.7478  -6.5497
    -5.2257  -4.8738  -4.5213  -3.2670  -2.1478   0.5644   1.2424   1.4571

     occupation numbers 
     1.0000   1.0000   1.0000   1.0000   1.0000   1.0000   1.0000   1.0000
     1.0000   1.0000   1.0000   1.0000   1.0000   0.0000   0.0000   0.0000

     highest occupied, lowest unoccupied level (ev):    -1.6328    0.0821

!    total energy              =    -181.57951610 Ry
     estimated scf accuracy    <          1.0E-15 Ry

     The total energy is the sum of the following terms:
     one-electron contribution =   -1385.54366183 Ry
     hartree contribution      =     692.36719141 Ry
     xc contribution           =     -29.69535169 Ry
     ewald contribution        =     541.29230600 Ry

     convergence has been achieved in   7 iterations

     negative rho (up, down):  3.855E-04 0.000E+00

     Forces acting on atoms (cartesian axes, Ry/au):

     atom    1 type  1   force =     0.00000000    0.00000679    0.00000000
     atom    2 type  2   force =     0.00000000   -0.00000340    0.00000087
     atom    3 type  2   force =     0.00000000   -0.00000340   -0.00000087
     The non-local contrib.  to forces
     atom    1 type  1   force =     0.00000000   -0.00013722    0.00000000
     atom    2 type  2   force =     0.00000000   -0.00018110   -0.27275626
     atom    3 type  2   force =     0.00000000   -0.00018110    0.27275626
     The ionic contribution  to forces
     atom    1 type  1   force =     0.00000000   -0.04567890   -0.00000000
     atom    2 type  2   force =    -0.00000000    0.02283945   37.43804228
     atom    3 type  2   force =    -0.00000000    0.02283945  -37.43804228
     The local contribution  to forces
     atom    1 type  1   force =    -0.00000000    0.04584943    0.00000000
     atom    2 type  2   force =    -0.00000000   -0.02264085  -37.16773174
     atom    3 type  2   force =    -0.00000000   -0.02264085   37.16773174
     The core correction contribution to forces
     atom    1 type  1   force =     0.00000000   -0.00002683   -0.00000000
     atom    2 type  2   force =     0.00000000   -0.00002124    0.00244659
     atom    3 type  2   force =     0.00000000   -0.00002124   -0.00244659
     The Hubbard contrib.    to forces
     atom    1 type  1   force =     0.00000000    0.00000000    0.00000000
     atom    2 type  2   force =     0.00000000    0.00000000    0.00000000
     atom    3 type  2   force =     0.00000000    0.00000000    0.00000000
     The SCF correction term to forces
     atom    1 type  1   force =     0.00000000   -0.00000002   -0.00000000
     atom    2 type  2   force =     0.00000000    0.00000001   -0.00000001
     atom    3 type  2   force =     0.00000000    0.00000001    0.00000001

     Total force =     0.000008     Total SCF correction =     0.000000


     Computing stress (Cartesian axis) and pressure


     negative rho (up, down):  3.855E-04 0.000E+00
          total   stress  (Ry/bohr**3)                   (kbar)     P=        0.95
   0.00001987   0.00000000   0.00000000            2.92        0.00        0.00
   0.00000000   0.00000479   0.00000000            0.00        0.71        0.00
   0.00000000   0.00000000  -0.00000532            0.00        0.00       -0.78

     kinetic stress (kbar)   4898.11      0.00      0.00
                                0.00   4893.89      0.00
                                0.00      0.00   4938.69

     local   stress (kbar)-148384.74      0.00      0.00
                                0.00-148360.03      0.00
                                0.00      0.00 145356.94

     nonloc. stress (kbar)   2238.59      0.00      0.00
                                0.00   2239.16      0.00
                                0.00      0.00   2229.44

     hartree stress (kbar)  72774.34     -0.00      0.00
                               -0.00  72766.21      0.00
                                0.00      0.00 -70979.15

     exc-cor stress (kbar)   -415.74     -0.00      0.00
                               -0.00   -415.79      0.00
                                0.00      0.00   -416.88

     corecor stress (kbar)   -550.61      0.00      0.00
                                0.00   -550.60     -0.00
                                0.00     -0.00   -551.04

     ewald   stress (kbar)  69442.98     -0.00     -0.00
                               -0.00  69427.87      0.00
                               -0.00      0.00 -80578.79

     hubbard stress (kbar)      0.00      0.00      0.00
                                0.00      0.00      0.00
                                0.00      0.00      0.00

     DFT-D   stress (kbar)      0.00      0.00      0.00
                                0.00      0.00      0.00
                                0.00      0.00      0.00

     XDM     stress (kbar)      0.00      0.00      0.00
                                0.00      0.00      0.00
                                0.00      0.00      0.00

     dft-nl  stress (kbar)      0.00      0.00      0.00
                                0.00      0.00      0.00
                                0.00      0.00      0.00

     TS-vdW  stress (kbar)      0.00      0.00      0.00
                                0.00      0.00      0.00
                                0.00      0.00      0.00

     MDB     stress (kbar)      0.00      0.00      0.00
                                0.00      0.00      0.00
                                0.00      0.00      0.00

     3D-RISM stress (kbar)      0.00      0.00      0.00
                                0.00      0.00      0.00
                                0.00      0.00      0.00

     Energy error            =      2.2E-10 Ry
     Gradient error          =      6.8E-06 Ry/Bohr

     bfgs converged in   7 scf cycles and   6 bfgs steps
     (criteria: energy <  1.0E-08 Ry, force <  1.0E-05 Ry/Bohr)

     End of BFGS Geometry Optimization

     Final energy             =    -181.5795161049 Ry

     File ./tmp/mos2.bfgs deleted, as requested
Begin final coordinates

ATOMIC_POSITIONS (crystal)
Mo              -0.0001874461       -0.0003748922        0.5000000000
S                0.6667603897        0.3335207794        0.5675963686
S                0.6667603897        0.3335207794        0.4324036314
End final coordinates



     Writing all to output data dir ./tmp/mos2.save/ :
     XML data file, charge density, pseudopotentials, collected wavefunctions
 
     init_run     :      1.28s CPU      1.48s WALL (       1 calls)
     electrons    :    626.55s CPU    679.69s WALL (       7 calls)
     update_pot   :      0.84s CPU      1.02s WALL (       6 calls)
     forces       :      9.29s CPU     11.51s WALL (       7 calls)
     stress       :     30.82s CPU     37.64s WALL (       7 calls)

     Called by init_run:
     wfcinit      :      0.81s CPU      0.84s WALL (       1 calls)
     wfcinit:atom :      0.01s CPU      0.01s WALL (      43 calls)
     wfcinit:wfcr :      0.71s CPU      0.73s WALL (      43 calls)
     potinit      :      0.07s CPU      0.09s WALL (       1 calls)
     hinit0       :      0.11s CPU      0.12s WALL (       1 calls)

     Called by electrons:
     c_bands      :    506.65s CPU    517.01s WALL (      84 calls)
     sum_band     :     78.22s CPU     99.19s WALL (      84 calls)
     v_of_rho     :      9.05s CPU      9.58s WALL (      85 calls)
     v_h          :      0.80s CPU      0.84s WALL (      85 calls)
     v_xc         :      9.63s CPU     10.33s WALL (      99 calls)
     newd         :     33.08s CPU     56.20s WALL (      85 calls)
     mix_rho      :      1.55s CPU      1.56s WALL (      84 calls)

     Called by c_bands:
     init_us_2    :     11.43s CPU     11.66s WALL (    7869 calls)
     ccgdiagg     :    433.32s CPU    442.12s WALL (    3612 calls)
     wfcrot       :     66.03s CPU     67.10s WALL (    3096 calls)

     Called by sum_band:
     sum_band:wei :      0.00s CPU      0.00s WALL (      84 calls)
     sum_band:loo :     37.88s CPU     38.45s WALL (      84 calls)
     sum_band:buf :      1.47s CPU      1.49s WALL (    3612 calls)
     sum_band:ini :      6.71s CPU      6.79s WALL (    3612 calls)
     sum_band:cal :      6.54s CPU      6.59s WALL (    3612 calls)
     sum_band:bec :      0.15s CPU      0.15s WALL (    3612 calls)
     addusdens    :     38.23s CPU     58.61s WALL (      84 calls)
                                        0.00s GPU  (      84 calls)
     addusd:skk   :      0.10s CPU      0.11s WALL (     168 calls)
                                        0.00s GPU  (     168 calls)

     Called by *cgdiagg:
     h_psi        :    342.68s CPU    349.39s WALL (  192130 calls)
     s_psi        :     58.65s CPU     59.98s WALL (  381164 calls)

     Called by h_psi:
     h_psi:calbec :     73.78s CPU     75.04s WALL (  192130 calls)
     vloc_psi     :    216.89s CPU    221.68s WALL (  192130 calls)
                                        0.00s GPU  (  192130 calls)
     add_vuspsi   :     47.38s CPU     48.06s WALL (  192130 calls)
     hs_1psi      :    321.09s CPU    327.50s WALL (  189034 calls)
     s_1psi       :     58.01s CPU     59.15s WALL (  189034 calls)

     General routines
     calbec       :    116.87s CPU    118.85s WALL (  389893 calls)
     fft          :      6.21s CPU      6.43s WALL (    1278 calls)
     ffts         :      0.15s CPU      0.15s WALL (     169 calls)
     fftw         :    177.00s CPU    180.85s WALL (  535104 calls)
     interpolate  :      0.60s CPU      0.61s WALL (      85 calls)
 
     Parallel routines
 
     PWSCF        :  11m11.54s CPU  12m15.99s WALL

 
   This run was terminated on:   0: 6:46  23Sep2026            

=------------------------------------------------------------------------------=
   JOB DONE.
=------------------------------------------------------------------------------=
