
     Program PWSCF v.7.5 starts on 22Sep2026 at 23: 0: 9 

     This program is part of the open-source Quantum ESPRESSO suite
     for quantum simulation of materials; please cite
         "P. Giannozzi et al., J. Phys.:Condens. Matter 21 395502 (2009);
         "P. Giannozzi et al., J. Phys.:Condens. Matter 29 465901 (2017);
         "P. Giannozzi et al., J. Chem. Phys. 152 154105 (2020);
          URL http://www.quantum-espresso.org", 
     in publications or presentations arising from this work. More details at
     http://www.quantum-espresso.org/quote

     Parallel version (MPI), running on     4 processors

     MPI processes distributed on     1 nodes
     2732 MiB available memory on the printing compute node when the environment starts

     Reading input from scf.in

     Current dimensions of program PWSCF are:
     Max number of different atomic species (ntypx) = 10
     Max number of k-points (npk) =  40000
     Max angular momentum in pseudopotentials (lmaxx) =  4
     Message from routine setup:
     using ibrav=0 with symmetry is DISCOURAGED, use correct ibrav instead

     R & G space division:  proc/nbgrp/npool/nimage =       4
     Subspace diagonalization in iterative solution of the eigenvalue problem:
     a serial algorithm will be used


     Parallelization info
     --------------------
     sticks:   dense  smooth     PW     G-vecs:    dense   smooth      PW
     Min         722     363    105                29343    10438    1653
     Max         724     365    106                29346    10439    1658
     Sum        2893    1457    421               117377    41755    6619

     Using Slab Decomposition



     bravais-lattice index     =            0
     lattice parameter (alat)  =       7.5420  a.u.
     unit-cell volume          =     429.0071 (a.u.)^3
     number of atoms/cell      =            4
     number of atomic types    =            2
     number of electrons       =        13.00
     number of Kohn-Sham states=           14
     kinetic-energy cutoff     =      80.0000  Ry
     charge density cutoff     =     640.0000  Ry
     scf convergence threshold =      1.0E-10
     mixing beta               =       0.7000
     number of iterations used =            8  plain     mixing
     Exchange-correlation= PBE
                           (   1   4   3   4   0   0   0)

     celldm(1)=   7.542028  celldm(2)=   0.000000  celldm(3)=   0.000000
     celldm(4)=   0.000000  celldm(5)=   0.000000  celldm(6)=   0.000000

     crystal axes: (cart. coord. in units of alat)
               a(1) = (   1.000000   0.000000   0.000000 )  
               a(2) = (   0.000000   1.000000   0.000000 )  
               a(3) = (   0.000000   0.000000   1.000000 )  

     reciprocal axes: (cart. coord. in units 2 pi/alat)
               b(1) = (  1.000000  0.000000  0.000000 )  
               b(2) = (  0.000000  1.000000  0.000000 )  
               b(3) = (  0.000000  0.000000  1.000000 )  


     PseudoPot. # 1 for Si read from file:
     ../../pseudo/Si.pbe-n-rrkjus_psl.1.0.0.UPF
     MD5 check sum: fa25574f73a70a4139f2adfbefec430c
     Pseudo is Ultrasoft + core correction, Zval =  4.0
     Generated using &quot;atomic&quot; code by A. Dal Corso  v.6.3
     Using radial grid of 1141 points,  6 beta functions with: 
                l(1) =   0
                l(2) =   0
                l(3) =   1
                l(4) =   1
                l(5) =   2
                l(6) =   2
     Q(r) pseudized with 0 coefficients 


     PseudoPot. # 2 for Al read from file:
     ../../pseudo/Al.pbe-n-rrkjus_psl.1.0.0.UPF
     MD5 check sum: bbe9f3f15d9b3b5ab9a58e4859ebdbfe
     Pseudo is Ultrasoft + core correction, Zval =  3.0
     Generated using &quot;atomic&quot; code by A. Dal Corso  v.6.3
     Using radial grid of 1135 points,  6 beta functions with: 
                l(1) =   0
                l(2) =   0
                l(3) =   1
                l(4) =   1
                l(5) =   2
                l(6) =   2
     Q(r) pseudized with 0 coefficients 


     atomic species   valence    mass     pseudopotential
     Si                4.00    28.08500     Si( 1.00)
     Al                3.00    26.98154     Al( 1.00)

     48 Sym. Ops., with inversion, found



   Cartesian axes

     site n.     atom                  positions (alat units)
         1        Si     tau(   1) = (   0.0000000   0.0000000   0.0000000  )
         2        Al     tau(   2) = (   0.0000000   0.5000000   0.5000000  )
         3        Al     tau(   3) = (   0.5000000   0.0000000   0.5000000  )
         4        Al     tau(   4) = (   0.5000000   0.5000000   0.0000000  )

     number of k points=   969  Marzari-Vanderbilt smearing, width (Ry)=  0.0050

     Number of k-points >= 100: set verbosity='high' to print them.

     Dense  grid:   117377 G-vectors     FFT dimensions: (  64,  64,  64)

     Smooth grid:    41755 G-vectors     FFT dimensions: (  45,  45,  45)

     Estimated max dynamical RAM per process >     381.49 MB

     Estimated total dynamical RAM >       1.49 GB

     The initial density is read from file :
     ./tmp/al3si-l12.save/charge-density

     Starting wfcs are   16 randomized atomic wfcs

     total cpu time spent up to now is       38.7 secs

     per-process dynamical memory:   318.1 Mb

     Self-consistent Calculation

     iteration #  1     ecut=    80.00 Ry     beta= 0.70
     CG style diagonalization
     ethr =  1.00E-06,  avg # of iterations = 23.1

     Threshold (ethr) on eigenvalues was too large:
     Diagonalizing with lowered threshold

     CG style diagonalization
     ethr =  2.70E-08,  avg # of iterations =  5.4

     total cpu time spent up to now is     1392.4 secs

     total energy              =     -26.50731387 Ry
     estimated scf accuracy    <       0.00000410 Ry

     iteration #  2     ecut=    80.00 Ry     beta= 0.70
     CG style diagonalization
     ethr =  3.16E-08,  avg # of iterations =  3.4

     total cpu time spent up to now is     1528.5 secs

     total energy              =     -26.50731519 Ry
     estimated scf accuracy    <       0.00000251 Ry

     iteration #  3     ecut=    80.00 Ry     beta= 0.70
     CG style diagonalization
     ethr =  1.93E-08,  avg # of iterations =  3.1

     total cpu time spent up to now is     1654.5 secs

     total energy              =     -26.50731570 Ry
     estimated scf accuracy    <       0.00000001 Ry

     iteration #  4     ecut=    80.00 Ry     beta= 0.70
     CG style diagonalization
     ethr =  1.15E-10,  avg # of iterations =  4.1

     total cpu time spent up to now is     1819.3 secs

     total energy              =     -26.50731573 Ry
     estimated scf accuracy    <       0.00000001 Ry

     iteration #  5     ecut=    80.00 Ry     beta= 0.70
     CG style diagonalization
     ethr =  9.36E-11,  avg # of iterations =  3.0

     total cpu time spent up to now is     1940.5 secs

     total energy              =     -26.50731573 Ry
     estimated scf accuracy    <          8.5E-10 Ry

     iteration #  6     ecut=    80.00 Ry     beta= 0.70
     CG style diagonalization
     ethr =  6.51E-12,  avg # of iterations =  3.7

     total cpu time spent up to now is     2089.0 secs

     total energy              =     -26.50731573 Ry
     estimated scf accuracy    <          1.5E-10 Ry

     iteration #  7     ecut=    80.00 Ry     beta= 0.70
     CG style diagonalization
     ethr =  1.13E-12,  avg # of iterations =  3.1

     total cpu time spent up to now is     2212.3 secs

     End of self-consistent calculation

     Number of k-points >= 100: set verbosity='high' to print the bands.

     the Fermi energy is     8.6399 ev

!    total energy              =     -26.50731573 Ry
     estimated scf accuracy    <          6.1E-12 Ry
     smearing contrib. (-TS)   =       0.00001595 Ry
     internal energy E=F+TS    =     -26.50733169 Ry

     The total energy is F=E-TS. E is the sum of the following terms:
     one-electron contribution =      13.11724359 Ry
     hartree contribution      =       0.24058414 Ry
     xc contribution           =     -13.95681067 Ry
     ewald contribution        =     -25.90834875 Ry

     convergence has been achieved in   7 iterations

     Forces acting on atoms (cartesian axes, Ry/au):

     atom    1 type  1   force =     0.00000000    0.00000000    0.00000000
     atom    2 type  2   force =     0.00000000    0.00000000    0.00000000
     atom    3 type  2   force =     0.00000000    0.00000000    0.00000000
     atom    4 type  2   force =     0.00000000    0.00000000    0.00000000

     Total force =     0.000000     Total SCF correction =     0.000000


     Computing stress (Cartesian axis) and pressure

          total   stress  (Ry/bohr**3)                   (kbar)     P=        1.42
   0.00000966   0.00000000   0.00000000            1.42        0.00        0.00
   0.00000000   0.00000966   0.00000000            0.00        1.42        0.00
   0.00000000   0.00000000   0.00000966            0.00        0.00        1.42


     Writing all to output data dir ./tmp/al3si-l12.save/ :
     XML data file, charge density, pseudopotentials, collected wavefunctions

     init_run     :     37.42s CPU     38.43s WALL (       1 calls)
     electrons    :   2125.22s CPU   2173.56s WALL (       1 calls)
     forces       :     16.21s CPU     16.37s WALL (       1 calls)
     stress       :     58.97s CPU     59.38s WALL (       1 calls)

     Called by init_run:
     wfcinit      :     36.39s CPU     37.27s WALL (       1 calls)
     potinit      :      0.12s CPU      0.13s WALL (       1 calls)
     hinit0       :      0.45s CPU      0.46s WALL (       1 calls)

     Called by electrons:
     c_bands      :   2036.13s CPU   2081.19s WALL (       8 calls)
     sum_band     :     87.20s CPU     89.99s WALL (       8 calls)
     v_of_rho     :      0.31s CPU      0.33s WALL (       8 calls)
     newd         :      1.84s CPU      2.41s WALL (       8 calls)
     mix_rho      :      0.03s CPU      0.03s WALL (       8 calls)

     Called by c_bands:
     init_us_2    :     15.82s CPU     15.98s WALL (   18411 calls)
     ccgdiagg     :   1874.34s CPU   1915.92s WALL (    7752 calls)
     wfcrot       :    186.66s CPU    190.90s WALL (    6783 calls)

     Called by *cgdiagg:
     h_psi        :   1234.93s CPU   1273.21s WALL (  589277 calls)
     s_psi        :    400.69s CPU    404.71s WALL ( 1171771 calls)

     Called by h_psi:
     h_psi:calbec :    307.11s CPU    315.26s WALL (  589277 calls)
     vloc_psi     :    679.03s CPU    703.91s WALL (  589277 calls)
                                        0.00s GPU  (  589277 calls)
     add_vuspsi   :    241.01s CPU    246.45s WALL (  589277 calls)
     hs_1psi      :   1282.99s CPU   1319.10s WALL (  582494 calls)
     s_1psi       :    460.27s CPU    464.35s WALL (  582494 calls)

     General routines
     calbec       :    658.80s CPU    670.59s WALL ( 1195996 calls)
     fft          :      0.34s CPU      0.36s WALL (     128 calls)
     ffts         :      0.07s CPU      0.07s WALL (      16 calls)
     fftw         :    636.36s CPU    660.64s WALL ( 1467316 calls)
     interpolate  :      0.08s CPU      0.08s WALL (       8 calls)

     Parallel routines

     PWSCF        :  37m18.78s CPU  38m 9.43s WALL


   This run was terminated on:  23:38:19  22Sep2026            

=------------------------------------------------------------------------------=
   JOB DONE.
=------------------------------------------------------------------------------=
