ANIMSTEPS    6
CRYSTAL
PRIMVEC
   -2.698803776    0.000000000    2.698803776
    0.000000000    2.698803776    2.698803776
   -2.698803776    2.698803776    0.000000000
PRIMCOORD    1
      2   1
   Si     0.00000   0.00000   0.00000   0.03067  -0.00001   0.06371
   Si     1.34940   1.34940   1.34940   0.03067  -0.00001   0.06371
PRIMCOORD    2
      2   1
   Si     0.00000   0.00000   0.00000  -0.00003  -0.07071   0.00001
   Si     1.34940   1.34940   1.34940  -0.00003  -0.07071   0.00001
PRIMCOORD    3
      2   1
   Si     0.00000   0.00000   0.00000  -0.06371   0.00003   0.03067
   Si     1.34940   1.34940   1.34940  -0.06371   0.00003   0.03067
PRIMCOORD    4
      2   1
   Si     0.00000   0.00000   0.00000   0.07071   0.00000  -0.00000
   Si     1.34940   1.34940   1.34940  -0.07071  -0.00000   0.00000
PRIMCOORD    5
      2   1
   Si     0.00000   0.00000   0.00000  -0.00000   0.07071  -0.00000
   Si     1.34940   1.34940   1.34940   0.00000  -0.07071  -0.00000
PRIMCOORD    6
      2   1
   Si     0.00000   0.00000   0.00000   0.00000   0.00000  -0.07071
   Si     1.34940   1.34940   1.34940   0.00000   0.00000   0.07071
