SYSTEM = sc2c_zrcl2_cod
########## about parallelation ###########
   LPLANE = .TRUE.
   NPAR = 4
   NSIM = 4
##########################################
############### about I/O ################
   ISTART = 0
##########################################
########### about switch control ##########
   LWAVE = .FALSE.
   LCHARG = .TRUE.
   LCORR = .TRUE.
   LREAL = A
   LASPH = .TRUE.
   LORBIT = 11
###########################################
############# about ionic relax ############
   ISIF = 2
   IBRION = -1
   NSW = 0
###########################################
########### about electron scf ############
   ENCUT = 520
   GGA = PE
   VOSKOWN = 1
   EDIFF = 1E-6
   NELMIN = 4
   NELM = 160
##############################################
############### about mixer ###############
   AMIX = 0.1
   BMIX = 0.0001
   AMIX_MAG = 0.4
   BMIX_MAG = 0.0001
   MAXMIX = 80
   LMAXMIX = 4
   IVDW = 11
###########################################
############### other important parameter ###############
   ALGO = N
   PREC = Accurate
   ISMEAR = 0
   SIGMA = 0.05
########################################################
################## fixed FFT-grid #################
   NGX = 28
   NGY = 28
   NGZ = 294
   NGXF = 56
   NGYF = 56
   NGZF = 588
###################################################
