
     Program PWSCF v.7.5 starts on 23Sep2026 at  0: 9:37 

     This program is part of the open-source Quantum ESPRESSO suite
     for quantum simulation of materials; please cite
         "P. Giannozzi et al., J. Phys.:Condens. Matter 21 395502 (2009);
         "P. Giannozzi et al., J. Phys.:Condens. Matter 29 465901 (2017);
         "P. Giannozzi et al., J. Chem. Phys. 152 154105 (2020);
          URL http://www.quantum-espresso.org", 
     in publications or presentations arising from this work. More details at
     http://www.quantum-espresso.org/quote

     Parallel version (MPI), running on     8 processors

     MPI processes distributed on     1 nodes
     1774 MiB available memory on the printing compute node when the environment starts
 
     Reading input from mos2.scf.in

     Current dimensions of program PWSCF are:
     Max number of different atomic species (ntypx) = 10
     Max number of k-points (npk) =  40000
     Max angular momentum in pseudopotentials (lmaxx) =  4
     file Mo.pbe-spn-rrkjus_psl.1.0.0.UPF: wavefunction(s)  4S renormalized
     Message from routine setup:
     using ibrav=0 with symmetry is DISCOURAGED, use correct ibrav instead
 
     K-points division:     npool     =       4
     R & G space division:  proc/nbgrp/npool/nimage =       2
     Subspace diagonalization in iterative solution of the eigenvalue problem:
     a serial algorithm will be used

 
     Parallelization info
     --------------------
     sticks:   dense  smooth     PW     G-vecs:    dense   smooth      PW
     Min         594     297     89               121212    42897    6949
     Max         595     298     90               121217    42902    6952
     Sum        1189     595    179               242429    85799   13901
 
     Using Slab Decomposition
 


     bravais-lattice index     =            0
     lattice parameter (alat)  =       5.9844  a.u.
     unit-cell volume          =    1365.9981 (a.u.)^3
     number of atoms/cell      =            3
     number of atomic types    =            2
     number of electrons       =        26.00
     number of Kohn-Sham states=           16
     kinetic-energy cutoff     =      60.0000  Ry
     charge density cutoff     =     480.0000  Ry
     scf convergence threshold =      1.0E-12
     mixing beta               =       0.3000
     number of iterations used =            8  plain     mixing
     Exchange-correlation= PBE
                           (   1   4   3   4   0   0   0)

     celldm(1)=   5.984412  celldm(2)=   0.000000  celldm(3)=   0.000000
     celldm(4)=   0.000000  celldm(5)=   0.000000  celldm(6)=   0.000000

     crystal axes: (cart. coord. in units of alat)
               a(1) = (   1.000000   0.000000   0.000000 )  
               a(2) = (  -0.500000   0.870377   0.000000 )  
               a(3) = (   0.000000   0.000000   7.322816 )  

     reciprocal axes: (cart. coord. in units 2 pi/alat)
               b(1) = (  1.000000  0.574464  0.000000 )  
               b(2) = (  0.000000  1.148927  0.000000 )  
               b(3) = (  0.000000  0.000000  0.136559 )  


     PseudoPot. # 1 for Mo read from file:
     ../pseudo/Mo.pbe-spn-rrkjus_psl.1.0.0.UPF
     MD5 check sum: 03f09b12e49601d1a456a78ce8b2d514
     Pseudo is Ultrasoft + core correction, Zval = 14.0
     Generated using &quot;atomic&quot; code by A. Dal Corso  v.6.3
     Using radial grid of 1229 points,  6 beta functions with: 
                l(1) =   0
                l(2) =   0
                l(3) =   1
                l(4) =   1
                l(5) =   2
                l(6) =   2
     Q(r) pseudized with 0 coefficients 


     PseudoPot. # 2 for S  read from file:
     ../pseudo/S.pbe-n-rrkjus_psl.1.0.0.UPF
     MD5 check sum: 9d0fe39aa2a799ea84730884c9b010f4
     Pseudo is Ultrasoft + core correction, Zval =  6.0
     Generated using &quot;atomic&quot; code by A. Dal Corso  v.6.3
     Using radial grid of 1151 points,  6 beta functions with: 
                l(1) =   0
                l(2) =   0
                l(3) =   1
                l(4) =   1
                l(5) =   2
                l(6) =   2
     Q(r) pseudized with 0 coefficients 


     atomic species   valence    mass     pseudopotential
     Mo               14.00    95.95000     Mo( 1.00)
     S                 6.00    32.06000     S ( 1.00)

      4 Sym. Ops. (no inversion) found


                                    s                        frac. trans.

      isym =  1     identity                                     

 cryst.   s( 1) = (     1          0          0      )
                  (     0          1          0      )
                  (     0          0          1      )

 cart.    s( 1) = (  1.0000000  0.0000000  0.0000000 )
                  (  0.0000000  1.0000000  0.0000000 )
                  (  0.0000000  0.0000000  1.0000000 )


      isym =  2     180 deg rotation - cart. axis [0,1,0]        

 cryst.   s( 2) = (    -1          0          0      )
                  (     1          1          0      )
                  (     0          0         -1      )

 cart.    s( 2) = ( -1.0000000 -0.0000000  0.0000000 )
                  (  0.0000000  1.0000000  0.0000000 )
                  (  0.0000000  0.0000000 -1.0000000 )


      isym =  3     inv. 180 deg rotation - cart. axis [0,0,1]   

 cryst.   s( 3) = (     1          0          0      )
                  (     0          1          0      )
                  (     0          0         -1      )

 cart.    s( 3) = (  1.0000000  0.0000000  0.0000000 )
                  (  0.0000000  1.0000000  0.0000000 )
                  (  0.0000000  0.0000000 -1.0000000 )


      isym =  4     inv. 180 deg rotation - cart. axis [1,0,0]   

 cryst.   s( 4) = (    -1          0          0      )
                  (     1          1          0      )
                  (     0          0          1      )

 cart.    s( 4) = ( -1.0000000 -0.0000000  0.0000000 )
                  (  0.0000000  1.0000000  0.0000000 )
                  (  0.0000000  0.0000000  1.0000000 )


   Cartesian axes

     site n.     atom                  positions (alat units)
         1        Mo     tau(   1) = (  -0.0000000  -0.0003263   3.6614082  )
         2        S      tau(   2) = (   0.5000000   0.2902889   4.1564040  )
         3        S      tau(   3) = (   0.5000000   0.2902889   3.1664124  )

   Crystallographic axes

     site n.     atom                  positions (cryst. coord.)
         1        Mo     tau(   1) = ( -0.0001874 -0.0003749  0.5000000  )
         2        S      tau(   2) = (  0.6667604  0.3335208  0.5675964  )
         3        S      tau(   3) = (  0.6667604  0.3335208  0.4324036  )

     number of k points=    73
                       cart. coord. in units 2pi/alat
        k(    1) = (   0.0000000   0.0000000   0.0000000), wk =   0.0078125
        k(    2) = (   0.0000000   0.0718079   0.0000000), wk =   0.0156250
        k(    3) = (   0.0000000   0.1436159   0.0000000), wk =   0.0156250
        k(    4) = (   0.0000000   0.2154238   0.0000000), wk =   0.0156250
        k(    5) = (   0.0000000   0.2872318   0.0000000), wk =   0.0156250
        k(    6) = (   0.0000000   0.3590397   0.0000000), wk =   0.0156250
        k(    7) = (   0.0000000   0.4308476   0.0000000), wk =   0.0156250
        k(    8) = (   0.0000000   0.5026556   0.0000000), wk =   0.0156250
        k(    9) = (   0.0000000  -0.5744635   0.0000000), wk =   0.0078125
        k(   10) = (   0.0625000   0.0359040   0.0000000), wk =   0.0312500
        k(   11) = (   0.0625000   0.1077119   0.0000000), wk =   0.0312500
        k(   12) = (   0.0625000   0.1795198   0.0000000), wk =   0.0312500
        k(   13) = (   0.0625000   0.2513278   0.0000000), wk =   0.0312500
        k(   14) = (   0.0625000   0.3231357   0.0000000), wk =   0.0312500
        k(   15) = (   0.0625000   0.3949437   0.0000000), wk =   0.0312500
        k(   16) = (   0.0625000   0.4667516   0.0000000), wk =   0.0312500
        k(   17) = (   0.0625000   0.5385595   0.0000000), wk =   0.0312500
        k(   18) = (   0.1250000   0.0718079   0.0000000), wk =   0.0312500
        k(   19) = (   0.1250000   0.1436159   0.0000000), wk =   0.0312500
        k(   20) = (   0.1250000   0.2154238   0.0000000), wk =   0.0312500
        k(   21) = (   0.1250000   0.2872318   0.0000000), wk =   0.0312500
        k(   22) = (   0.1250000   0.3590397   0.0000000), wk =   0.0312500
        k(   23) = (   0.1250000   0.4308476   0.0000000), wk =   0.0312500
        k(   24) = (   0.1250000   0.5026556   0.0000000), wk =   0.0312500
        k(   25) = (   0.1250000   0.5744635   0.0000000), wk =   0.0156250
        k(   26) = (   0.1250000   0.0000000   0.0000000), wk =   0.0156250
        k(   27) = (   0.1875000   0.1077119   0.0000000), wk =   0.0312500
        k(   28) = (   0.1875000   0.1795198   0.0000000), wk =   0.0312500
        k(   29) = (   0.1875000   0.2513278   0.0000000), wk =   0.0312500
        k(   30) = (   0.1875000   0.3231357   0.0000000), wk =   0.0312500
        k(   31) = (   0.1875000   0.3949437   0.0000000), wk =   0.0312500
        k(   32) = (   0.1875000   0.4667516   0.0000000), wk =   0.0312500
        k(   33) = (   0.1875000   0.5385595   0.0000000), wk =   0.0312500
        k(   34) = (   0.1875000  -0.0359040   0.0000000), wk =   0.0312500
        k(   35) = (   0.2500000   0.1436159   0.0000000), wk =   0.0312500
        k(   36) = (   0.2500000   0.2154238   0.0000000), wk =   0.0312500
        k(   37) = (   0.2500000   0.2872318   0.0000000), wk =   0.0312500
        k(   38) = (   0.2500000   0.3590397   0.0000000), wk =   0.0312500
        k(   39) = (   0.2500000   0.4308476   0.0000000), wk =   0.0312500
        k(   40) = (   0.2500000   0.5026556   0.0000000), wk =   0.0312500
        k(   41) = (   0.2500000   0.5744635   0.0000000), wk =   0.0156250
        k(   42) = (   0.2500000  -0.0718079   0.0000000), wk =   0.0312500
        k(   43) = (   0.2500000   0.0000000   0.0000000), wk =   0.0156250
        k(   44) = (   0.3125000   0.1795198   0.0000000), wk =   0.0312500
        k(   45) = (   0.3125000   0.2513278   0.0000000), wk =   0.0312500
        k(   46) = (   0.3125000   0.3231357   0.0000000), wk =   0.0312500
        k(   47) = (   0.3125000   0.3949437   0.0000000), wk =   0.0312500
        k(   48) = (   0.3125000   0.4667516   0.0000000), wk =   0.0312500
        k(   49) = (   0.3125000   0.5385595   0.0000000), wk =   0.0312500
        k(   50) = (   0.3125000  -0.1077119   0.0000000), wk =   0.0312500
        k(   51) = (   0.3125000  -0.0359040   0.0000000), wk =   0.0312500
        k(   52) = (   0.3750000   0.2154238   0.0000000), wk =   0.0312500
        k(   53) = (   0.3750000   0.2872318   0.0000000), wk =   0.0312500
        k(   54) = (   0.3750000   0.3590397   0.0000000), wk =   0.0312500
        k(   55) = (   0.3750000   0.4308476   0.0000000), wk =   0.0312500
        k(   56) = (   0.3750000   0.5026556   0.0000000), wk =   0.0312500
        k(   57) = (   0.3750000   0.5744635   0.0000000), wk =   0.0156250
        k(   58) = (   0.3750000  -0.1436159   0.0000000), wk =   0.0312500
        k(   59) = (   0.3750000  -0.0718079   0.0000000), wk =   0.0312500
        k(   60) = (   0.3750000   0.0000000   0.0000000), wk =   0.0156250
        k(   61) = (   0.4375000   0.2513278   0.0000000), wk =   0.0312500
        k(   62) = (   0.4375000   0.3231357   0.0000000), wk =   0.0312500
        k(   63) = (   0.4375000   0.3949437   0.0000000), wk =   0.0312500
        k(   64) = (   0.4375000   0.4667516   0.0000000), wk =   0.0312500
        k(   65) = (   0.4375000   0.5385595   0.0000000), wk =   0.0312500
        k(   66) = (   0.4375000  -0.1795198   0.0000000), wk =   0.0312500
        k(   67) = (   0.4375000  -0.1077119   0.0000000), wk =   0.0312500
        k(   68) = (   0.4375000  -0.0359040   0.0000000), wk =   0.0312500
        k(   69) = (  -0.5000000  -0.2872318   0.0000000), wk =   0.0156250
        k(   70) = (  -0.5000000  -0.2154238   0.0000000), wk =   0.0312500
        k(   71) = (  -0.5000000  -0.1436159   0.0000000), wk =   0.0312500
        k(   72) = (  -0.5000000  -0.0718079   0.0000000), wk =   0.0312500
        k(   73) = (  -0.5000000  -0.0000000   0.0000000), wk =   0.0156250

                       cryst. coord.
        k(    1) = (   0.0000000   0.0000000   0.0000000), wk =   0.0078125
        k(    2) = (   0.0000000   0.0625000   0.0000000), wk =   0.0156250
        k(    3) = (   0.0000000   0.1250000   0.0000000), wk =   0.0156250
        k(    4) = (   0.0000000   0.1875000   0.0000000), wk =   0.0156250
        k(    5) = (   0.0000000   0.2500000   0.0000000), wk =   0.0156250
        k(    6) = (   0.0000000   0.3125000   0.0000000), wk =   0.0156250
        k(    7) = (   0.0000000   0.3750000   0.0000000), wk =   0.0156250
        k(    8) = (   0.0000000   0.4375000   0.0000000), wk =   0.0156250
        k(    9) = (   0.0000000  -0.5000000   0.0000000), wk =   0.0078125
        k(   10) = (   0.0625000   0.0000000   0.0000000), wk =   0.0312500
        k(   11) = (   0.0625000   0.0625000   0.0000000), wk =   0.0312500
        k(   12) = (   0.0625000   0.1250000   0.0000000), wk =   0.0312500
        k(   13) = (   0.0625000   0.1875000   0.0000000), wk =   0.0312500
        k(   14) = (   0.0625000   0.2500000   0.0000000), wk =   0.0312500
        k(   15) = (   0.0625000   0.3125000   0.0000000), wk =   0.0312500
        k(   16) = (   0.0625000   0.3750000   0.0000000), wk =   0.0312500
        k(   17) = (   0.0625000   0.4375000   0.0000000), wk =   0.0312500
        k(   18) = (   0.1250000   0.0000000   0.0000000), wk =   0.0312500
        k(   19) = (   0.1250000   0.0625000   0.0000000), wk =   0.0312500
        k(   20) = (   0.1250000   0.1250000   0.0000000), wk =   0.0312500
        k(   21) = (   0.1250000   0.1875000   0.0000000), wk =   0.0312500
        k(   22) = (   0.1250000   0.2500000   0.0000000), wk =   0.0312500
        k(   23) = (   0.1250000   0.3125000   0.0000000), wk =   0.0312500
        k(   24) = (   0.1250000   0.3750000   0.0000000), wk =   0.0312500
        k(   25) = (   0.1250000   0.4375000   0.0000000), wk =   0.0156250
        k(   26) = (   0.1250000  -0.0625000   0.0000000), wk =   0.0156250
        k(   27) = (   0.1875000   0.0000000   0.0000000), wk =   0.0312500
        k(   28) = (   0.1875000   0.0625000   0.0000000), wk =   0.0312500
        k(   29) = (   0.1875000   0.1250000   0.0000000), wk =   0.0312500
        k(   30) = (   0.1875000   0.1875000   0.0000000), wk =   0.0312500
        k(   31) = (   0.1875000   0.2500000   0.0000000), wk =   0.0312500
        k(   32) = (   0.1875000   0.3125000   0.0000000), wk =   0.0312500
        k(   33) = (   0.1875000   0.3750000   0.0000000), wk =   0.0312500
        k(   34) = (   0.1875000  -0.1250000   0.0000000), wk =   0.0312500
        k(   35) = (   0.2500000   0.0000000   0.0000000), wk =   0.0312500
        k(   36) = (   0.2500000   0.0625000   0.0000000), wk =   0.0312500
        k(   37) = (   0.2500000   0.1250000   0.0000000), wk =   0.0312500
        k(   38) = (   0.2500000   0.1875000   0.0000000), wk =   0.0312500
        k(   39) = (   0.2500000   0.2500000   0.0000000), wk =   0.0312500
        k(   40) = (   0.2500000   0.3125000   0.0000000), wk =   0.0312500
        k(   41) = (   0.2500000   0.3750000   0.0000000), wk =   0.0156250
        k(   42) = (   0.2500000  -0.1875000   0.0000000), wk =   0.0312500
        k(   43) = (   0.2500000  -0.1250000   0.0000000), wk =   0.0156250
        k(   44) = (   0.3125000   0.0000000   0.0000000), wk =   0.0312500
        k(   45) = (   0.3125000   0.0625000   0.0000000), wk =   0.0312500
        k(   46) = (   0.3125000   0.1250000   0.0000000), wk =   0.0312500
        k(   47) = (   0.3125000   0.1875000   0.0000000), wk =   0.0312500
        k(   48) = (   0.3125000   0.2500000   0.0000000), wk =   0.0312500
        k(   49) = (   0.3125000   0.3125000   0.0000000), wk =   0.0312500
        k(   50) = (   0.3125000  -0.2500000   0.0000000), wk =   0.0312500
        k(   51) = (   0.3125000  -0.1875000   0.0000000), wk =   0.0312500
        k(   52) = (   0.3750000   0.0000000   0.0000000), wk =   0.0312500
        k(   53) = (   0.3750000   0.0625000   0.0000000), wk =   0.0312500
        k(   54) = (   0.3750000   0.1250000   0.0000000), wk =   0.0312500
        k(   55) = (   0.3750000   0.1875000   0.0000000), wk =   0.0312500
        k(   56) = (   0.3750000   0.2500000   0.0000000), wk =   0.0312500
        k(   57) = (   0.3750000   0.3125000   0.0000000), wk =   0.0156250
        k(   58) = (   0.3750000  -0.3125000   0.0000000), wk =   0.0312500
        k(   59) = (   0.3750000  -0.2500000   0.0000000), wk =   0.0312500
        k(   60) = (   0.3750000  -0.1875000   0.0000000), wk =   0.0156250
        k(   61) = (   0.4375000   0.0000000   0.0000000), wk =   0.0312500
        k(   62) = (   0.4375000   0.0625000   0.0000000), wk =   0.0312500
        k(   63) = (   0.4375000   0.1250000   0.0000000), wk =   0.0312500
        k(   64) = (   0.4375000   0.1875000   0.0000000), wk =   0.0312500
        k(   65) = (   0.4375000   0.2500000   0.0000000), wk =   0.0312500
        k(   66) = (   0.4375000  -0.3750000   0.0000000), wk =   0.0312500
        k(   67) = (   0.4375000  -0.3125000   0.0000000), wk =   0.0312500
        k(   68) = (   0.4375000  -0.2500000   0.0000000), wk =   0.0312500
        k(   69) = (  -0.5000000   0.0000000   0.0000000), wk =   0.0156250
        k(   70) = (  -0.5000000   0.0625000   0.0000000), wk =   0.0312500
        k(   71) = (  -0.5000000   0.1250000   0.0000000), wk =   0.0312500
        k(   72) = (  -0.5000000   0.1875000   0.0000000), wk =   0.0312500
        k(   73) = (  -0.5000000   0.2500000   0.0000000), wk =   0.0156250

     Dense  grid:   242429 G-vectors     FFT dimensions: (  45,  45, 320)

     Smooth grid:    85799 G-vectors     FFT dimensions: (  30,  30, 225)

     Dynamical RAM for                 wfc:       1.31 MB

     Dynamical RAM for     wfc (w. buffer):      26.17 MB

     Dynamical RAM for           str. fact:       3.70 MB

     Dynamical RAM for           local pot:       0.00 MB

     Dynamical RAM for          nlocal pot:       4.42 MB

     Dynamical RAM for                qrad:       3.52 MB

     Dynamical RAM for          rho,v,vnew:      12.96 MB

     Dynamical RAM for               rhoin:       4.32 MB

     Dynamical RAM for            rho*nmix:      29.59 MB

     Dynamical RAM for           G-vectors:       7.26 MB

     Dynamical RAM for          h,s,v(r/c):       0.01 MB

     Dynamical RAM for          <psi|beta>:       0.01 MB

     Dynamical RAM for      wfcinit/wfcrot:       2.62 MB

     Dynamical RAM for           addusdens:      88.32 MB

     Dynamical RAM for          addusforce:      88.79 MB

     Dynamical RAM for         addusstress:      93.63 MB

     Estimated static dynamical RAM per process >      80.26 MB

     Estimated max dynamical RAM per process >     203.49 MB

     Estimated total dynamical RAM >       1.42 GB

     The initial density is read from file :
     ./tmp/mos2.save/charge-density


     negative rho (up, down):  3.855E-04 0.000E+00
     Starting wfcs are   18 randomized atomic wfcs

     total cpu time spent up to now is        6.1 secs

     Self-consistent Calculation

     iteration #  1     ecut=    60.00 Ry     beta= 0.30
     CG style diagonalization

---- Real-time Memory Report at c_bands before calling an iterative solver
           191 MiB given to the printing process from OS
             0 MiB allocation reported by mallinfo(arena+hblkhd)
          1904 MiB available memory on the node where the printing process lives
------------------
     ethr =  1.00E-10,  avg # of iterations = 36.9

     Threshold (ethr) on eigenvalues was too large:
     Diagonalizing with lowered threshold

     CG style diagonalization

---- Real-time Memory Report at c_bands before calling an iterative solver
           228 MiB given to the printing process from OS
             0 MiB allocation reported by mallinfo(arena+hblkhd)
          2189 MiB available memory on the node where the printing process lives
------------------
     c_bands:  1 eigenvalues not converged
     c_bands:  1 eigenvalues not converged
     ethr =  1.00E-13,  avg # of iterations = 19.4

     negative rho (up, down):  3.855E-04 0.000E+00

     total cpu time spent up to now is      630.8 secs

     total energy              =    -181.57951665 Ry
     estimated scf accuracy    <          1.9E-11 Ry

     iteration #  2     ecut=    60.00 Ry     beta= 0.30
     CG style diagonalization

---- Real-time Memory Report at c_bands before calling an iterative solver
           242 MiB given to the printing process from OS
             0 MiB allocation reported by mallinfo(arena+hblkhd)
          1886 MiB available memory on the node where the printing process lives
------------------
     ethr =  1.00E-13,  avg # of iterations =  3.0

     negative rho (up, down):  3.855E-04 0.000E+00

     total cpu time spent up to now is      658.2 secs

     total energy              =    -181.57951665 Ry
     estimated scf accuracy    <          7.0E-12 Ry

     iteration #  3     ecut=    60.00 Ry     beta= 0.30
     CG style diagonalization

---- Real-time Memory Report at c_bands before calling an iterative solver
           245 MiB given to the printing process from OS
             0 MiB allocation reported by mallinfo(arena+hblkhd)
          1765 MiB available memory on the node where the printing process lives
------------------
     ethr =  1.00E-13,  avg # of iterations =  3.0

     negative rho (up, down):  3.855E-04 0.000E+00

     total cpu time spent up to now is      686.7 secs

     total energy              =    -181.57951665 Ry
     estimated scf accuracy    <          2.0E-12 Ry

     iteration #  4     ecut=    60.00 Ry     beta= 0.30
     CG style diagonalization

---- Real-time Memory Report at c_bands before calling an iterative solver
           247 MiB given to the printing process from OS
             0 MiB allocation reported by mallinfo(arena+hblkhd)
          1838 MiB available memory on the node where the printing process lives
------------------
     ethr =  1.00E-13,  avg # of iterations =  3.0

     negative rho (up, down):  3.855E-04 0.000E+00

     total cpu time spent up to now is      715.1 secs

     End of self-consistent calculation

          k = 0.0000 0.0000 0.0000 ( 10807 PWs)   bands (ev):

   -62.5015 -36.6482 -36.4362 -36.4282 -15.7217 -14.4288  -7.2438  -4.2323
    -4.1783  -3.4280  -3.1135  -3.0813  -1.6631   1.1425   1.1701   1.3679

     occupation numbers 
     1.0000   1.0000   1.0000   1.0000   1.0000   1.0000   1.0000   1.0000
     1.0000   1.0000   1.0000   1.0000   1.0000   0.0000   0.0000   0.0000

          k = 0.0000 0.0718 0.0000 ( 10811 PWs)   bands (ev):

   -62.5000 -36.6454 -36.4509 -36.4315 -15.6637 -14.4048  -7.1766  -4.3641
    -4.1176  -3.7498  -3.1753  -2.8801  -1.6892   1.0589   1.1971   1.2729

     occupation numbers 
     1.0000   1.0000   1.0000   1.0000   1.0000   1.0000   1.0000   1.0000
     1.0000   1.0000   1.0000   1.0000   1.0000   0.0000   0.0000   0.0000

          k = 0.0000 0.1436 0.0000 ( 10779 PWs)   bands (ev):

   -62.4959 -36.6372 -36.4926 -36.4408 -15.4946 -14.3348  -6.9912  -4.7046
    -4.2212  -3.9422  -3.4191  -2.7087  -1.7970   0.8474   0.9449   1.1734

     occupation numbers 
     1.0000   1.0000   1.0000   1.0000   1.0000   1.0000   1.0000   1.0000
     1.0000   1.0000   1.0000   1.0000   1.0000   0.0000   0.0000   0.0000

          k = 0.0000 0.2154 0.0000 ( 10751 PWs)   bands (ev):

   -62.4896 -36.6249 -36.5545 -36.4548 -15.2296 -14.2255  -6.7499  -5.1235
    -4.7137  -3.7350  -3.6743  -2.7610  -2.0392   0.5817   0.9571   1.0119

     occupation numbers 
     1.0000   1.0000   1.0000   1.0000   1.0000   1.0000   1.0000   1.0000
     1.0000   1.0000   1.0000   1.0000   1.0000   0.0000   0.0000   0.0000

          k = 0.0000 0.2872 0.0000 ( 10735 PWs)   bands (ev):

   -62.4824 -36.6267 -36.6105 -36.4712 -14.8950 -14.0887  -6.6125  -5.4406
    -5.2068  -4.0559  -3.3522  -2.9704  -2.3688   0.5252   0.7628   1.2891

     occupation numbers 
     1.0000   1.0000   1.0000   1.0000   1.0000   1.0000   1.0000   1.0000
     1.0000   1.0000   1.0000   1.0000   1.0000   0.0000   0.0000   0.0000

          k = 0.0000 0.3590 0.0000 ( 10745 PWs)   bands (ev):

   -62.4751 -36.6981 -36.5959 -36.4876 -14.5295 -13.9416  -6.7633  -5.6723
    -5.5275  -4.3374  -3.2058  -3.0293  -2.5938   0.6393   0.6405   1.6585

     occupation numbers 
     1.0000   1.0000   1.0000   1.0000   1.0000   1.0000   1.0000   1.0000
     1.0000   1.0000   1.0000   1.0000   1.0000   0.0000   0.0000   0.0000

          k = 0.0000 0.4308 0.0000 ( 10715 PWs)   bands (ev):

   -62.4689 -36.7580 -36.5836 -36.5015 -14.1872 -13.8074  -7.0640  -6.0639
    -5.5685  -4.5532  -3.3885  -2.7635  -2.5649   0.6037   0.8428   1.9878

     occupation numbers 
     1.0000   1.0000   1.0000   1.0000   1.0000   1.0000   1.0000   1.0000
     1.0000   1.0000   1.0000   1.0000   1.0000   0.0000   0.0000   0.0000

          k = 0.0000 0.5027 0.0000 ( 10678 PWs)   bands (ev):

   -62.4647 -36.7978 -36.5753 -36.5107 -13.9365 -13.7120  -7.3133  -6.3274
    -5.6525  -4.6878  -3.4966  -2.5960  -2.3806   0.6262   1.0490   2.1926

     occupation numbers 
     1.0000   1.0000   1.0000   1.0000   1.0000   1.0000   1.0000   1.0000
     1.0000   1.0000   1.0000   1.0000   1.0000   0.0000   0.0000   0.0000

          k = 0.0000-0.5745 0.0000 ( 10676 PWs)   bands (ev):

   -62.4632 -36.8117 -36.5724 -36.5140 -13.8433 -13.6773  -7.4083  -6.4207
    -5.6955  -4.7335  -3.5317  -2.5401  -2.2800   0.6448   1.1451   2.2577

     occupation numbers 
     1.0000   1.0000   1.0000   1.0000   1.0000   1.0000   1.0000   1.0000
     1.0000   1.0000   1.0000   1.0000   1.0000   0.0000   0.0000   0.0000

          k = 0.0625 0.0359 0.0000 ( 10799 PWs)   bands (ev):

   -62.5000 -36.6453 -36.4464 -36.4364 -15.6631 -14.4042  -7.1761  -4.3294
    -4.1547  -3.7407  -3.2019  -2.8638  -1.6877   1.0745   1.2263   1.2543

     occupation numbers 
     1.0000   1.0000   1.0000   1.0000   1.0000   1.0000   1.0000   1.0000
     1.0000   1.0000   1.0000   1.0000   1.0000   0.0000   0.0000   0.0000

          k = 0.0625 0.1077 0.0000 ( 10789 PWs)   bands (ev):

   -62.4972 -36.6398 -36.4770 -36.4403 -15.5496 -14.3572  -7.0493  -4.5866
    -4.0723  -4.0153  -3.3987  -2.6948  -1.7544   0.9482   0.9578   1.2054

     occupation numbers 
     1.0000   1.0000   1.0000   1.0000   1.0000   1.0000   1.0000   1.0000
     1.0000   1.0000   1.0000   1.0000   1.0000   0.0000   0.0000   0.0000

          k = 0.0625 0.1795 0.0000 ( 10765 PWs)   bands (ev):

   -62.4920 -36.6296 -36.5285 -36.4522 -15.3324 -14.2674  -6.8305  -4.9662
    -4.4910  -3.7969  -3.7508  -2.6143  -1.9310   0.6533   0.8892   1.0145

     occupation numbers 
     1.0000   1.0000   1.0000   1.0000   1.0000   1.0000   1.0000   1.0000
     1.0000   1.0000   1.0000   1.0000   1.0000   0.0000   0.0000   0.0000

          k = 0.0625 0.2513 0.0000 ( 10747 PWs)   bands (ev):

   -62.4853 -36.6162 -36.5944 -36.4685 -15.0320 -14.1437  -6.6228  -5.3296
    -4.9533  -4.1114  -3.5296  -2.7267  -2.2227   0.4771   0.8440   1.0390

     occupation numbers 
     1.0000   1.0000   1.0000   1.0000   1.0000   1.0000   1.0000   1.0000
     1.0000   1.0000   1.0000   1.0000   1.0000   0.0000   0.0000   0.0000

          k = 0.0625 0.3231 0.0000 ( 10744 PWs)   bands (ev):

   -62.4780 -36.6647 -36.6017 -36.4864 -14.6804 -14.0003  -6.6313  -5.4946
    -5.4406  -4.3941  -3.2877  -2.9613  -2.4771   0.4547   0.7713   1.3582

     occupation numbers 
     1.0000   1.0000   1.0000   1.0000   1.0000   1.0000   1.0000   1.0000
     1.0000   1.0000   1.0000   1.0000   1.0000   0.0000   0.0000   0.0000

          k = 0.0625 0.3949 0.0000 ( 10711 PWs)   bands (ev):

   -62.4712 -36.7289 -36.5883 -36.5030 -14.3236 -13.8575  -6.8805  -5.8955
    -5.5133  -4.5833  -3.2096  -3.1352  -2.4844   0.5254   0.8232   1.7277

     occupation numbers 
     1.0000   1.0000   1.0000   1.0000   1.0000   1.0000   1.0000   1.0000
     1.0000   1.0000   1.0000   1.0000   1.0000   0.0000   0.0000   0.0000

          k = 0.0625 0.4668 0.0000 ( 10692 PWs)   bands (ev):

   -62.4660 -36.7776 -36.5780 -36.5157 -14.0227 -13.7402  -7.1572  -6.2471
    -5.5836  -4.6945  -3.4023  -2.9980  -2.3135   0.6127   0.9771   2.0544

     occupation numbers 
     1.0000   1.0000   1.0000   1.0000   1.0000   1.0000   1.0000   1.0000
     1.0000   1.0000   1.0000   1.0000   1.0000   0.0000   0.0000   0.0000

          k = 0.0625 0.5386 0.0000 ( 10674 PWs)   bands (ev):

   -62.4632 -36.8038 -36.5724 -36.5225 -13.8469 -13.6734  -7.3273  -6.4387
    -5.6627  -4.7449  -3.5054  -2.8980  -2.1546   0.6529   1.1414   2.2877

     occupation numbers 
     1.0000   1.0000   1.0000   1.0000   1.0000   1.0000   1.0000   1.0000
     1.0000   1.0000   1.0000   1.0000   1.0000   0.0000   0.0000   0.0000

          k = 0.1250 0.0718 0.0000 ( 10775 PWs)   bands (ev):

   -62.4957 -36.6370 -36.4875 -36.4471 -15.4925 -14.3327  -6.9894  -4.6744
    -4.2083  -3.9804  -3.4505  -2.6954  -1.7912   0.8756   0.9517   1.1383

     occupation numbers 
     1.0000   1.0000   1.0000   1.0000   1.0000   1.0000   1.0000   1.0000
     1.0000   1.0000   1.0000   1.0000   1.0000   0.0000   0.0000   0.0000

          k = 0.1250 0.1436 0.0000 ( 10750 PWs)   bands (ev):

   -62.4919 -36.6294 -36.5261 -36.4554 -15.3309 -14.2658  -6.8294  -4.9528
    -4.4810  -3.8151  -3.7699  -2.6100  -1.9261   0.6655   0.8925   0.9951

     occupation numbers 
     1.0000   1.0000   1.0000   1.0000   1.0000   1.0000   1.0000   1.0000
     1.0000   1.0000   1.0000   1.0000   1.0000   0.0000   0.0000   0.0000

          k = 0.1250 0.2154 0.0000 ( 10744 PWs)   bands (ev):

   -62.4862 -36.6181 -36.5795 -36.4719 -15.0778 -14.1610  -6.6297  -5.2660
    -4.7802  -4.2707  -3.6223  -2.5611  -2.1591   0.4543   0.8615   0.8874

     occupation numbers 
     1.0000   1.0000   1.0000   1.0000   1.0000   1.0000   1.0000   1.0000
     1.0000   1.0000   1.0000   1.0000   1.0000   0.0000   0.0000   0.0000

          k = 0.1250 0.2872 0.0000 ( 10747 PWs)   bands (ev):

   -62.4795 -36.6403 -36.6047 -36.4929 -14.7589 -14.0292  -6.5444  -5.4459
    -5.1985  -4.6400  -3.5071  -2.6792  -2.3872   0.3343   0.8339   1.0564

     occupation numbers 
     1.0000   1.0000   1.0000   1.0000   1.0000   1.0000   1.0000   1.0000
     1.0000   1.0000   1.0000   1.0000   1.0000   0.0000   0.0000   0.0000

          k = 0.1250 0.3590 0.0000 ( 10729 PWs)   bands (ev):

   -62.4727 -36.6998 -36.5913 -36.5146 -14.4121 -13.8870  -6.6911  -5.7210
    -5.4346  -4.7819  -3.5429  -2.9259  -2.4285   0.3867   0.8799   1.3593

     occupation numbers 
     1.0000   1.0000   1.0000   1.0000   1.0000   1.0000   1.0000   1.0000
     1.0000   1.0000   1.0000   1.0000   1.0000   0.0000   0.0000   0.0000

          k = 0.1250 0.4308 0.0000 ( 10706 PWs)   bands (ev):

   -62.4670 -36.7495 -36.5799 -36.5332 -14.0897 -13.7566  -6.9262  -6.1771
    -5.4571  -4.8084  -3.5701  -3.2042  -2.2953   0.5594   0.9660   1.6947

     occupation numbers 
     1.0000   1.0000   1.0000   1.0000   1.0000   1.0000   1.0000   1.0000
     1.0000   1.0000   1.0000   1.0000   1.0000   0.0000   0.0000   0.0000

          k = 0.1250 0.5027 0.0000 ( 10697 PWs)   bands (ev):

   -62.4632 -36.7824 -36.5723 -36.5457 -13.8555 -13.6635  -7.1113  -6.4804
    -5.5637  -4.7834  -3.5235  -3.4251  -2.1045   0.6331   1.1565   1.9810

     occupation numbers 
     1.0000   1.0000   1.0000   1.0000   1.0000   1.0000   1.0000   1.0000
     1.0000   1.0000   1.0000   1.0000   1.0000   0.0000   0.0000   0.0000

          k = 0.1250 0.5745 0.0000 ( 10686 PWs)   bands (ev):

   -62.4618 -36.7940 -36.5696 -36.5500 -13.7689 -13.6295  -7.1806  -6.5865
    -5.6205  -4.7644  -3.5113  -3.4960  -2.0072   0.6203   1.2841   2.1163

     occupation numbers 
     1.0000   1.0000   1.0000   1.0000   1.0000   1.0000   1.0000   1.0000
     1.0000   1.0000   1.0000   1.0000   1.0000   0.0000   0.0000   0.0000

          k = 0.1250 0.0000 0.0000 ( 10787 PWs)   bands (ev):

   -62.4971 -36.6397 -36.4719 -36.4463 -15.5480 -14.3557  -7.0478  -4.5574
    -4.0649  -4.0507  -3.4168  -2.6871  -1.7508   0.9489   0.9815   1.1793

     occupation numbers 
     1.0000   1.0000   1.0000   1.0000   1.0000   1.0000   1.0000   1.0000
     1.0000   1.0000   1.0000   1.0000   1.0000   0.0000   0.0000   0.0000

          k = 0.1875 0.1077 0.0000 ( 10741 PWs)   bands (ev):

   -62.4893 -36.6245 -36.5501 -36.4617 -15.2253 -14.2209  -6.7471  -5.0984
    -4.6997  -3.7723  -3.7113  -2.7504  -2.0274   0.6020   0.9214   1.0116

     occupation numbers 
     1.0000   1.0000   1.0000   1.0000   1.0000   1.0000   1.0000   1.0000
     1.0000   1.0000   1.0000   1.0000   1.0000   0.0000   0.0000   0.0000

          k = 0.1875 0.1795 0.0000 ( 10749 PWs)   bands (ev):

   -62.4850 -36.6159 -36.5913 -36.4739 -15.0282 -14.1394  -6.6214  -5.3103
    -4.9384  -4.1424  -3.5573  -2.7238  -2.2115   0.4844   0.8207   1.0425

     occupation numbers 
     1.0000   1.0000   1.0000   1.0000   1.0000   1.0000   1.0000   1.0000
     1.0000   1.0000   1.0000   1.0000   1.0000   0.0000   0.0000   0.0000

          k = 0.1875 0.2513 0.0000 ( 10746 PWs)   bands (ev):

   -62.4793 -36.6388 -36.6045 -36.4957 -14.7566 -14.0265  -6.5441  -5.4352
    -5.1876  -4.6583  -3.5211  -2.6802  -2.3819   0.3319   0.8279   1.0579

     occupation numbers 
     1.0000   1.0000   1.0000   1.0000   1.0000   1.0000   1.0000   1.0000
     1.0000   1.0000   1.0000   1.0000   1.0000   0.0000   0.0000   0.0000

          k = 0.1875 0.3231 0.0000 ( 10749 PWs)   bands (ev):

   -62.4732 -36.6857 -36.5922 -36.5236 -14.4411 -13.8947  -6.6074  -5.6194
    -5.3844  -4.9150  -3.7277  -2.7905  -2.4131   0.3277   0.9003   1.1895

     occupation numbers 
     1.0000   1.0000   1.0000   1.0000   1.0000   1.0000   1.0000   1.0000
     1.0000   1.0000   1.0000   1.0000   1.0000   0.0000   0.0000   0.0000

          k = 0.1875 0.3949 0.0000 ( 10727 PWs)   bands (ev):

   -62.4674 -36.7261 -36.5808 -36.5519 -14.1250 -13.7622  -6.7445  -6.1253
    -5.3064  -4.9243  -4.0230  -3.0372  -2.3117   0.5048   0.9800   1.4069

     occupation numbers 
     1.0000   1.0000   1.0000   1.0000   1.0000   1.0000   1.0000   1.0000
     1.0000   1.0000   1.0000   1.0000   1.0000   0.0000   0.0000   0.0000

          k = 0.1875 0.4668 0.0000 ( 10698 PWs)   bands (ev):

   -62.4630 -36.7556 -36.5747 -36.5721 -13.8631 -13.6525  -6.8556  -6.5202
    -5.3902  -4.8345  -4.1712  -3.3239  -2.1175   0.5808   1.1901   1.6150

     occupation numbers 
     1.0000   1.0000   1.0000   1.0000   1.0000   1.0000   1.0000   1.0000
     1.0000   1.0000   1.0000   1.0000   1.0000   0.0000   0.0000   0.0000

          k = 0.1875 0.5386 0.0000 ( 10684 PWs)   bands (ev):

   -62.4606 -36.7711 -36.5875 -36.5674 -13.7125 -13.5895  -6.9076  -6.7332
    -5.5303  -4.7370  -4.1932  -3.5299  -1.9305   0.4889   1.4585   1.7386

     occupation numbers 
     1.0000   1.0000   1.0000   1.0000   1.0000   1.0000   1.0000   1.0000
     1.0000   1.0000   1.0000   1.0000   1.0000   0.0000   0.0000   0.0000

          k = 0.1875-0.0359 0.0000 ( 10739 PWs)   bands (ev):

   -62.4917 -36.6292 -36.5240 -36.4589 -15.3285 -14.2634  -6.8274  -4.9426
    -4.4816  -3.8320  -3.7749  -2.6077  -1.9228   0.6715   0.8781   0.9894

     occupation numbers 
     1.0000   1.0000   1.0000   1.0000   1.0000   1.0000   1.0000   1.0000
     1.0000   1.0000   1.0000   1.0000   1.0000   0.0000   0.0000   0.0000

          k = 0.2500 0.1436 0.0000 ( 10740 PWs)   bands (ev):

   -62.4819 -36.6232 -36.6098 -36.4788 -14.8876 -14.0806  -6.6107  -5.4164
    -5.1950  -4.0985  -3.3886  -2.9616  -2.3536   0.5376   0.7302   1.2852

     occupation numbers 
     1.0000   1.0000   1.0000   1.0000   1.0000   1.0000   1.0000   1.0000
     1.0000   1.0000   1.0000   1.0000   1.0000   0.0000   0.0000   0.0000

          k = 0.2500 0.2154 0.0000 ( 10743 PWs)   bands (ev):

   -62.4776 -36.6617 -36.6011 -36.4932 -14.6736 -13.9925  -6.6298  -5.4715
    -5.4293  -4.4298  -3.3214  -2.9596  -2.4629   0.4511   0.7553   1.3608

     occupation numbers 
     1.0000   1.0000   1.0000   1.0000   1.0000   1.0000   1.0000   1.0000
     1.0000   1.0000   1.0000   1.0000   1.0000   0.0000   0.0000   0.0000

          k = 0.2500 0.2872 0.0000 ( 10719 PWs)   bands (ev):

   -62.4724 -36.6976 -36.5908 -36.5196 -14.4068 -13.8806  -6.6889  -5.7156
    -5.4176  -4.8032  -3.5658  -2.9276  -2.4223   0.3821   0.8733   1.3597

     occupation numbers 
     1.0000   1.0000   1.0000   1.0000   1.0000   1.0000   1.0000   1.0000
     1.0000   1.0000   1.0000   1.0000   1.0000   0.0000   0.0000   0.0000

          k = 0.2500 0.3590 0.0000 ( 10727 PWs)   bands (ev):

   -62.4673 -36.7250 -36.5806 -36.5545 -14.1221 -13.7585  -6.7425  -6.1260
    -5.2969  -4.9318  -4.0369  -3.0380  -2.3086   0.5047   0.9770   1.4057

     occupation numbers 
     1.0000   1.0000   1.0000   1.0000   1.0000   1.0000   1.0000   1.0000
     1.0000   1.0000   1.0000   1.0000   1.0000   0.0000   0.0000   0.0000

          k = 0.2500 0.4308 0.0000 ( 10709 PWs)   bands (ev):

   -62.4629 -36.7409 -36.5914 -36.5718 -13.8641 -13.6454  -6.7324  -6.5380
    -5.2236  -4.8614  -4.5403  -3.2763  -2.1272   0.5548   1.2054   1.4689

     occupation numbers 
     1.0000   1.0000   1.0000   1.0000   1.0000   1.0000   1.0000   1.0000
     1.0000   1.0000   1.0000   1.0000   1.0000   0.0000   0.0000   0.0000

          k = 0.2500 0.5027 0.0000 ( 10674 PWs)   bands (ev):

   -62.4599 -36.7462 -36.6213 -36.5660 -13.6820 -13.5638  -6.8254  -6.6452
    -5.3674  -4.8030  -4.7084  -3.5430  -1.8894   0.3750   1.5049   1.5686

     occupation numbers 
     1.0000   1.0000   1.0000   1.0000   1.0000   1.0000   1.0000   1.0000
     1.0000   1.0000   1.0000   1.0000   1.0000   0.0000   0.0000   0.0000

          k = 0.2500 0.5745 0.0000 ( 10672 PWs)   bands (ev):

   -62.4588 -36.7465 -36.6333 -36.5640 -13.6159 -13.5338  -6.9275  -6.5760
    -5.5223  -4.8374  -4.6169  -3.6753  -1.7611   0.2523   1.5141   1.7454

     occupation numbers 
     1.0000   1.0000   1.0000   1.0000   1.0000   1.0000   1.0000   1.0000
     1.0000   1.0000   1.0000   1.0000   1.0000   0.0000   0.0000   0.0000

          k = 0.2500-0.0718 0.0000 ( 10739 PWs)   bands (ev):

   -62.4848 -36.6156 -36.5910 -36.4756 -15.0251 -14.1365  -6.6199  -5.3111
    -4.9440  -4.1424  -3.5591  -2.7213  -2.2131   0.4827   0.8276   1.0211

     occupation numbers 
     1.0000   1.0000   1.0000   1.0000   1.0000   1.0000   1.0000   1.0000
     1.0000   1.0000   1.0000   1.0000   1.0000   0.0000   0.0000   0.0000

          k = 0.2500 0.0000 0.0000 ( 10747 PWs)   bands (ev):

   -62.4859 -36.6177 -36.5776 -36.4767 -15.0724 -14.1556  -6.6267  -5.2586
    -4.7809  -4.2818  -3.6375  -2.5578  -2.1561   0.4553   0.8611   0.8624

     occupation numbers 
     1.0000   1.0000   1.0000   1.0000   1.0000   1.0000   1.0000   1.0000
     1.0000   1.0000   1.0000   1.0000   1.0000   0.0000   0.0000   0.0000

          k = 0.3125 0.1795 0.0000 ( 10743 PWs)   bands (ev):

   -62.4745 -36.6956 -36.5950 -36.4958 -14.5188 -13.9295  -6.7615  -5.6661
    -5.5046  -4.3845  -3.1959  -3.0674  -2.5775   0.6131   0.6500   1.6518

     occupation numbers 
     1.0000   1.0000   1.0000   1.0000   1.0000   1.0000   1.0000   1.0000
     1.0000   1.0000   1.0000   1.0000   1.0000   0.0000   0.0000   0.0000

          k = 0.3125 0.2513 0.0000 ( 10720 PWs)   bands (ev):

   -62.4706 -36.7265 -36.5874 -36.5107 -14.3135 -13.8456  -6.8761  -5.8919
    -5.4935  -4.6215  -3.2059  -3.1682  -2.4730   0.5179   0.8156   1.7273

     occupation numbers 
     1.0000   1.0000   1.0000   1.0000   1.0000   1.0000   1.0000   1.0000
     1.0000   1.0000   1.0000   1.0000   1.0000   0.0000   0.0000   0.0000

          k = 0.3125 0.3231 0.0000 ( 10694 PWs)   bands (ev):

   -62.4665 -36.7474 -36.5792 -36.5396 -14.0811 -13.7461  -6.9205  -6.1794
    -5.4424  -4.8321  -3.5976  -3.2035  -2.2871   0.5591   0.9592   1.6915

     occupation numbers 
     1.0000   1.0000   1.0000   1.0000   1.0000   1.0000   1.0000   1.0000
     1.0000   1.0000   1.0000   1.0000   1.0000   0.0000   0.0000   0.0000

          k = 0.3125 0.3949 0.0000 ( 10695 PWs)   bands (ev):

   -62.4627 -36.7540 -36.5794 -36.5716 -13.8567 -13.6447  -6.8508  -6.5258
    -5.3795  -4.8471  -4.1940  -3.3224  -2.1097   0.5826   1.1888   1.6113

     occupation numbers 
     1.0000   1.0000   1.0000   1.0000   1.0000   1.0000   1.0000   1.0000
     1.0000   1.0000   1.0000   1.0000   1.0000   0.0000   0.0000   0.0000

          k = 0.3125 0.4668 0.0000 ( 10680 PWs)   bands (ev):

   -62.4597 -36.7452 -36.6238 -36.5658 -13.6785 -13.5597  -6.8294  -6.6431
    -5.3595  -4.8173  -4.7144  -3.5407  -1.8856   0.3765   1.5032   1.5715

     occupation numbers 
     1.0000   1.0000   1.0000   1.0000   1.0000   1.0000   1.0000   1.0000
     1.0000   1.0000   1.0000   1.0000   1.0000   0.0000   0.0000   0.0000

          k = 0.3125 0.5386 0.0000 ( 10669 PWs)   bands (ev):

   -62.4581 -36.7260 -36.6622 -36.5626 -13.5798 -13.5107  -7.0023  -6.3372
    -5.5700  -5.1396  -4.5506  -3.7500  -1.6780   0.1350   1.4274   1.8643

     occupation numbers 
     1.0000   1.0000   1.0000   1.0000   1.0000   1.0000   1.0000   1.0000
     1.0000   1.0000   1.0000   1.0000   1.0000   0.0000   0.0000   0.0000

          k = 0.3125-0.1077 0.0000 ( 10747 PWs)   bands (ev):

   -62.4774 -36.6625 -36.6009 -36.4940 -14.6702 -13.9894  -6.6315  -5.4751
    -5.4352  -4.4313  -3.3090  -2.9548  -2.4746   0.4452   0.7724   1.3373

     occupation numbers 
     1.0000   1.0000   1.0000   1.0000   1.0000   1.0000   1.0000   1.0000
     1.0000   1.0000   1.0000   1.0000   1.0000   0.0000   0.0000   0.0000

          k = 0.3125-0.0359 0.0000 ( 10739 PWs)   bands (ev):

   -62.4790 -36.6391 -36.6040 -36.4985 -14.7501 -14.0203  -6.5449  -5.4380
    -5.1983  -4.6604  -3.5121  -2.6750  -2.3930   0.3282   0.8441   1.0283

     occupation numbers 
     1.0000   1.0000   1.0000   1.0000   1.0000   1.0000   1.0000   1.0000
     1.0000   1.0000   1.0000   1.0000   1.0000   0.0000   0.0000   0.0000

          k = 0.3750 0.2154 0.0000 ( 10704 PWs)   bands (ev):

   -62.4681 -36.7563 -36.5825 -36.5101 -14.1735 -13.7914  -7.0597  -6.0645
    -5.5521  -4.6035  -3.3752  -2.8056  -2.5452   0.5904   0.8500   1.9777

     occupation numbers 
     1.0000   1.0000   1.0000   1.0000   1.0000   1.0000   1.0000   1.0000
     1.0000   1.0000   1.0000   1.0000   1.0000   0.0000   0.0000   0.0000

          k = 0.3750 0.2872 0.0000 ( 10685 PWs)   bands (ev):

   -62.4653 -36.7758 -36.5769 -36.5240 -14.0095 -13.7243  -7.1499  -6.2511
    -5.5717  -4.7361  -3.3934  -3.0305  -2.3017   0.6105   0.9749   2.0496

     occupation numbers 
     1.0000   1.0000   1.0000   1.0000   1.0000   1.0000   1.0000   1.0000
     1.0000   1.0000   1.0000   1.0000   1.0000   0.0000   0.0000   0.0000

          k = 0.3750 0.3590 0.0000 ( 10684 PWs)   bands (ev):

   -62.4625 -36.7808 -36.5714 -36.5529 -13.8437 -13.6492  -7.1039  -6.4889
    -5.5557  -4.8122  -3.5523  -3.4185  -2.0928   0.6366   1.1568   1.9742

     occupation numbers 
     1.0000   1.0000   1.0000   1.0000   1.0000   1.0000   1.0000   1.0000
     1.0000   1.0000   1.0000   1.0000   1.0000   0.0000   0.0000   0.0000

          k = 0.3750 0.4308 0.0000 ( 10686 PWs)   bands (ev):

   -62.4601 -36.7697 -36.5932 -36.5667 -13.7027 -13.5781  -6.9030  -6.7434
    -5.5242  -4.7561  -4.2153  -3.5227  -1.9220   0.4938   1.4671   1.7331

     occupation numbers 
     1.0000   1.0000   1.0000   1.0000   1.0000   1.0000   1.0000   1.0000
     1.0000   1.0000   1.0000   1.0000   1.0000   0.0000   0.0000   0.0000

          k = 0.3750 0.5027 0.0000 ( 10680 PWs)   bands (ev):

   -62.4585 -36.7455 -36.6371 -36.5635 -13.6091 -13.5263  -6.9355  -6.5774
    -5.5159  -4.8492  -4.6298  -3.6677  -1.7607   0.2604   1.5112   1.7585

     occupation numbers 
     1.0000   1.0000   1.0000   1.0000   1.0000   1.0000   1.0000   1.0000
     1.0000   1.0000   1.0000   1.0000   1.0000   0.0000   0.0000   0.0000

          k = 0.3750 0.5745 0.0000 ( 10662 PWs)   bands (ev):

   -62.4580 -36.7259 -36.6636 -36.5624 -13.5764 -13.5072  -7.0063  -6.3446
    -5.5647  -5.1396  -4.5573  -3.7448  -1.6829   0.1430   1.4263   1.8743

     occupation numbers 
     1.0000   1.0000   1.0000   1.0000   1.0000   1.0000   1.0000   1.0000
     1.0000   1.0000   1.0000   1.0000   1.0000   0.0000   0.0000   0.0000

          k = 0.3750-0.1436 0.0000 ( 10730 PWs)   bands (ev):

   -62.4705 -36.7275 -36.5872 -36.5110 -14.3102 -13.8428  -6.8812  -5.8964
    -5.4950  -4.6257  -3.1993  -3.1487  -2.4925   0.5094   0.8407   1.7047

     occupation numbers 
     1.0000   1.0000   1.0000   1.0000   1.0000   1.0000   1.0000   1.0000
     1.0000   1.0000   1.0000   1.0000   1.0000   0.0000   0.0000   0.0000

          k = 0.3750-0.0718 0.0000 ( 10717 PWs)   bands (ev):

   -62.4721 -36.6992 -36.5904 -36.5208 -14.4000 -13.8746  -6.6965  -5.7256
    -5.4217  -4.8076  -3.5419  -2.9196  -2.4445   0.3778   0.9025   1.3320

     occupation numbers 
     1.0000   1.0000   1.0000   1.0000   1.0000   1.0000   1.0000   1.0000
     1.0000   1.0000   1.0000   1.0000   1.0000   0.0000   0.0000   0.0000

          k = 0.3750 0.0000 0.0000 ( 10751 PWs)   bands (ev):

   -62.4727 -36.6864 -36.5915 -36.5272 -14.4313 -13.8853  -6.6151  -5.6303
    -5.3837  -4.9248  -3.7100  -2.7837  -2.4339   0.3233   0.9278   1.1612

     occupation numbers 
     1.0000   1.0000   1.0000   1.0000   1.0000   1.0000   1.0000   1.0000
     1.0000   1.0000   1.0000   1.0000   1.0000   0.0000   0.0000   0.0000

          k = 0.4375 0.2513 0.0000 ( 10689 PWs)   bands (ev):

   -62.4638 -36.7966 -36.5741 -36.5196 -13.9204 -13.6930  -7.3063  -6.3336
    -5.6438  -4.7401  -3.4800  -2.6420  -2.3568   0.6241   1.0574   2.1787

     occupation numbers 
     1.0000   1.0000   1.0000   1.0000   1.0000   1.0000   1.0000   1.0000
     1.0000   1.0000   1.0000   1.0000   1.0000   0.0000   0.0000   0.0000

          k = 0.4375 0.3231 0.0000 ( 10690 PWs)   bands (ev):

   -62.4624 -36.8026 -36.5712 -36.5311 -13.8314 -13.6547  -7.3193  -6.4475
    -5.6566  -4.7904  -3.4911  -2.9306  -2.1421   0.6560   1.1476   2.2775

     occupation numbers 
     1.0000   1.0000   1.0000   1.0000   1.0000   1.0000   1.0000   1.0000
     1.0000   1.0000   1.0000   1.0000   1.0000   0.0000   0.0000   0.0000

          k = 0.4375 0.3949 0.0000 ( 10692 PWs)   bands (ev):

   -62.4611 -36.7929 -36.5685 -36.5576 -13.7546 -13.6128  -7.1754  -6.5986
    -5.6151  -4.7984  -3.5213  -3.4988  -1.9996   0.6269   1.2977   2.1043

     occupation numbers 
     1.0000   1.0000   1.0000   1.0000   1.0000   1.0000   1.0000   1.0000
     1.0000   1.0000   1.0000   1.0000   1.0000   0.0000   0.0000   0.0000

          k = 0.4375 0.4668 0.0000 ( 10691 PWs)   bands (ev):

   -62.4600 -36.7705 -36.5932 -36.5665 -13.7002 -13.5760  -6.9092  -6.7461
    -5.5236  -4.7601  -4.2085  -3.5185  -1.9314   0.5002   1.4802   1.7300

     occupation numbers 
     1.0000   1.0000   1.0000   1.0000   1.0000   1.0000   1.0000   1.0000
     1.0000   1.0000   1.0000   1.0000   1.0000   0.0000   0.0000   0.0000

          k = 0.4375 0.5386 0.0000 ( 10692 PWs)   bands (ev):

   -62.4595 -36.7465 -36.6246 -36.5654 -13.6725 -13.5542  -6.8362  -6.6560
    -5.3608  -4.8036  -4.7230  -3.5332  -1.9002   0.3908   1.4994   1.5936

     occupation numbers 
     1.0000   1.0000   1.0000   1.0000   1.0000   1.0000   1.0000   1.0000
     1.0000   1.0000   1.0000   1.0000   1.0000   0.0000   0.0000   0.0000

          k = 0.4375-0.1795 0.0000 ( 10713 PWs)   bands (ev):

   -62.4652 -36.7766 -36.5768 -36.5240 -14.0070 -13.7224  -7.1550  -6.2537
    -5.5715  -4.7407  -3.3874  -3.0153  -2.3194   0.6059   0.9973   2.0298

     occupation numbers 
     1.0000   1.0000   1.0000   1.0000   1.0000   1.0000   1.0000   1.0000
     1.0000   1.0000   1.0000   1.0000   1.0000   0.0000   0.0000   0.0000

          k = 0.4375-0.1077 0.0000 ( 10706 PWs)   bands (ev):

   -62.4662 -36.7491 -36.5788 -36.5400 -14.0752 -13.7412  -6.9312  -6.1864
    -5.4437  -4.8390  -3.5757  -3.1941  -2.3102   0.5531   0.9980   1.6696

     occupation numbers 
     1.0000   1.0000   1.0000   1.0000   1.0000   1.0000   1.0000   1.0000
     1.0000   1.0000   1.0000   1.0000   1.0000   0.0000   0.0000   0.0000

          k = 0.4375-0.0359 0.0000 ( 10745 PWs)   bands (ev):

   -62.4669 -36.7269 -36.5800 -36.5562 -14.1127 -13.7501  -6.7562  -6.1374
    -5.3004  -4.9406  -4.0112  -3.0289  -2.3332   0.5014   1.0190   1.3845

     occupation numbers 
     1.0000   1.0000   1.0000   1.0000   1.0000   1.0000   1.0000   1.0000
     1.0000   1.0000   1.0000   1.0000   1.0000   0.0000   0.0000   0.0000

          k =-0.5000-0.2872 0.0000 ( 10692 PWs)   bands (ev):

   -62.4624 -36.8106 -36.5711 -36.5230 -13.8263 -13.6572  -7.4002  -6.4290
    -5.6900  -4.7864  -3.5137  -2.5877  -2.2545   0.6475   1.1548   2.2421

     occupation numbers 
     1.0000   1.0000   1.0000   1.0000   1.0000   1.0000   1.0000   1.0000
     1.0000   1.0000   1.0000   1.0000   1.0000   0.0000   0.0000   0.0000

          k =-0.5000-0.2154 0.0000 ( 10690 PWs)   bands (ev):

   -62.4624 -36.8029 -36.5711 -36.5311 -13.8304 -13.6540  -7.3214  -6.4484
    -5.6563  -4.7923  -3.4887  -2.9250  -2.1496   0.6559   1.1563   2.2645

     occupation numbers 
     1.0000   1.0000   1.0000   1.0000   1.0000   1.0000   1.0000   1.0000
     1.0000   1.0000   1.0000   1.0000   1.0000   0.0000   0.0000   0.0000

          k =-0.5000-0.1436 0.0000 ( 10697 PWs)   bands (ev):

   -62.4624 -36.7819 -36.5712 -36.5530 -13.8402 -13.6464  -7.1115  -6.4926
    -5.5550  -4.8178  -3.5401  -3.4117  -2.1090   0.6378   1.1821   1.9604

     occupation numbers 
     1.0000   1.0000   1.0000   1.0000   1.0000   1.0000   1.0000   1.0000
     1.0000   1.0000   1.0000   1.0000   1.0000   0.0000   0.0000   0.0000

          k =-0.5000-0.0718 0.0000 ( 10699 PWs)   bands (ev):

   -62.4624 -36.7559 -36.5799 -36.5712 -13.8498 -13.6388  -6.8647  -6.5336
    -5.3811  -4.8555  -4.1743  -3.3134  -2.1313   0.5890   1.2238   1.6000

     occupation numbers 
     1.0000   1.0000   1.0000   1.0000   1.0000   1.0000   1.0000   1.0000
     1.0000   1.0000   1.0000   1.0000   1.0000   0.0000   0.0000   0.0000

          k =-0.5000-0.0000 0.0000 ( 10711 PWs)   bands (ev):

   -62.4624 -36.7424 -36.5938 -36.5712 -13.8537 -13.6356  -6.7478  -6.5497
    -5.2257  -4.8738  -4.5213  -3.2669  -2.1478   0.5644   1.2424   1.4571

     occupation numbers 
     1.0000   1.0000   1.0000   1.0000   1.0000   1.0000   1.0000   1.0000
     1.0000   1.0000   1.0000   1.0000   1.0000   0.0000   0.0000   0.0000

     highest occupied, lowest unoccupied level (ev):    -1.6631    0.1350

!    total energy              =    -181.57951665 Ry
     estimated scf accuracy    <          1.5E-13 Ry

     The total energy is the sum of the following terms:
     one-electron contribution =   -1385.54365745 Ry
     hartree contribution      =     692.36718604 Ry
     xc contribution           =     -29.69535125 Ry
     ewald contribution        =     541.29230600 Ry

     convergence has been achieved in   4 iterations

     negative rho (up, down):  3.855E-04 0.000E+00

     Forces acting on atoms (cartesian axes, Ry/au):

     atom    1 type  1   force =     0.00000000    0.00000673    0.00000000
     atom    2 type  2   force =     0.00000000   -0.00000337   -0.00000012
     atom    3 type  2   force =     0.00000000   -0.00000337    0.00000012
     The non-local contrib.  to forces
     atom    1 type  1   force =     0.00000000   -0.00013716    0.00000000
     atom    2 type  2   force =     0.00000000   -0.00018113   -0.27275628
     atom    3 type  2   force =     0.00000000   -0.00018113    0.27275628
     The ionic contribution  to forces
     atom    1 type  1   force =     0.00000000   -0.04567890    0.00000000
     atom    2 type  2   force =    -0.00000000    0.02283945   37.43804228
     atom    3 type  2   force =    -0.00000000    0.02283945  -37.43804228
     The local contribution  to forces
     atom    1 type  1   force =     0.00000000    0.04584929    0.00000000
     atom    2 type  2   force =    -0.00000000   -0.02264075  -37.16773240
     atom    3 type  2   force =    -0.00000000   -0.02264075   37.16773240
     The core correction contribution to forces
     atom    1 type  1   force =    -0.00000000   -0.00002682   -0.00000000
     atom    2 type  2   force =     0.00000000   -0.00002124    0.00244659
     atom    3 type  2   force =     0.00000000   -0.00002124   -0.00244659
     The Hubbard contrib.    to forces
     atom    1 type  1   force =     0.00000000    0.00000000    0.00000000
     atom    2 type  2   force =     0.00000000    0.00000000    0.00000000
     atom    3 type  2   force =     0.00000000    0.00000000    0.00000000
     The SCF correction term to forces
     atom    1 type  1   force =     0.00000000    0.00000002    0.00000000
     atom    2 type  2   force =    -0.00000000    0.00000000   -0.00000032
     atom    3 type  2   force =    -0.00000000    0.00000000    0.00000032

     Total force =     0.000008     Total SCF correction =     0.000000


     Computing stress (Cartesian axis) and pressure


     negative rho (up, down):  3.855E-04 0.000E+00
          total   stress  (Ry/bohr**3)                   (kbar)     P=        0.95
   0.00001987   0.00000000   0.00000000            2.92        0.00        0.00
   0.00000000   0.00000480   0.00000000            0.00        0.71        0.00
   0.00000000   0.00000000  -0.00000533            0.00        0.00       -0.78

     kinetic stress (kbar)   4898.11      0.00      0.00
                                0.00   4893.89      0.00
                                0.00      0.00   4938.69

     local   stress (kbar)-148384.74      0.00     -0.00
                                0.00-148360.03      0.00
                               -0.00      0.00 145356.93

     nonloc. stress (kbar)   2238.59      0.00      0.00
                                0.00   2239.16      0.00
                                0.00      0.00   2229.44

     hartree stress (kbar)  72774.34     -0.00      0.00
                               -0.00  72766.20      0.00
                                0.00      0.00 -70979.15

     exc-cor stress (kbar)   -415.74     -0.00      0.00
                               -0.00   -415.79     -0.00
                                0.00     -0.00   -416.88

     corecor stress (kbar)   -550.61      0.00      0.00
                                0.00   -550.60     -0.00
                                0.00     -0.00   -551.04

     ewald   stress (kbar)  69442.98     -0.00     -0.00
                               -0.00  69427.87      0.00
                               -0.00      0.00 -80578.79

     hubbard stress (kbar)      0.00      0.00      0.00
                                0.00      0.00      0.00
                                0.00      0.00      0.00

     DFT-D   stress (kbar)      0.00      0.00      0.00
                                0.00      0.00      0.00
                                0.00      0.00      0.00

     XDM     stress (kbar)      0.00      0.00      0.00
                                0.00      0.00      0.00
                                0.00      0.00      0.00

     dft-nl  stress (kbar)      0.00      0.00      0.00
                                0.00      0.00      0.00
                                0.00      0.00      0.00

     TS-vdW  stress (kbar)      0.00      0.00      0.00
                                0.00      0.00      0.00
                                0.00      0.00      0.00

     MDB     stress (kbar)      0.00      0.00      0.00
                                0.00      0.00      0.00
                                0.00      0.00      0.00

     3D-RISM stress (kbar)      0.00      0.00      0.00
                                0.00      0.00      0.00
                                0.00      0.00      0.00


     Writing all to output data dir ./tmp/mos2.save/ :
     XML data file, charge density, pseudopotentials, collected wavefunctions
 
     init_run     :      4.93s CPU      5.89s WALL (       1 calls)
     electrons    :    696.20s CPU    709.10s WALL (       1 calls)
     forces       :      2.95s CPU      3.44s WALL (       1 calls)
     stress       :      6.62s CPU      7.61s WALL (       1 calls)

     Called by init_run:
     wfcinit      :      2.83s CPU      2.94s WALL (       1 calls)
     wfcinit:atom :      0.08s CPU      0.08s WALL (      19 calls)
     wfcinit:wfcr :      2.37s CPU      2.47s WALL (      19 calls)
     potinit      :      1.03s CPU      1.36s WALL (       1 calls)
     hinit0       :      0.43s CPU      0.50s WALL (       1 calls)

     Called by electrons:
     c_bands      :    680.89s CPU    689.56s WALL (       5 calls)
     sum_band     :      8.87s CPU     10.82s WALL (       5 calls)
     v_of_rho     :      4.00s CPU      4.84s WALL (       5 calls)
     v_h          :      0.35s CPU      0.50s WALL (       5 calls)
     v_xc         :      4.50s CPU      5.42s WALL (       7 calls)
     newd         :      3.12s CPU      5.10s WALL (       5 calls)
     mix_rho      :      0.24s CPU      0.25s WALL (       5 calls)

     Called by c_bands:
     init_us_2    :      3.76s CPU      3.82s WALL (     247 calls)
     ccgdiagg     :    626.20s CPU    634.54s WALL (      95 calls)
     wfcrot       :      8.45s CPU      8.58s WALL (      76 calls)

     Called by sum_band:
     sum_band:wei :      0.00s CPU      0.00s WALL (       5 calls)
     sum_band:loo :      5.39s CPU      5.48s WALL (       5 calls)
     sum_band:buf :      0.24s CPU      0.25s WALL (      95 calls)
     sum_band:ini :      1.40s CPU      1.42s WALL (      95 calls)
     sum_band:cal :      0.87s CPU      0.89s WALL (      95 calls)
     sum_band:bec :      0.01s CPU      0.01s WALL (      95 calls)
     addusdens    :      2.89s CPU      4.67s WALL (       5 calls)
                                        0.00s GPU  (       5 calls)
     addusd:skk   :      0.01s CPU      0.01s WALL (      10 calls)
                                        0.00s GPU  (      10 calls)

     Called by *cgdiagg:
     h_psi        :    346.09s CPU    350.72s WALL (   20722 calls)
     s_psi        :    151.73s CPU    154.09s WALL (   41368 calls)

     Called by h_psi:
     h_psi:calbec :     97.60s CPU     98.93s WALL (   20722 calls)
     vloc_psi     :    155.73s CPU    157.71s WALL (   20722 calls)
                                        0.00s GPU  (   20722 calls)
     add_vuspsi   :     89.31s CPU     90.73s WALL (   20722 calls)
     hs_1psi      :    422.94s CPU    428.81s WALL (   20646 calls)
     s_1psi       :    148.81s CPU    150.59s WALL (   20646 calls)

     General routines
     calbec       :    177.55s CPU    179.78s WALL (   41786 calls)
     fft          :      3.23s CPU      3.77s WALL (      89 calls)
     ffts         :      0.07s CPU      0.08s WALL (      10 calls)
     fftw         :     98.47s CPU     99.65s WALL (   45320 calls)
     interpolate  :      0.27s CPU      0.32s WALL (       5 calls)
 
     Parallel routines
 
     PWSCF        :  11m50.88s CPU  12m 6.35s WALL

 
   This run was terminated on:   0:21:43  23Sep2026            

=------------------------------------------------------------------------------=
   JOB DONE.
=------------------------------------------------------------------------------=
