
     Program PWSCF v.7.5 starts on 23Sep2026 at  0:21:47 

     This program is part of the open-source Quantum ESPRESSO suite
     for quantum simulation of materials; please cite
         "P. Giannozzi et al., J. Phys.:Condens. Matter 21 395502 (2009);
         "P. Giannozzi et al., J. Phys.:Condens. Matter 29 465901 (2017);
         "P. Giannozzi et al., J. Chem. Phys. 152 154105 (2020);
          URL http://www.quantum-espresso.org", 
     in publications or presentations arising from this work. More details at
     http://www.quantum-espresso.org/quote

     Parallel version (MPI), running on     8 processors

     MPI processes distributed on     1 nodes
     3226 MiB available memory on the printing compute node when the environment starts
 
     Reading input from mos2.bands.in

     Current dimensions of program PWSCF are:
     Max number of different atomic species (ntypx) = 10
     Max number of k-points (npk) =  40000
     Max angular momentum in pseudopotentials (lmaxx) =  4
     file Mo.pbe-spn-rrkjus_psl.1.0.0.UPF: wavefunction(s)  4S renormalized

     Atomic positions and unit cell read from directory:
     ./tmp/mos2.save/
 
 
     K-points division:     npool     =       4
     R & G space division:  proc/nbgrp/npool/nimage =       2
     Subspace diagonalization in iterative solution of the eigenvalue problem:
     a serial algorithm will be used

 
     Parallelization info
     --------------------
     sticks:   dense  smooth     PW     G-vecs:    dense   smooth      PW
     Min         594     297     89               121212    42897    6920
     Max         595     298     90               121217    42902    6921
     Sum        1189     595    179               242429    85799   13841
 
     Using Slab Decomposition
 


     bravais-lattice index     =            0
     lattice parameter (alat)  =       5.9844  a.u.
     unit-cell volume          =    1365.9981 (a.u.)^3
     number of atoms/cell      =            3
     number of atomic types    =            2
     number of electrons       =        26.00
     number of Kohn-Sham states=           16
     kinetic-energy cutoff     =      60.0000  Ry
     charge density cutoff     =     480.0000  Ry
     Exchange-correlation= PBE
                           (   1   4   3   4   0   0   0)

     celldm(1)=   5.984412  celldm(2)=   0.000000  celldm(3)=   0.000000
     celldm(4)=   0.000000  celldm(5)=   0.000000  celldm(6)=   0.000000

     crystal axes: (cart. coord. in units of alat)
               a(1) = (   1.000000   0.000000   0.000000 )  
               a(2) = (  -0.500000   0.870377   0.000000 )  
               a(3) = (   0.000000   0.000000   7.322816 )  

     reciprocal axes: (cart. coord. in units 2 pi/alat)
               b(1) = (  1.000000  0.574464  0.000000 )  
               b(2) = (  0.000000  1.148927  0.000000 )  
               b(3) = (  0.000000  0.000000  0.136559 )  


     PseudoPot. # 1 for Mo read from file:
     ../pseudo/Mo.pbe-spn-rrkjus_psl.1.0.0.UPF
     MD5 check sum: 03f09b12e49601d1a456a78ce8b2d514
     Pseudo is Ultrasoft + core correction, Zval = 14.0
     Generated using &quot;atomic&quot; code by A. Dal Corso  v.6.3
     Using radial grid of 1229 points,  6 beta functions with: 
                l(1) =   0
                l(2) =   0
                l(3) =   1
                l(4) =   1
                l(5) =   2
                l(6) =   2
     Q(r) pseudized with 0 coefficients 


     PseudoPot. # 2 for S  read from file:
     ../pseudo/S.pbe-n-rrkjus_psl.1.0.0.UPF
     MD5 check sum: 9d0fe39aa2a799ea84730884c9b010f4
     Pseudo is Ultrasoft + core correction, Zval =  6.0
     Generated using &quot;atomic&quot; code by A. Dal Corso  v.6.3
     Using radial grid of 1151 points,  6 beta functions with: 
                l(1) =   0
                l(2) =   0
                l(3) =   1
                l(4) =   1
                l(5) =   2
                l(6) =   2
     Q(r) pseudized with 0 coefficients 


     atomic species   valence    mass     pseudopotential
     Mo               14.00    95.95000     Mo( 1.00)
     S                 6.00    32.06000     S ( 1.00)

     No symmetry found


                                    s                        frac. trans.

      isym =  1     identity                                     

 cryst.   s( 1) = (     1          0          0      )
                  (     0          1          0      )
                  (     0          0          1      )

 cart.    s( 1) = (  1.0000000  0.0000000  0.0000000 )
                  (  0.0000000  1.0000000  0.0000000 )
                  (  0.0000000  0.0000000  1.0000000 )


   Cartesian axes

     site n.     atom                  positions (alat units)
         1        Mo     tau(   1) = (  -0.0000000  -0.0003263   3.6614082  )
         2        S      tau(   2) = (   0.5000000   0.2902889   4.1564040  )
         3        S      tau(   3) = (   0.5000000   0.2902889   3.1664124  )

   Crystallographic axes

     site n.     atom                  positions (cryst. coord.)
         1        Mo     tau(   1) = ( -0.0001874 -0.0003749  0.5000000  )
         2        S      tau(   2) = (  0.6667604  0.3335208  0.5675964  )
         3        S      tau(   3) = (  0.6667604  0.3335208  0.4324036  )

     number of k points=    97
                       cart. coord. in units 2pi/alat
        k(    1) = (   0.3182129   0.5593431   0.0000000), wk =   0.0206186
        k(    2) = (   0.3182129   0.5643832   0.0000000), wk =   0.0206186
        k(    3) = (   0.3182129   0.5694234   0.0000000), wk =   0.0206186
        k(    4) = (   0.3182129   0.5744635   0.0000000), wk =   0.0206186
        k(    5) = (   0.3182129   0.5795037   0.0000000), wk =   0.0206186
        k(    6) = (   0.3182129   0.5845438   0.0000000), wk =   0.0206186
        k(    7) = (   0.3182129   0.5895839   0.0000000), wk =   0.0206186
        k(    8) = (   0.3232531   0.5593431   0.0000000), wk =   0.0206186
        k(    9) = (   0.3232531   0.5643832   0.0000000), wk =   0.0206186
        k(   10) = (   0.3232531   0.5694234   0.0000000), wk =   0.0206186
        k(   11) = (   0.3232531   0.5744635   0.0000000), wk =   0.0206186
        k(   12) = (   0.3232531   0.5795037   0.0000000), wk =   0.0206186
        k(   13) = (   0.3232531   0.5845438   0.0000000), wk =   0.0206186
        k(   14) = (   0.3232531   0.5895839   0.0000000), wk =   0.0206186
        k(   15) = (   0.3282932   0.5593431   0.0000000), wk =   0.0206186
        k(   16) = (   0.3282932   0.5643832   0.0000000), wk =   0.0206186
        k(   17) = (   0.3282932   0.5694234   0.0000000), wk =   0.0206186
        k(   18) = (   0.3282932   0.5744635   0.0000000), wk =   0.0206186
        k(   19) = (   0.3282932   0.5795037   0.0000000), wk =   0.0206186
        k(   20) = (   0.3282932   0.5845438   0.0000000), wk =   0.0206186
        k(   21) = (   0.3282932   0.5895839   0.0000000), wk =   0.0206186
        k(   22) = (   0.3333333   0.5593431   0.0000000), wk =   0.0206186
        k(   23) = (   0.3333333   0.5643832   0.0000000), wk =   0.0206186
        k(   24) = (   0.3333333   0.5694234   0.0000000), wk =   0.0206186
        k(   25) = (   0.3333333   0.5744635   0.0000000), wk =   0.0206186
        k(   26) = (   0.3333333   0.5795037   0.0000000), wk =   0.0206186
        k(   27) = (   0.3333333   0.5845438   0.0000000), wk =   0.0206186
        k(   28) = (   0.3333333   0.5895839   0.0000000), wk =   0.0206186
        k(   29) = (   0.3383735   0.5593431   0.0000000), wk =   0.0206186
        k(   30) = (   0.3383735   0.5643832   0.0000000), wk =   0.0206186
        k(   31) = (   0.3383735   0.5694234   0.0000000), wk =   0.0206186
        k(   32) = (   0.3383735   0.5744635   0.0000000), wk =   0.0206186
        k(   33) = (   0.3383735   0.5795037   0.0000000), wk =   0.0206186
        k(   34) = (   0.3383735   0.5845438   0.0000000), wk =   0.0206186
        k(   35) = (   0.3383735   0.5895839   0.0000000), wk =   0.0206186
        k(   36) = (   0.3434136   0.5593431   0.0000000), wk =   0.0206186
        k(   37) = (   0.3434136   0.5643832   0.0000000), wk =   0.0206186
        k(   38) = (   0.3434136   0.5694234   0.0000000), wk =   0.0206186
        k(   39) = (   0.3434136   0.5744635   0.0000000), wk =   0.0206186
        k(   40) = (   0.3434136   0.5795037   0.0000000), wk =   0.0206186
        k(   41) = (   0.3434136   0.5845438   0.0000000), wk =   0.0206186
        k(   42) = (   0.3434136   0.5895839   0.0000000), wk =   0.0206186
        k(   43) = (   0.3484538   0.5593431   0.0000000), wk =   0.0206186
        k(   44) = (   0.3484538   0.5643832   0.0000000), wk =   0.0206186
        k(   45) = (   0.3484538   0.5694234   0.0000000), wk =   0.0206186
        k(   46) = (   0.3484538   0.5744635   0.0000000), wk =   0.0206186
        k(   47) = (   0.3484538   0.5795037   0.0000000), wk =   0.0206186
        k(   48) = (   0.3484538   0.5845438   0.0000000), wk =   0.0206186
        k(   49) = (   0.3484538   0.5895839   0.0000000), wk =   0.0206186
        k(   50) = (   0.0000000   0.0000000   0.0000000), wk =   0.0206186
        k(   51) = (   0.5000000   0.2872318   0.0000000), wk =   0.0206186
        k(   52) = (  -0.3333333  -0.5744635   0.0000000), wk =   0.0206186
        k(   53) = (   0.0833333   0.1436159   0.0000000), wk =   0.0206186
        k(   54) = (   0.1000000   0.1723391   0.0000000), wk =   0.0206186
        k(   55) = (   0.1166667   0.2010622   0.0000000), wk =   0.0206186
        k(   56) = (   0.1333333   0.2297854   0.0000000), wk =   0.0206186
        k(   57) = (   0.1500000   0.2585086   0.0000000), wk =   0.0206186
        k(   58) = (   0.1666667   0.2872318   0.0000000), wk =   0.0206186
        k(   59) = (   0.1833333   0.3159549   0.0000000), wk =   0.0206186
        k(   60) = (   0.2000000   0.3446781   0.0000000), wk =   0.0206186
        k(   61) = (   0.2166667   0.3734013   0.0000000), wk =   0.0206186
        k(   62) = (   0.2333333   0.4021245   0.0000000), wk =   0.0206186
        k(   63) = (   0.2500000   0.4308476   0.0000000), wk =   0.0206186
        k(   64) = (   0.2666667   0.4595708   0.0000000), wk =   0.0206186
        k(   65) = (   0.2833333   0.4882940   0.0000000), wk =   0.0206186
        k(   66) = (   0.3000000   0.5170172   0.0000000), wk =   0.0206186
        k(   67) = (   0.3166667   0.5457403   0.0000000), wk =   0.0206186
        k(   68) = (  -0.1666667  -0.0000000   0.0000000), wk =   0.0206186
        k(   69) = (  -0.2000000  -0.0000000   0.0000000), wk =   0.0206186
        k(   70) = (  -0.2333333   0.0000000   0.0000000), wk =   0.0206186
        k(   71) = (  -0.2666667  -0.0000000   0.0000000), wk =   0.0206186
        k(   72) = (  -0.3000000  -0.0000000   0.0000000), wk =   0.0206186
        k(   73) = (  -0.3333333   0.0000000   0.0000000), wk =   0.0206186
        k(   74) = (  -0.3666667  -0.0000000   0.0000000), wk =   0.0206186
        k(   75) = (  -0.4000000  -0.0000000   0.0000000), wk =   0.0206186
        k(   76) = (  -0.4333333   0.0000000   0.0000000), wk =   0.0206186
        k(   77) = (  -0.4666667  -0.0000000   0.0000000), wk =   0.0206186
        k(   78) = (  -0.5000000  -0.0000000   0.0000000), wk =   0.0206186
        k(   79) = (  -0.5333333   0.0000000   0.0000000), wk =   0.0206186
        k(   80) = (  -0.5666667  -0.0000000   0.0000000), wk =   0.0206186
        k(   81) = (  -0.6000000  -0.0000000   0.0000000), wk =   0.0206186
        k(   82) = (  -0.6333333   0.0000000   0.0000000), wk =   0.0206186
        k(   83) = (   0.0833333  -0.1436159   0.0000000), wk =   0.0206186
        k(   84) = (   0.1000000  -0.1723391   0.0000000), wk =   0.0206186
        k(   85) = (   0.1166667  -0.2010622   0.0000000), wk =   0.0206186
        k(   86) = (   0.1333333  -0.2297854   0.0000000), wk =   0.0206186
        k(   87) = (   0.1500000  -0.2585086   0.0000000), wk =   0.0206186
        k(   88) = (   0.1666667  -0.2872318   0.0000000), wk =   0.0206186
        k(   89) = (   0.1833333  -0.3159549   0.0000000), wk =   0.0206186
        k(   90) = (   0.2000000  -0.3446781   0.0000000), wk =   0.0206186
        k(   91) = (   0.2166667  -0.3734013   0.0000000), wk =   0.0206186
        k(   92) = (   0.2333333  -0.4021245   0.0000000), wk =   0.0206186
        k(   93) = (   0.2500000  -0.4308476   0.0000000), wk =   0.0206186
        k(   94) = (   0.2666667  -0.4595708   0.0000000), wk =   0.0206186
        k(   95) = (   0.2833333  -0.4882940   0.0000000), wk =   0.0206186
        k(   96) = (   0.3000000  -0.5170172   0.0000000), wk =   0.0206186
        k(   97) = (   0.3166667  -0.5457403   0.0000000), wk =   0.0206186

                       cryst. coord.
        k(    1) = (   0.3182129   0.3277331   0.0000000), wk =   0.0206186
        k(    2) = (   0.3182129   0.3321199   0.0000000), wk =   0.0206186
        k(    3) = (   0.3182129   0.3365067   0.0000000), wk =   0.0206186
        k(    4) = (   0.3182129   0.3408935   0.0000000), wk =   0.0206186
        k(    5) = (   0.3182129   0.3452804   0.0000000), wk =   0.0206186
        k(    6) = (   0.3182129   0.3496672   0.0000000), wk =   0.0206186
        k(    7) = (   0.3182129   0.3540540   0.0000000), wk =   0.0206186
        k(    8) = (   0.3232531   0.3252130   0.0000000), wk =   0.0206186
        k(    9) = (   0.3232531   0.3295998   0.0000000), wk =   0.0206186
        k(   10) = (   0.3232531   0.3339867   0.0000000), wk =   0.0206186
        k(   11) = (   0.3232531   0.3383735   0.0000000), wk =   0.0206186
        k(   12) = (   0.3232531   0.3427603   0.0000000), wk =   0.0206186
        k(   13) = (   0.3232531   0.3471471   0.0000000), wk =   0.0206186
        k(   14) = (   0.3232531   0.3515339   0.0000000), wk =   0.0206186
        k(   15) = (   0.3282932   0.3226929   0.0000000), wk =   0.0206186
        k(   16) = (   0.3282932   0.3270798   0.0000000), wk =   0.0206186
        k(   17) = (   0.3282932   0.3314666   0.0000000), wk =   0.0206186
        k(   18) = (   0.3282932   0.3358534   0.0000000), wk =   0.0206186
        k(   19) = (   0.3282932   0.3402402   0.0000000), wk =   0.0206186
        k(   20) = (   0.3282932   0.3446271   0.0000000), wk =   0.0206186
        k(   21) = (   0.3282932   0.3490139   0.0000000), wk =   0.0206186
        k(   22) = (   0.3333333   0.3201729   0.0000000), wk =   0.0206186
        k(   23) = (   0.3333333   0.3245597   0.0000000), wk =   0.0206186
        k(   24) = (   0.3333333   0.3289465   0.0000000), wk =   0.0206186
        k(   25) = (   0.3333333   0.3333333   0.0000000), wk =   0.0206186
        k(   26) = (   0.3333333   0.3377202   0.0000000), wk =   0.0206186
        k(   27) = (   0.3333333   0.3421070   0.0000000), wk =   0.0206186
        k(   28) = (   0.3333333   0.3464938   0.0000000), wk =   0.0206186
        k(   29) = (   0.3383735   0.3176528   0.0000000), wk =   0.0206186
        k(   30) = (   0.3383735   0.3220396   0.0000000), wk =   0.0206186
        k(   31) = (   0.3383735   0.3264264   0.0000000), wk =   0.0206186
        k(   32) = (   0.3383735   0.3308133   0.0000000), wk =   0.0206186
        k(   33) = (   0.3383735   0.3352001   0.0000000), wk =   0.0206186
        k(   34) = (   0.3383735   0.3395869   0.0000000), wk =   0.0206186
        k(   35) = (   0.3383735   0.3439737   0.0000000), wk =   0.0206186
        k(   36) = (   0.3434136   0.3151327   0.0000000), wk =   0.0206186
        k(   37) = (   0.3434136   0.3195195   0.0000000), wk =   0.0206186
        k(   38) = (   0.3434136   0.3239064   0.0000000), wk =   0.0206186
        k(   39) = (   0.3434136   0.3282932   0.0000000), wk =   0.0206186
        k(   40) = (   0.3434136   0.3326800   0.0000000), wk =   0.0206186
        k(   41) = (   0.3434136   0.3370668   0.0000000), wk =   0.0206186
        k(   42) = (   0.3434136   0.3414537   0.0000000), wk =   0.0206186
        k(   43) = (   0.3484538   0.3126126   0.0000000), wk =   0.0206186
        k(   44) = (   0.3484538   0.3169995   0.0000000), wk =   0.0206186
        k(   45) = (   0.3484538   0.3213863   0.0000000), wk =   0.0206186
        k(   46) = (   0.3484538   0.3257731   0.0000000), wk =   0.0206186
        k(   47) = (   0.3484538   0.3301599   0.0000000), wk =   0.0206186
        k(   48) = (   0.3484538   0.3345468   0.0000000), wk =   0.0206186
        k(   49) = (   0.3484538   0.3389336   0.0000000), wk =   0.0206186
        k(   50) = (   0.0000000   0.0000000   0.0000000), wk =   0.0206186
        k(   51) = (   0.5000000   0.0000000   0.0000000), wk =   0.0206186
        k(   52) = (  -0.3333333  -0.3333333   0.0000000), wk =   0.0206186
        k(   53) = (   0.0833333   0.0833333   0.0000000), wk =   0.0206186
        k(   54) = (   0.1000000   0.1000000   0.0000000), wk =   0.0206186
        k(   55) = (   0.1166667   0.1166667   0.0000000), wk =   0.0206186
        k(   56) = (   0.1333333   0.1333333   0.0000000), wk =   0.0206186
        k(   57) = (   0.1500000   0.1500000   0.0000000), wk =   0.0206186
        k(   58) = (   0.1666667   0.1666667   0.0000000), wk =   0.0206186
        k(   59) = (   0.1833333   0.1833333   0.0000000), wk =   0.0206186
        k(   60) = (   0.2000000   0.2000000   0.0000000), wk =   0.0206186
        k(   61) = (   0.2166667   0.2166667   0.0000000), wk =   0.0206186
        k(   62) = (   0.2333333   0.2333333   0.0000000), wk =   0.0206186
        k(   63) = (   0.2500000   0.2500000   0.0000000), wk =   0.0206186
        k(   64) = (   0.2666667   0.2666667   0.0000000), wk =   0.0206186
        k(   65) = (   0.2833333   0.2833333   0.0000000), wk =   0.0206186
        k(   66) = (   0.3000000   0.3000000   0.0000000), wk =   0.0206186
        k(   67) = (   0.3166667   0.3166667   0.0000000), wk =   0.0206186
        k(   68) = (  -0.1666667   0.0833333   0.0000000), wk =   0.0206186
        k(   69) = (  -0.2000000   0.1000000   0.0000000), wk =   0.0206186
        k(   70) = (  -0.2333333   0.1166667   0.0000000), wk =   0.0206186
        k(   71) = (  -0.2666667   0.1333333   0.0000000), wk =   0.0206186
        k(   72) = (  -0.3000000   0.1500000   0.0000000), wk =   0.0206186
        k(   73) = (  -0.3333333   0.1666667   0.0000000), wk =   0.0206186
        k(   74) = (  -0.3666667   0.1833333   0.0000000), wk =   0.0206186
        k(   75) = (  -0.4000000   0.2000000   0.0000000), wk =   0.0206186
        k(   76) = (  -0.4333333   0.2166667   0.0000000), wk =   0.0206186
        k(   77) = (  -0.4666667   0.2333333   0.0000000), wk =   0.0206186
        k(   78) = (  -0.5000000   0.2500000   0.0000000), wk =   0.0206186
        k(   79) = (  -0.5333333   0.2666667   0.0000000), wk =   0.0206186
        k(   80) = (  -0.5666667   0.2833333   0.0000000), wk =   0.0206186
        k(   81) = (  -0.6000000   0.3000000   0.0000000), wk =   0.0206186
        k(   82) = (  -0.6333333   0.3166667   0.0000000), wk =   0.0206186
        k(   83) = (   0.0833333  -0.1666667   0.0000000), wk =   0.0206186
        k(   84) = (   0.1000000  -0.2000000   0.0000000), wk =   0.0206186
        k(   85) = (   0.1166667  -0.2333333   0.0000000), wk =   0.0206186
        k(   86) = (   0.1333333  -0.2666667   0.0000000), wk =   0.0206186
        k(   87) = (   0.1500000  -0.3000000   0.0000000), wk =   0.0206186
        k(   88) = (   0.1666667  -0.3333333   0.0000000), wk =   0.0206186
        k(   89) = (   0.1833333  -0.3666667   0.0000000), wk =   0.0206186
        k(   90) = (   0.2000000  -0.4000000   0.0000000), wk =   0.0206186
        k(   91) = (   0.2166667  -0.4333333   0.0000000), wk =   0.0206186
        k(   92) = (   0.2333333  -0.4666667   0.0000000), wk =   0.0206186
        k(   93) = (   0.2500000  -0.5000000   0.0000000), wk =   0.0206186
        k(   94) = (   0.2666667  -0.5333333   0.0000000), wk =   0.0206186
        k(   95) = (   0.2833333  -0.5666667   0.0000000), wk =   0.0206186
        k(   96) = (   0.3000000  -0.6000000   0.0000000), wk =   0.0206186
        k(   97) = (   0.3166667  -0.6333333   0.0000000), wk =   0.0206186

     Dense  grid:   242429 G-vectors     FFT dimensions: (  45,  45, 320)

     Smooth grid:    85799 G-vectors     FFT dimensions: (  30,  30, 225)

     Dynamical RAM for                 wfc:       1.31 MB

     Dynamical RAM for     wfc (w. buffer):       1.31 MB

     Dynamical RAM for           str. fact:       3.70 MB

     Dynamical RAM for           local pot:       0.00 MB

     Dynamical RAM for          nlocal pot:       4.42 MB

     Dynamical RAM for                qrad:       3.52 MB

     Dynamical RAM for          rho,v,vnew:      12.96 MB

     Dynamical RAM for           G-vectors:       7.26 MB

     Dynamical RAM for          h,s,v(r/c):       0.01 MB

     Dynamical RAM for          <psi|beta>:       0.01 MB

     Dynamical RAM for      wfcinit/wfcrot:       2.62 MB

     Dynamical RAM for           addusdens:      88.32 MB

     Estimated static dynamical RAM per process >      51.08 MB

     Estimated max dynamical RAM per process >     139.39 MB

     Estimated total dynamical RAM >       1.09 GB

     The potential is recalculated from file :
     ./tmp/mos2.save/charge-density


     negative rho (up, down):  3.855E-04 0.000E+00
     Starting wfcs are   18 randomized atomic wfcs

     Band Structure Calculation
     CG style diagonalization

     Computing kpt #:     1  of    25 on this pool
     total cpu time spent up to now is       24.4 secs

     Computing kpt #:     2  of    25 on this pool
     total cpu time spent up to now is       41.2 secs

     Computing kpt #:     3  of    25 on this pool
     total cpu time spent up to now is       58.8 secs

     Computing kpt #:     4  of    25 on this pool
     total cpu time spent up to now is       75.9 secs

     Computing kpt #:     5  of    25 on this pool
     total cpu time spent up to now is       94.0 secs

     Computing kpt #:     6  of    25 on this pool
     total cpu time spent up to now is      112.6 secs

     Computing kpt #:     7  of    25 on this pool
     total cpu time spent up to now is      131.3 secs

     Computing kpt #:     8  of    25 on this pool
     total cpu time spent up to now is      148.6 secs

     Computing kpt #:     9  of    25 on this pool
     total cpu time spent up to now is      166.9 secs

     Computing kpt #:    10  of    25 on this pool
     total cpu time spent up to now is      184.0 secs

     Computing kpt #:    11  of    25 on this pool
