
     Program PWSCF v.7.5 starts on 22Sep2026 at 22:40:35 

     This program is part of the open-source Quantum ESPRESSO suite
     for quantum simulation of materials; please cite
         "P. Giannozzi et al., J. Phys.:Condens. Matter 21 395502 (2009);
         "P. Giannozzi et al., J. Phys.:Condens. Matter 29 465901 (2017);
         "P. Giannozzi et al., J. Chem. Phys. 152 154105 (2020);
          URL http://www.quantum-espresso.org", 
     in publications or presentations arising from this work. More details at
     http://www.quantum-espresso.org/quote

     Parallel version (MPI), running on     4 processors

     MPI processes distributed on     1 nodes
     4527 MiB available memory on the printing compute node when the environment starts

     Reading input from scf.in

     Current dimensions of program PWSCF are:
     Max number of different atomic species (ntypx) = 10
     Max number of k-points (npk) =  40000
     Max angular momentum in pseudopotentials (lmaxx) =  4
     Message from routine setup:
     using ibrav=0 with symmetry is DISCOURAGED, use correct ibrav instead

     R & G space division:  proc/nbgrp/npool/nimage =       4
     Subspace diagonalization in iterative solution of the eigenvalue problem:
     a serial algorithm will be used


     Parallelization info
     --------------------
     sticks:   dense  smooth     PW     G-vecs:    dense   smooth      PW
     Min         586     290     87                18826     6641    1070
     Max         587     294     88                18830     6642    1073
     Sum        2347    1165    349                75313    26565    4285

     Using Slab Decomposition



     bravais-lattice index     =            0
     lattice parameter (alat)  =       7.3085  a.u.
     unit-cell volume          =     276.0338 (a.u.)^3
     number of atoms/cell      =            2
     number of atomic types    =            1
     number of electrons       =         8.00
     number of Kohn-Sham states=            8
     kinetic-energy cutoff     =      80.0000  Ry
     charge density cutoff     =     640.0000  Ry
     scf convergence threshold =      1.0E-10
     mixing beta               =       0.7000
     number of iterations used =            8  plain     mixing
     Exchange-correlation= PBE
                           (   1   4   3   4   0   0   0)

     celldm(1)=   7.308458  celldm(2)=   0.000000  celldm(3)=   0.000000
     celldm(4)=   0.000000  celldm(5)=   0.000000  celldm(6)=   0.000000

     crystal axes: (cart. coord. in units of alat)
               a(1) = (  -0.707107   0.000000   0.707107 )  
               a(2) = (   0.000000   0.707107   0.707107 )  
               a(3) = (  -0.707107   0.707107   0.000000 )  

     reciprocal axes: (cart. coord. in units 2 pi/alat)
               b(1) = ( -0.707107 -0.707107  0.707107 )  
               b(2) = (  0.707107  0.707107  0.707107 )  
               b(3) = ( -0.707107  0.707107 -0.707107 )  


     PseudoPot. # 1 for Si read from file:
     ../../pseudo/Si.pbe-n-rrkjus_psl.1.0.0.UPF
     MD5 check sum: fa25574f73a70a4139f2adfbefec430c
     Pseudo is Ultrasoft + core correction, Zval =  4.0
     Generated using &quot;atomic&quot; code by A. Dal Corso  v.6.3
     Using radial grid of 1141 points,  6 beta functions with: 
                l(1) =   0
                l(2) =   0
                l(3) =   1
                l(4) =   1
                l(5) =   2
                l(6) =   2
     Q(r) pseudized with 0 coefficients 


     atomic species   valence    mass     pseudopotential
     Si                4.00    28.08500     Si( 1.00)

     48 Sym. Ops., with inversion, found (24 have fractional translation)



   Cartesian axes

     site n.     atom                  positions (alat units)
         1        Si     tau(   1) = (  -0.0000000   0.0000000   0.0000000  )
         2        Si     tau(   2) = (   0.3535534   0.3535534   0.3535534  )

     number of k points=   256  Marzari-Vanderbilt smearing, width (Ry)=  0.0050

     Number of k-points >= 100: set verbosity='high' to print them.

     Dense  grid:    75313 G-vectors     FFT dimensions: (  60,  60,  60)

     Smooth grid:    26565 G-vectors     FFT dimensions: (  48,  48,  48)

     Estimated max dynamical RAM per process >      97.80 MB

     Estimated total dynamical RAM >     391.21 MB

     Initial potential from superposition of free atoms

     starting charge       7.9989, renormalised to       8.0000
     Starting wfcs are    8 randomized atomic wfcs

     total cpu time spent up to now is        3.6 secs

     per-process dynamical memory:    51.3 Mb

     Self-consistent Calculation

     iteration #  1     ecut=    80.00 Ry     beta= 0.70
     CG style diagonalization
     c_bands:  1 eigenvalues not converged
     ethr =  1.00E-10,  avg # of iterations = 35.5

     total cpu time spent up to now is      116.4 secs

     total energy              =     -22.83796850 Ry
     estimated scf accuracy    <       0.05475389 Ry

     iteration #  2     ecut=    80.00 Ry     beta= 0.70
     CG style diagonalization
     ethr =  6.84E-04,  avg # of iterations =  3.0

     total cpu time spent up to now is      126.3 secs

     total energy              =     -22.84013196 Ry
     estimated scf accuracy    <       0.00210627 Ry

     iteration #  3     ecut=    80.00 Ry     beta= 0.70
     CG style diagonalization
     ethr =  2.63E-05,  avg # of iterations =  3.0

     total cpu time spent up to now is      136.2 secs

     total energy              =     -22.84022266 Ry
     estimated scf accuracy    <       0.00004149 Ry

     iteration #  4     ecut=    80.00 Ry     beta= 0.70
     CG style diagonalization
     ethr =  5.19E-07,  avg # of iterations =  4.3

     total cpu time spent up to now is      150.2 secs

     total energy              =     -22.84025380 Ry
     estimated scf accuracy    <       0.00000466 Ry

     iteration #  5     ecut=    80.00 Ry     beta= 0.70
     CG style diagonalization
     ethr =  5.83E-08,  avg # of iterations =  3.5

     total cpu time spent up to now is      161.6 secs

     total energy              =     -22.84025426 Ry
     estimated scf accuracy    <       0.00000237 Ry

     iteration #  6     ecut=    80.00 Ry     beta= 0.70
     CG style diagonalization
     ethr =  2.96E-08,  avg # of iterations =  3.1

     total cpu time spent up to now is      171.8 secs

     total energy              =     -22.84025459 Ry
     estimated scf accuracy    <       0.00000004 Ry

     iteration #  7     ecut=    80.00 Ry     beta= 0.70
     CG style diagonalization
     ethr =  4.74E-10,  avg # of iterations =  3.8

     total cpu time spent up to now is      184.0 secs

     total energy              =     -22.84025461 Ry
     estimated scf accuracy    <          6.5E-09 Ry

     iteration #  8     ecut=    80.00 Ry     beta= 0.70
     CG style diagonalization
     ethr =  8.11E-11,  avg # of iterations =  3.5

     total cpu time spent up to now is      195.4 secs

     total energy              =     -22.84025461 Ry
     estimated scf accuracy    <          4.2E-09 Ry

     iteration #  9     ecut=    80.00 Ry     beta= 0.70
     CG style diagonalization
     ethr =  5.20E-11,  avg # of iterations =  3.0

     total cpu time spent up to now is      205.3 secs

     End of self-consistent calculation

     Number of k-points >= 100: set verbosity='high' to print the bands.

     the Fermi energy is     6.2964 ev

!    total energy              =     -22.84025461 Ry
     estimated scf accuracy    <          1.1E-11 Ry
     smearing contrib. (-TS)   =       0.00000000 Ry
     internal energy E=F+TS    =     -22.84025461 Ry

     The total energy is F=E-TS. E is the sum of the following terms:
     one-electron contribution =       5.00127935 Ry
     hartree contribution      =       1.11926672 Ry
     xc contribution           =     -12.28295633 Ry
     ewald contribution        =     -16.67784435 Ry

     convergence has been achieved in   9 iterations

     Forces acting on atoms (cartesian axes, Ry/au):

     atom    1 type  1   force =     0.00000000   -0.00000000    0.00000000
     atom    2 type  1   force =     0.00000000    0.00000000   -0.00000000

     Total force =     0.000000     Total SCF correction =     0.000000


     Computing stress (Cartesian axis) and pressure

          total   stress  (Ry/bohr**3)                   (kbar)     P=        0.02
   0.00000011   0.00000000   0.00000000            0.02        0.00        0.00
   0.00000000   0.00000011  -0.00000000            0.00        0.02       -0.00
   0.00000000  -0.00000000   0.00000011            0.00       -0.00        0.02


     Writing all to output data dir ./tmp/si-diamond.save/ :
     XML data file, charge density, pseudopotentials, collected wavefunctions

     init_run     :      3.31s CPU      3.43s WALL (       1 calls)
     electrons    :    193.47s CPU    201.72s WALL (       1 calls)
     forces       :      1.02s CPU      1.06s WALL (       1 calls)
     stress       :      4.49s CPU      4.59s WALL (       1 calls)

     Called by init_run:
     wfcinit      :      2.45s CPU      2.53s WALL (       1 calls)
     potinit      :      0.20s CPU      0.21s WALL (       1 calls)
     hinit0       :      0.31s CPU      0.32s WALL (       1 calls)

     Called by electrons:
     c_bands      :    182.22s CPU    189.61s WALL (       9 calls)
     sum_band     :     10.26s CPU     10.93s WALL (       9 calls)
     v_of_rho     :      0.28s CPU      0.30s WALL (      10 calls)
     newd         :      0.75s CPU      0.96s WALL (      10 calls)
     mix_rho      :      0.03s CPU      0.03s WALL (       9 calls)

     Called by c_bands:
     init_us_2    :      1.76s CPU      1.81s WALL (    5376 calls)
     ccgdiagg     :    163.62s CPU    170.30s WALL (    2304 calls)
     wfcrot       :     19.79s CPU     20.54s WALL (    2304 calls)

     Called by *cgdiagg:
     h_psi        :    127.22s CPU    132.97s WALL (  114450 calls)
     s_psi        :     26.40s CPU     27.19s WALL (  226596 calls)

     Called by h_psi:
     h_psi:calbec :     18.40s CPU     19.37s WALL (  114450 calls)
     vloc_psi     :     94.48s CPU     98.62s WALL (  114450 calls)
                                        0.00s GPU  (  114450 calls)
     add_vuspsi   :     13.56s CPU     14.18s WALL (  114450 calls)
     hs_1psi      :    123.77s CPU    129.15s WALL (  112146 calls)
     s_1psi       :     29.28s CPU     30.18s WALL (  112146 calls)

     General routines
     calbec       :     39.47s CPU     41.08s WALL (  233252 calls)
     fft          :      0.34s CPU      0.37s WALL (     153 calls)
     ffts         :      0.17s CPU      0.17s WALL (      19 calls)
     fftw         :     87.48s CPU     91.38s WALL (  279588 calls)
     interpolate  :      0.18s CPU      0.18s WALL (      10 calls)

     Parallel routines

     PWSCF        :   3m22.53s CPU   3m31.13s WALL


   This run was terminated on:  22:44: 6  22Sep2026            

=------------------------------------------------------------------------------=
   JOB DONE.
=------------------------------------------------------------------------------=
