8
Lattice="5.43 0.0 0.0 0.0 5.43 0.0 0.0 0.0 5.43" Properties=species:S:1:pos:R:3:forces:R:3:energies:R:1 energy=-42.953871918991695 stress="-0.008774392939421453 2.489406054508044e-06 1.2403513396434343e-07 2.489406054508044e-06 -0.008774393050153519 -2.9598544310344245e-06 1.2403513396434343e-07 -2.9598544310344245e-06 -0.008774392818268018" free_energy=-42.953871918991695 pbc="T T T"
Si       0.01251733      -0.00749945       0.00498373      -0.00010529      -0.00002209       0.00013359      -5.36926563
Si       1.36996765       1.34998100       1.36249041       0.00038203       0.00018850       0.00004926      -5.36923540
Si       0.01254228       2.70750124       2.72001006      -0.00059238      -0.00001418      -0.00005972      -5.36921616
Si       1.36998663       4.06500442       4.07751904       0.00017553      -0.00003194      -0.00022163      -5.36925309
Si       2.72748686      -0.00750286       2.72001078       0.00008609       0.00004947      -0.00006966      -5.36922564
Si       4.08499931       1.34997133       4.07754968       0.00006355       0.00028845      -0.00055269      -5.36923180
Si       2.72748754       2.70749965       0.00496683       0.00007597       0.00000927       0.00044625      -5.36922853
Si       4.08501239       4.06504467       1.36246948      -0.00008551      -0.00046748       0.00027460      -5.36921566
