
     Program PWSCF v.7.5 starts on 22Sep2026 at 23:14: 6 

     This program is part of the open-source Quantum ESPRESSO suite
     for quantum simulation of materials; please cite
         "P. Giannozzi et al., J. Phys.:Condens. Matter 21 395502 (2009);
         "P. Giannozzi et al., J. Phys.:Condens. Matter 29 465901 (2017);
         "P. Giannozzi et al., J. Chem. Phys. 152 154105 (2020);
          URL http://www.quantum-espresso.org", 
     in publications or presentations arising from this work. More details at
     http://www.quantum-espresso.org/quote

     Parallel version (MPI), running on     4 processors

     MPI processes distributed on     1 nodes
     2113 MiB available memory on the printing compute node when the environment starts

     Reading input from scf.in

     Current dimensions of program PWSCF are:
     Max number of different atomic species (ntypx) = 10
     Max number of k-points (npk) =  40000
     Max angular momentum in pseudopotentials (lmaxx) =  4
     Message from routine setup:
     using ibrav=0 with symmetry is DISCOURAGED, use correct ibrav instead

     R & G space division:  proc/nbgrp/npool/nimage =       4
     Subspace diagonalization in iterative solution of the eigenvalue problem:
     a serial algorithm will be used


     Parallelization info
     --------------------
     sticks:   dense  smooth     PW     G-vecs:    dense   smooth      PW
     Min         689     342    101                27281     9658    1545
     Max         690     343    102                27283     9663    1548
     Sum        2757    1369    405               109127    38641    6187

     Using Slab Decomposition



     bravais-lattice index     =            0
     lattice parameter (alat)  =       7.3715  a.u.
     unit-cell volume          =     400.5661 (a.u.)^3
     number of atoms/cell      =            4
     number of atomic types    =            2
     number of electrons       =        15.00
     number of Kohn-Sham states=           14
     kinetic-energy cutoff     =      80.0000  Ry
     charge density cutoff     =     640.0000  Ry
     scf convergence threshold =      1.0E-10
     mixing beta               =       0.7000
     number of iterations used =            8  plain     mixing
     Exchange-correlation= PBE
                           (   1   4   3   4   0   0   0)

     celldm(1)=   7.371537  celldm(2)=   0.000000  celldm(3)=   0.000000
     celldm(4)=   0.000000  celldm(5)=   0.000000  celldm(6)=   0.000000

     crystal axes: (cart. coord. in units of alat)
               a(1) = (   1.000000   0.000000   0.000000 )  
               a(2) = (   0.000000   1.000000   0.000000 )  
               a(3) = (   0.000000   0.000000   1.000000 )  

     reciprocal axes: (cart. coord. in units 2 pi/alat)
               b(1) = (  1.000000  0.000000  0.000000 )  
               b(2) = (  0.000000  1.000000  0.000000 )  
               b(3) = (  0.000000  0.000000  1.000000 )  


     PseudoPot. # 1 for Al read from file:
     ../../pseudo/Al.pbe-n-rrkjus_psl.1.0.0.UPF
     MD5 check sum: bbe9f3f15d9b3b5ab9a58e4859ebdbfe
     Pseudo is Ultrasoft + core correction, Zval =  3.0
     Generated using &quot;atomic&quot; code by A. Dal Corso  v.6.3
     Using radial grid of 1135 points,  6 beta functions with: 
                l(1) =   0
                l(2) =   0
                l(3) =   1
                l(4) =   1
                l(5) =   2
                l(6) =   2
     Q(r) pseudized with 0 coefficients 


     PseudoPot. # 2 for Si read from file:
     ../../pseudo/Si.pbe-n-rrkjus_psl.1.0.0.UPF
     MD5 check sum: fa25574f73a70a4139f2adfbefec430c
     Pseudo is Ultrasoft + core correction, Zval =  4.0
     Generated using &quot;atomic&quot; code by A. Dal Corso  v.6.3
     Using radial grid of 1141 points,  6 beta functions with: 
                l(1) =   0
                l(2) =   0
                l(3) =   1
                l(4) =   1
                l(5) =   2
                l(6) =   2
     Q(r) pseudized with 0 coefficients 


     atomic species   valence    mass     pseudopotential
     Al                3.00    26.98154     Al( 1.00)
     Si                4.00    28.08500     Si( 1.00)

     48 Sym. Ops., with inversion, found



   Cartesian axes

     site n.     atom                  positions (alat units)
         1        Al     tau(   1) = (   0.0000000   0.0000000   0.0000000  )
         2        Si     tau(   2) = (   0.0000000   0.5000000   0.5000000  )
         3        Si     tau(   3) = (   0.5000000   0.0000000   0.5000000  )
         4        Si     tau(   4) = (   0.5000000   0.5000000   0.0000000  )

     number of k points=   286  Marzari-Vanderbilt smearing, width (Ry)=  0.0050

     Number of k-points >= 100: set verbosity='high' to print them.

     Dense  grid:   109127 G-vectors     FFT dimensions: (  60,  60,  60)

     Smooth grid:    38641 G-vectors     FFT dimensions: (  45,  45,  45)

     Estimated max dynamical RAM per process >     178.99 MB

     Estimated total dynamical RAM >     715.97 MB

     The initial density is read from file :
     ./tmp/alsi3-l12.save/charge-density

     Starting wfcs are   16 randomized atomic wfcs

     total cpu time spent up to now is       12.2 secs

     per-process dynamical memory:   109.0 Mb

     Self-consistent Calculation

     iteration #  1     ecut=    80.00 Ry     beta= 0.70
     CG style diagonalization
     ethr =  1.00E-06,  avg # of iterations = 21.2

     Threshold (ethr) on eigenvalues was too large:
     Diagonalizing with lowered threshold

     CG style diagonalization
     ethr =  1.20E-10,  avg # of iterations = 12.9

     total cpu time spent up to now is      432.7 secs

     End of self-consistent calculation

     Number of k-points >= 100: set verbosity='high' to print the bands.

     the Fermi energy is    10.0753 ev

!    total energy              =     -39.19242749 Ry
     estimated scf accuracy    <          8.3E-12 Ry
     smearing contrib. (-TS)   =       0.00001249 Ry
     internal energy E=F+TS    =     -39.19243998 Ry

     The total energy is F=E-TS. E is the sum of the following terms:
     one-electron contribution =      16.87492619 Ry
     hartree contribution      =       0.28589518 Ry
     xc contribution           =     -21.13814003 Ry
     ewald contribution        =     -35.21512132 Ry

     convergence has been achieved in   1 iterations

     Forces acting on atoms (cartesian axes, Ry/au):

     atom    1 type  1   force =     0.00000000    0.00000000    0.00000000
     atom    2 type  2   force =     0.00000000    0.00000000    0.00000000
     atom    3 type  2   force =     0.00000000    0.00000000    0.00000000
     atom    4 type  2   force =     0.00000000    0.00000000    0.00000000

     Total force =     0.000000     Total SCF correction =     0.000000


     Computing stress (Cartesian axis) and pressure

          total   stress  (Ry/bohr**3)                   (kbar)     P=       -1.18
  -0.00000803   0.00000000   0.00000000           -1.18        0.00        0.00
   0.00000000  -0.00000803   0.00000000            0.00       -1.18        0.00
   0.00000000   0.00000000  -0.00000803            0.00        0.00       -1.18


     Writing all to output data dir ./tmp/alsi3-l12.save/ :
     XML data file, charge density, pseudopotentials, collected wavefunctions

     init_run     :     11.51s CPU     11.93s WALL (       1 calls)
     electrons    :    409.94s CPU    420.43s WALL (       1 calls)
     forces       :      5.05s CPU      5.15s WALL (       1 calls)
     stress       :     19.19s CPU     19.42s WALL (       1 calls)

     Called by init_run:
     wfcinit      :     10.55s CPU     10.83s WALL (       1 calls)
     potinit      :      0.11s CPU      0.12s WALL (       1 calls)
     hinit0       :      0.50s CPU      0.54s WALL (       1 calls)

     Called by electrons:
     c_bands      :    402.91s CPU    413.01s WALL (       2 calls)
     sum_band     :      6.76s CPU      7.09s WALL (       2 calls)
     v_of_rho     :      0.08s CPU      0.08s WALL (       2 calls)
     newd         :      0.48s CPU      0.64s WALL (       2 calls)
     mix_rho      :      0.00s CPU      0.00s WALL (       2 calls)

     Called by c_bands:
     init_us_2    :      1.79s CPU      1.81s WALL (    2002 calls)
     ccgdiagg     :    402.30s CPU    412.39s WALL (     572 calls)
     wfcrot       :      9.74s CPU     10.01s WALL (     286 calls)

     Called by *cgdiagg:
     h_psi        :    246.78s CPU    255.31s WALL (  136796 calls)
     s_psi        :     76.65s CPU     77.70s WALL (  273306 calls)

     Called by h_psi:
     h_psi:calbec :     60.67s CPU     62.59s WALL (  136796 calls)
     vloc_psi     :    137.68s CPU    143.01s WALL (  136796 calls)
                                        0.00s GPU  (  136796 calls)
     add_vuspsi   :     46.89s CPU     48.19s WALL (  136796 calls)
     hs_1psi      :    277.66s CPU    286.51s WALL (  136510 calls)
     s_1psi       :     94.23s CPU     95.11s WALL (  136510 calls)

     General routines
     calbec       :    134.50s CPU    137.17s WALL (  278740 calls)
     fft          :      0.28s CPU      0.32s WALL (      50 calls)
     ffts         :      0.07s CPU      0.07s WALL (       4 calls)
     fftw         :    123.07s CPU    128.03s WALL (  290180 calls)
     interpolate  :      0.07s CPU      0.07s WALL (       2 calls)

     Parallel routines

     PWSCF        :   7m26.21s CPU   7m37.68s WALL


   This run was terminated on:  23:21:44  22Sep2026            

=------------------------------------------------------------------------------=
   JOB DONE.
=------------------------------------------------------------------------------=
