
     Program PWSCF v.7.5 starts on 22Sep2026 at 23:54:34 

     This program is part of the open-source Quantum ESPRESSO suite
     for quantum simulation of materials; please cite
         "P. Giannozzi et al., J. Phys.:Condens. Matter 21 395502 (2009);
         "P. Giannozzi et al., J. Phys.:Condens. Matter 29 465901 (2017);
         "P. Giannozzi et al., J. Chem. Phys. 152 154105 (2020);
          URL http://www.quantum-espresso.org", 
     in publications or presentations arising from this work. More details at
     http://www.quantum-espresso.org/quote

     Parallel version (MPI), running on     8 processors

     MPI processes distributed on     1 nodes
     1698 MiB available memory on the printing compute node when the environment starts
 
     Reading input from mos2.relax.in

     Current dimensions of program PWSCF are:
     Max number of different atomic species (ntypx) = 10
     Max number of k-points (npk) =  40000
     Max angular momentum in pseudopotentials (lmaxx) =  4
     file Mo.pbe-spn-rrkjus_psl.1.0.0.UPF: wavefunction(s)  4S renormalized
     Message from routine setup:
     using ibrav=0 with symmetry is DISCOURAGED, use correct ibrav instead
 
     R & G space division:  proc/nbgrp/npool/nimage =       8
     Subspace diagonalization in iterative solution of the eigenvalue problem:
     a serial algorithm will be used

 
     Parallelization info
     --------------------
     sticks:   dense  smooth     PW     G-vecs:    dense   smooth      PW
     Min         149      74     22                30595    10816    1748
     Max         150      75     24                30618    10837    1750
     Sum        1197     595    187               244813    86579   13991
 
     Using Slab Decomposition
 


     bravais-lattice index     =            0
     lattice parameter (alat)  =       6.0446  a.u.
     unit-cell volume          =    1379.7267 (a.u.)^3
     number of atoms/cell      =            3
     number of atomic types    =            2
     number of electrons       =        26.00
     number of Kohn-Sham states=           16
     kinetic-energy cutoff     =      60.0000  Ry
     charge density cutoff     =     480.0000  Ry
     scf convergence threshold =      1.0E-12
     mixing beta               =       0.3000
     number of iterations used =            8  plain     mixing
     energy convergence thresh.=      1.0E-08
     force convergence thresh. =      1.0E-05
     Exchange-correlation= PBE
                           (   1   4   3   4   0   0   0)
     nstep                     =           40


     celldm(1)=   6.044557  celldm(2)=   0.000000  celldm(3)=   0.000000
     celldm(4)=   0.000000  celldm(5)=   0.000000  celldm(6)=   0.000000

     crystal axes: (cart. coord. in units of alat)
               a(1) = (   1.000000   0.000000   0.000000 )  
               a(2) = (  -0.500000   0.861717   0.000000 )  
               a(3) = (   0.000000   0.000000   7.249953 )  

     reciprocal axes: (cart. coord. in units 2 pi/alat)
               b(1) = (  1.000000  0.580237  0.000000 )  
               b(2) = (  0.000000  1.160474  0.000000 )  
               b(3) = (  0.000000  0.000000  0.137932 )  


     PseudoPot. # 1 for Mo read from file:
     ../pseudo/Mo.pbe-spn-rrkjus_psl.1.0.0.UPF
     MD5 check sum: 03f09b12e49601d1a456a78ce8b2d514
     Pseudo is Ultrasoft + core correction, Zval = 14.0
     Generated using &quot;atomic&quot; code by A. Dal Corso  v.6.3
     Using radial grid of 1229 points,  6 beta functions with: 
                l(1) =   0
                l(2) =   0
                l(3) =   1
                l(4) =   1
                l(5) =   2
                l(6) =   2
     Q(r) pseudized with 0 coefficients 


     PseudoPot. # 2 for S  read from file:
     ../pseudo/S.pbe-n-rrkjus_psl.1.0.0.UPF
     MD5 check sum: 9d0fe39aa2a799ea84730884c9b010f4
     Pseudo is Ultrasoft + core correction, Zval =  6.0
     Generated using &quot;atomic&quot; code by A. Dal Corso  v.6.3
     Using radial grid of 1151 points,  6 beta functions with: 
                l(1) =   0
                l(2) =   0
                l(3) =   1
                l(4) =   1
                l(5) =   2
                l(6) =   2
     Q(r) pseudized with 0 coefficients 


     atomic species   valence    mass     pseudopotential
     Mo               14.00    95.95000     Mo( 1.00)
     S                 6.00    32.06000     S ( 1.00)

      4 Sym. Ops. (no inversion) found


                                    s                        frac. trans.

      isym =  1     identity                                     

 cryst.   s( 1) = (     1          0          0      )
                  (     0          1          0      )
                  (     0          0          1      )

 cart.    s( 1) = (  1.0000000  0.0000000  0.0000000 )
                  (  0.0000000  1.0000000  0.0000000 )
                  (  0.0000000  0.0000000  1.0000000 )


      isym =  2     180 deg rotation - cart. axis [0,1,0]        

 cryst.   s( 2) = (    -1          0          0      )
                  (     1          1          0      )
                  (     0          0         -1      )

 cart.    s( 2) = ( -1.0000000  0.0000000  0.0000000 )
                  (  0.0000000  1.0000000  0.0000000 )
                  (  0.0000000  0.0000000 -1.0000000 )


      isym =  3     inv. 180 deg rotation - cart. axis [0,0,1]   

 cryst.   s( 3) = (     1          0          0      )
                  (     0          1          0      )
                  (     0          0         -1      )

 cart.    s( 3) = (  1.0000000  0.0000000  0.0000000 )
                  (  0.0000000  1.0000000  0.0000000 )
                  (  0.0000000  0.0000000 -1.0000000 )


      isym =  4     inv. 180 deg rotation - cart. axis [1,0,0]   

 cryst.   s( 4) = (    -1          0          0      )
                  (     1          1          0      )
                  (     0          0          1      )

 cart.    s( 4) = ( -1.0000000  0.0000000  0.0000000 )
                  (  0.0000000  1.0000000  0.0000000 )
                  (  0.0000000  0.0000000  1.0000000 )


   Cartesian axes

     site n.     atom                  positions (alat units)
         1        Mo     tau(   1) = (   0.0000000   0.0000000   3.6249763  )
         2        S      tau(   2) = (   0.5000000   0.2872389   4.1142169  )
         3        S      tau(   3) = (   0.5000000   0.2872389   3.1357357  )

   Crystallographic axes

     site n.     atom                  positions (cryst. coord.)
         1        Mo     tau(   1) = (  0.0000000  0.0000000  0.5000000  )
         2        S      tau(   2) = (  0.6666667  0.3333333  0.5674819  )
         3        S      tau(   3) = (  0.6666667  0.3333333  0.4325181  )

     number of k points=    43
                       cart. coord. in units 2pi/alat
        k(    1) = (   0.0000000   0.0000000   0.0000000), wk =   0.0138889
        k(    2) = (   0.0000000   0.0967062   0.0000000), wk =   0.0277778
        k(    3) = (   0.0000000   0.1934123   0.0000000), wk =   0.0277778
        k(    4) = (   0.0000000   0.2901185   0.0000000), wk =   0.0277778
        k(    5) = (   0.0000000   0.3868247   0.0000000), wk =   0.0277778
        k(    6) = (   0.0000000   0.4835309   0.0000000), wk =   0.0277778
        k(    7) = (   0.0000000  -0.5802370   0.0000000), wk =   0.0138889
        k(    8) = (   0.0833333   0.0483531   0.0000000), wk =   0.0555556
        k(    9) = (   0.0833333   0.1450593   0.0000000), wk =   0.0555556
        k(   10) = (   0.0833333   0.2417654   0.0000000), wk =   0.0555556
        k(   11) = (   0.0833333   0.3384716   0.0000000), wk =   0.0555556
        k(   12) = (   0.0833333   0.4351778   0.0000000), wk =   0.0555556
        k(   13) = (   0.0833333   0.5318839   0.0000000), wk =   0.0555556
        k(   14) = (   0.1666667   0.0967062   0.0000000), wk =   0.0555556
        k(   15) = (   0.1666667   0.1934123   0.0000000), wk =   0.0555556
        k(   16) = (   0.1666667   0.2901185   0.0000000), wk =   0.0555556
        k(   17) = (   0.1666667   0.3868247   0.0000000), wk =   0.0555556
        k(   18) = (   0.1666667   0.4835309   0.0000000), wk =   0.0555556
        k(   19) = (   0.1666667   0.5802370   0.0000000), wk =   0.0277778
        k(   20) = (   0.1666667  -0.0000000   0.0000000), wk =   0.0277778
        k(   21) = (   0.2500000   0.1450593   0.0000000), wk =   0.0555556
        k(   22) = (   0.2500000   0.2417654   0.0000000), wk =   0.0555556
        k(   23) = (   0.2500000   0.3384716   0.0000000), wk =   0.0555556
        k(   24) = (   0.2500000   0.4351778   0.0000000), wk =   0.0555556
        k(   25) = (   0.2500000   0.5318839   0.0000000), wk =   0.0555556
        k(   26) = (   0.2500000  -0.0483531   0.0000000), wk =   0.0555556
        k(   27) = (   0.3333333   0.1934123   0.0000000), wk =   0.0555556
        k(   28) = (   0.3333333   0.2901185   0.0000000), wk =   0.0555556
        k(   29) = (   0.3333333   0.3868247   0.0000000), wk =   0.0555556
        k(   30) = (   0.3333333   0.4835309   0.0000000), wk =   0.0555556
        k(   31) = (   0.3333333   0.5802370   0.0000000), wk =   0.0277778
        k(   32) = (   0.3333333  -0.0967062   0.0000000), wk =   0.0555556
        k(   33) = (   0.3333333  -0.0000000   0.0000000), wk =   0.0277778
        k(   34) = (   0.4166667   0.2417654   0.0000000), wk =   0.0555556
        k(   35) = (   0.4166667   0.3384716   0.0000000), wk =   0.0555556
        k(   36) = (   0.4166667   0.4351778   0.0000000), wk =   0.0555556
        k(   37) = (   0.4166667   0.5318839   0.0000000), wk =   0.0555556
        k(   38) = (   0.4166667  -0.1450593   0.0000000), wk =   0.0555556
        k(   39) = (   0.4166667  -0.0483531   0.0000000), wk =   0.0555556
        k(   40) = (  -0.5000000  -0.2901185   0.0000000), wk =   0.0277778
        k(   41) = (  -0.5000000  -0.1934123   0.0000000), wk =   0.0555556
        k(   42) = (  -0.5000000  -0.0967062   0.0000000), wk =   0.0555556
        k(   43) = (  -0.5000000   0.0000000   0.0000000), wk =   0.0277778

                       cryst. coord.
        k(    1) = (   0.0000000   0.0000000   0.0000000), wk =   0.0138889
        k(    2) = (   0.0000000   0.0833333   0.0000000), wk =   0.0277778
        k(    3) = (   0.0000000   0.1666667   0.0000000), wk =   0.0277778
        k(    4) = (   0.0000000   0.2500000   0.0000000), wk =   0.0277778
        k(    5) = (   0.0000000   0.3333333   0.0000000), wk =   0.0277778
        k(    6) = (   0.0000000   0.4166667   0.0000000), wk =   0.0277778
        k(    7) = (   0.0000000  -0.5000000   0.0000000), wk =   0.0138889
        k(    8) = (   0.0833333   0.0000000   0.0000000), wk =   0.0555556
        k(    9) = (   0.0833333   0.0833333   0.0000000), wk =   0.0555556
        k(   10) = (   0.0833333   0.1666667   0.0000000), wk =   0.0555556
        k(   11) = (   0.0833333   0.2500000   0.0000000), wk =   0.0555556
        k(   12) = (   0.0833333   0.3333333   0.0000000), wk =   0.0555556
        k(   13) = (   0.0833333   0.4166667   0.0000000), wk =   0.0555556
        k(   14) = (   0.1666667   0.0000000   0.0000000), wk =   0.0555556
        k(   15) = (   0.1666667   0.0833333   0.0000000), wk =   0.0555556
        k(   16) = (   0.1666667   0.1666667   0.0000000), wk =   0.0555556
        k(   17) = (   0.1666667   0.2500000   0.0000000), wk =   0.0555556
        k(   18) = (   0.1666667   0.3333333   0.0000000), wk =   0.0555556
        k(   19) = (   0.1666667   0.4166667   0.0000000), wk =   0.0277778
        k(   20) = (   0.1666667  -0.0833333   0.0000000), wk =   0.0277778
        k(   21) = (   0.2500000   0.0000000   0.0000000), wk =   0.0555556
        k(   22) = (   0.2500000   0.0833333   0.0000000), wk =   0.0555556
        k(   23) = (   0.2500000   0.1666667   0.0000000), wk =   0.0555556
        k(   24) = (   0.2500000   0.2500000   0.0000000), wk =   0.0555556
        k(   25) = (   0.2500000   0.3333333   0.0000000), wk =   0.0555556
        k(   26) = (   0.2500000  -0.1666667   0.0000000), wk =   0.0555556
        k(   27) = (   0.3333333   0.0000000   0.0000000), wk =   0.0555556
        k(   28) = (   0.3333333   0.0833333   0.0000000), wk =   0.0555556
        k(   29) = (   0.3333333   0.1666667   0.0000000), wk =   0.0555556
        k(   30) = (   0.3333333   0.2500000   0.0000000), wk =   0.0555556
        k(   31) = (   0.3333333   0.3333333   0.0000000), wk =   0.0277778
        k(   32) = (   0.3333333  -0.2500000   0.0000000), wk =   0.0555556
        k(   33) = (   0.3333333  -0.1666667   0.0000000), wk =   0.0277778
        k(   34) = (   0.4166667   0.0000000   0.0000000), wk =   0.0555556
        k(   35) = (   0.4166667   0.0833333   0.0000000), wk =   0.0555556
        k(   36) = (   0.4166667   0.1666667   0.0000000), wk =   0.0555556
        k(   37) = (   0.4166667   0.2500000   0.0000000), wk =   0.0555556
        k(   38) = (   0.4166667  -0.3333333   0.0000000), wk =   0.0555556
        k(   39) = (   0.4166667  -0.2500000   0.0000000), wk =   0.0555556
        k(   40) = (  -0.5000000   0.0000000   0.0000000), wk =   0.0277778
        k(   41) = (  -0.5000000   0.0833333   0.0000000), wk =   0.0555556
        k(   42) = (  -0.5000000   0.1666667   0.0000000), wk =   0.0555556
        k(   43) = (  -0.5000000   0.2500000   0.0000000), wk =   0.0277778

     Dense  grid:   244813 G-vectors     FFT dimensions: (  45,  45, 320)

     Smooth grid:    86579 G-vectors     FFT dimensions: (  30,  30, 225)

     Dynamical RAM for                 wfc:       0.33 MB

     Dynamical RAM for     wfc (w. buffer):      14.53 MB

     Dynamical RAM for           str. fact:       0.93 MB

     Dynamical RAM for           local pot:       0.00 MB

     Dynamical RAM for          nlocal pot:       1.11 MB

     Dynamical RAM for                qrad:       3.52 MB

     Dynamical RAM for          rho,v,vnew:       3.25 MB

     Dynamical RAM for               rhoin:       1.08 MB

     Dynamical RAM for            rho*nmix:       7.47 MB

     Dynamical RAM for           G-vectors:       1.83 MB

     Dynamical RAM for          h,s,v(r/c):       0.01 MB

     Dynamical RAM for          <psi|beta>:       0.01 MB

     Dynamical RAM for      wfcinit/wfcrot:       0.67 MB

     Dynamical RAM for           addusdens:      87.77 MB

     Dynamical RAM for          addusforce:      88.95 MB

     Dynamical RAM for         addusstress:      93.84 MB

     Estimated static dynamical RAM per process >      30.76 MB

     Estimated max dynamical RAM per process >     132.07 MB

     Estimated total dynamical RAM >       1.03 GB

     Initial potential from superposition of free atoms

     starting charge      25.9991, renormalised to      26.0000

     negative rho (up, down):  3.301E-04 0.000E+00
     Starting wfcs are   18 randomized atomic wfcs

     total cpu time spent up to now is        1.6 secs

     Self-consistent Calculation

     iteration #  1     ecut=    60.00 Ry     beta= 0.30
     CG style diagonalization

---- Real-time Memory Report at c_bands before calling an iterative solver
           160 MiB given to the printing process from OS
             0 MiB allocation reported by mallinfo(arena+hblkhd)
          1772 MiB available memory on the node where the printing process lives
------------------
     c_bands:  2 eigenvalues not converged
     c_bands:  1 eigenvalues not converged
     c_bands:  1 eigenvalues not converged
     c_bands:  1 eigenvalues not converged
     c_bands:  1 eigenvalues not converged
     ethr =  1.00E-10,  avg # of iterations = 35.7

     negative rho (up, down):  3.510E-04 0.000E+00

     total cpu time spent up to now is       65.1 secs

     total energy              =    -181.56874703 Ry
     estimated scf accuracy    <       0.11684507 Ry

     iteration #  2     ecut=    60.00 Ry     beta= 0.30
     CG style diagonalization

---- Real-time Memory Report at c_bands before calling an iterative solver
           190 MiB given to the printing process from OS
             0 MiB allocation reported by mallinfo(arena+hblkhd)
          2082 MiB available memory on the node where the printing process lives
------------------
     ethr =  4.49E-04,  avg # of iterations =  3.5

     negative rho (up, down):  3.638E-04 0.000E+00

     total cpu time spent up to now is       71.9 secs

     total energy              =    -181.57491777 Ry
     estimated scf accuracy    <       0.03125238 Ry

     iteration #  3     ecut=    60.00 Ry     beta= 0.30
     CG style diagonalization

---- Real-time Memory Report at c_bands before calling an iterative solver
           191 MiB given to the printing process from OS
             0 MiB allocation reported by mallinfo(arena+hblkhd)
          3178 MiB available memory on the node where the printing process lives
------------------
     ethr =  1.20E-04,  avg # of iterations =  3.3

     negative rho (up, down):  3.734E-04 0.000E+00

     total cpu time spent up to now is       78.8 secs

     total energy              =    -181.57855681 Ry
     estimated scf accuracy    <       0.00992208 Ry

     iteration #  4     ecut=    60.00 Ry     beta= 0.30
     CG style diagonalization

---- Real-time Memory Report at c_bands before calling an iterative solver
           191 MiB given to the printing process from OS
             0 MiB allocation reported by mallinfo(arena+hblkhd)
          1494 MiB available memory on the node where the printing process lives
------------------
     ethr =  3.82E-05,  avg # of iterations =  3.5

     negative rho (up, down):  3.859E-04 0.000E+00

     total cpu time spent up to now is       86.0 secs

     total energy              =    -181.57920467 Ry
     estimated scf accuracy    <       0.00190186 Ry

     iteration #  5     ecut=    60.00 Ry     beta= 0.30
     CG style diagonalization

---- Real-time Memory Report at c_bands before calling an iterative solver
           191 MiB given to the printing process from OS
             0 MiB allocation reported by mallinfo(arena+hblkhd)
          1877 MiB available memory on the node where the printing process lives
------------------
     ethr =  7.31E-06,  avg # of iterations =  3.9

     negative rho (up, down):  3.845E-04 0.000E+00

     total cpu time spent up to now is       94.6 secs

     total energy              =    -181.57943403 Ry
     estimated scf accuracy    <       0.00120871 Ry

     iteration #  6     ecut=    60.00 Ry     beta= 0.30
     CG style diagonalization

---- Real-time Memory Report at c_bands before calling an iterative solver
           192 MiB given to the printing process from OS
             0 MiB allocation reported by mallinfo(arena+hblkhd)
          1996 MiB available memory on the node where the printing process lives
------------------
     ethr =  4.65E-06,  avg # of iterations =  3.2

     negative rho (up, down):  3.837E-04 0.000E+00

     total cpu time spent up to now is      101.1 secs

     total energy              =    -181.57953881 Ry
     estimated scf accuracy    <       0.00005669 Ry

     iteration #  7     ecut=    60.00 Ry     beta= 0.30
     CG style diagonalization

---- Real-time Memory Report at c_bands before calling an iterative solver
           192 MiB given to the printing process from OS
             0 MiB allocation reported by mallinfo(arena+hblkhd)
          2202 MiB available memory on the node where the printing process lives
------------------
     ethr =  2.18E-07,  avg # of iterations =  4.9

     negative rho (up, down):  3.842E-04 0.000E+00

     total cpu time spent up to now is      110.6 secs

     total energy              =    -181.57958275 Ry
     estimated scf accuracy    <       0.00012494 Ry

     iteration #  8     ecut=    60.00 Ry     beta= 0.30
     CG style diagonalization

---- Real-time Memory Report at c_bands before calling an iterative solver
           193 MiB given to the printing process from OS
             0 MiB allocation reported by mallinfo(arena+hblkhd)
          2403 MiB available memory on the node where the printing process lives
------------------
     ethr =  2.18E-07,  avg # of iterations =  3.1

     negative rho (up, down):  3.847E-04 0.000E+00

     total cpu time spent up to now is      116.9 secs

     total energy              =    -181.57957510 Ry
     estimated scf accuracy    <       0.00004656 Ry

     iteration #  9     ecut=    60.00 Ry     beta= 0.30
     CG style diagonalization

---- Real-time Memory Report at c_bands before calling an iterative solver
           193 MiB given to the printing process from OS
             0 MiB allocation reported by mallinfo(arena+hblkhd)
          2504 MiB available memory on the node where the printing process lives
------------------
     ethr =  1.79E-07,  avg # of iterations =  3.5

     negative rho (up, down):  3.852E-04 0.000E+00

     total cpu time spent up to now is      123.9 secs

     total energy              =    -181.57958028 Ry
     estimated scf accuracy    <       0.00000104 Ry

     iteration # 10     ecut=    60.00 Ry     beta= 0.30
     CG style diagonalization

---- Real-time Memory Report at c_bands before calling an iterative solver
           193 MiB given to the printing process from OS
             0 MiB allocation reported by mallinfo(arena+hblkhd)
          2565 MiB available memory on the node where the printing process lives
------------------
     ethr =  3.98E-09,  avg # of iterations =  4.8

     negative rho (up, down):  3.857E-04 0.000E+00

     total cpu time spent up to now is      133.3 secs

     total energy              =    -181.57958115 Ry
     estimated scf accuracy    <       0.00000022 Ry

     iteration # 11     ecut=    60.00 Ry     beta= 0.30
     CG style diagonalization

---- Real-time Memory Report at c_bands before calling an iterative solver
           193 MiB given to the printing process from OS
             0 MiB allocation reported by mallinfo(arena+hblkhd)
          1849 MiB available memory on the node where the printing process lives
------------------
     ethr =  8.36E-10,  avg # of iterations =  3.4

     negative rho (up, down):  3.860E-04 0.000E+00

     total cpu time spent up to now is      140.2 secs

     total energy              =    -181.57958111 Ry
     estimated scf accuracy    <       0.00000009 Ry

     iteration # 12     ecut=    60.00 Ry     beta= 0.30
     CG style diagonalization

---- Real-time Memory Report at c_bands before calling an iterative solver
           193 MiB given to the printing process from OS
             0 MiB allocation reported by mallinfo(arena+hblkhd)
          2198 MiB available memory on the node where the printing process lives
------------------
     ethr =  3.58E-10,  avg # of iterations =  4.7

     negative rho (up, down):  3.863E-04 0.000E+00

     total cpu time spent up to now is      149.3 secs

     total energy              =    -181.57958110 Ry
     estimated scf accuracy    <       0.00000055 Ry

     iteration # 13     ecut=    60.00 Ry     beta= 0.30
     CG style diagonalization

---- Real-time Memory Report at c_bands before calling an iterative solver
           193 MiB given to the printing process from OS
             0 MiB allocation reported by mallinfo(arena+hblkhd)
          2122 MiB available memory on the node where the printing process lives
------------------
     ethr =  3.58E-10,  avg # of iterations =  4.2

     negative rho (up, down):  3.865E-04 0.000E+00

     total cpu time spent up to now is      157.6 secs

     total energy              =    -181.57958117 Ry
     estimated scf accuracy    <          8.3E-10 Ry

     iteration # 14     ecut=    60.00 Ry     beta= 0.30
     CG style diagonalization

---- Real-time Memory Report at c_bands before calling an iterative solver
           194 MiB given to the printing process from OS
             0 MiB allocation reported by mallinfo(arena+hblkhd)
          1664 MiB available memory on the node where the printing process lives
------------------
     ethr =  3.19E-12,  avg # of iterations =  5.7

     negative rho (up, down):  3.866E-04 0.000E+00

     total cpu time spent up to now is      168.8 secs

     total energy              =    -181.57958116 Ry
     estimated scf accuracy    <          1.7E-09 Ry

     iteration # 15     ecut=    60.00 Ry     beta= 0.30
     CG style diagonalization

---- Real-time Memory Report at c_bands before calling an iterative solver
           194 MiB given to the printing process from OS
             0 MiB allocation reported by mallinfo(arena+hblkhd)
          1528 MiB available memory on the node where the printing process lives
------------------
     ethr =  3.19E-12,  avg # of iterations =  4.4

     negative rho (up, down):  3.867E-04 0.000E+00

     total cpu time spent up to now is      177.5 secs

     total energy              =    -181.57958117 Ry
     estimated scf accuracy    <          9.8E-10 Ry

     iteration # 16     ecut=    60.00 Ry     beta= 0.30
     CG style diagonalization

---- Real-time Memory Report at c_bands before calling an iterative solver
           194 MiB given to the printing process from OS
             0 MiB allocation reported by mallinfo(arena+hblkhd)
          1701 MiB available memory on the node where the printing process lives
------------------
     ethr =  3.19E-12,  avg # of iterations =  3.1

     negative rho (up, down):  3.868E-04 0.000E+00

     total cpu time spent up to now is      184.4 secs

     total energy              =    -181.57958117 Ry
     estimated scf accuracy    <          1.8E-10 Ry

     iteration # 17     ecut=    60.00 Ry     beta= 0.30
     CG style diagonalization

---- Real-time Memory Report at c_bands before calling an iterative solver
           194 MiB given to the printing process from OS
             0 MiB allocation reported by mallinfo(arena+hblkhd)
          1663 MiB available memory on the node where the printing process lives
------------------
     ethr =  6.84E-13,  avg # of iterations =  4.0

     negative rho (up, down):  3.869E-04 0.000E+00

     total cpu time spent up to now is      192.9 secs

     total energy              =    -181.57958117 Ry
     estimated scf accuracy    <          1.8E-11 Ry

     iteration # 18     ecut=    60.00 Ry     beta= 0.30
     CG style diagonalization

---- Real-time Memory Report at c_bands before calling an iterative solver
           194 MiB given to the printing process from OS
             0 MiB allocation reported by mallinfo(arena+hblkhd)
          1794 MiB available memory on the node where the printing process lives
------------------
     ethr =  1.00E-13,  avg # of iterations =  3.8

     negative rho (up, down):  3.870E-04 0.000E+00

     total cpu time spent up to now is      201.1 secs

     End of self-consistent calculation

          k = 0.0000 0.0000 0.0000 ( 10891 PWs)   bands (ev):

   -62.5695 -36.7053 -36.5108 -36.5035 -15.7236 -14.4325  -7.2473  -4.3000
    -4.2445  -3.4311  -3.1836  -3.1655  -1.6696   1.0433   1.0856   1.2865

     occupation numbers 
     1.0000   1.0000   1.0000   1.0000   1.0000   1.0000   1.0000   1.0000
     1.0000   1.0000   1.0000   1.0000   1.0000   0.0000   0.0000   0.0000

          k = 0.0000 0.0967 0.0000 ( 10887 PWs)   bands (ev):

   -62.5671 -36.7004 -36.5285 -36.5166 -15.6220 -14.3902  -7.1307  -4.4748
    -4.1937  -3.9166  -3.3479  -2.8348  -1.7213   0.9468   1.0511   1.1715

     occupation numbers 
     1.0000   1.0000   1.0000   1.0000   1.0000   1.0000   1.0000   1.0000
     1.0000   1.0000   1.0000   1.0000   1.0000   0.0000   0.0000   0.0000

          k = 0.0000 0.1934 0.0000 ( 10879 PWs)   bands (ev):

   -62.5603 -36.6871 -36.5963 -36.5323 -15.3330 -14.2699  -6.8374  -5.0030
    -4.5559  -3.8976  -3.7347  -2.7451  -1.9531   0.6253   0.8836   0.9046

     occupation numbers 
     1.0000   1.0000   1.0000   1.0000   1.0000   1.0000   1.0000   1.0000
     1.0000   1.0000   1.0000   1.0000   1.0000   0.0000   0.0000   0.0000

          k = 0.0000 0.2901 0.0000 ( 10879 PWs)   bands (ev):

   -62.5512 -36.6877 -36.6688 -36.5537 -14.9057 -14.0930  -6.6258  -5.4528
    -5.2084  -4.1678  -3.4834  -2.9871  -2.3784   0.4962   0.6411   1.2014

     occupation numbers 
     1.0000   1.0000   1.0000   1.0000   1.0000   1.0000   1.0000   1.0000
     1.0000   1.0000   1.0000   1.0000   1.0000   0.0000   0.0000   0.0000

          k = 0.0000 0.3868 0.0000 ( 10849 PWs)   bands (ev):

   -62.5420 -36.7778 -36.6504 -36.5750 -14.4272 -13.8986  -6.8688  -5.8146
    -5.5420  -4.5319  -3.2807  -3.0704  -2.6240   0.5032   0.6535   1.6874

     occupation numbers 
     1.0000   1.0000   1.0000   1.0000   1.0000   1.0000   1.0000   1.0000
     1.0000   1.0000   1.0000   1.0000   1.0000   0.0000   0.0000   0.0000

          k = 0.0000 0.4835 0.0000 ( 10801 PWs)   bands (ev):

   -62.5352 -36.8429 -36.6369 -36.5906 -14.0302 -13.7422  -7.2393  -6.2595
    -5.6335  -4.7683  -3.4653  -2.7852  -2.4551   0.5086   0.9102   2.0490

     occupation numbers 
     1.0000   1.0000   1.0000   1.0000   1.0000   1.0000   1.0000   1.0000
     1.0000   1.0000   1.0000   1.0000   1.0000   0.0000   0.0000   0.0000

          k = 0.0000-0.5802 0.0000 ( 10796 PWs)   bands (ev):

   -62.5327 -36.8666 -36.6320 -36.5963 -13.8714 -13.6814  -7.3967  -6.4243
    -5.7070  -4.8497  -3.5241  -2.6885  -2.2896   0.5408   1.0535   2.1668

     occupation numbers 
     1.0000   1.0000   1.0000   1.0000   1.0000   1.0000   1.0000   1.0000
     1.0000   1.0000   1.0000   1.0000   1.0000   0.0000   0.0000   0.0000

          k = 0.0833 0.0484 0.0000 ( 10885 PWs)   bands (ev):

   -62.5671 -36.7005 -36.5340 -36.5105 -15.6229 -14.3910  -7.1317  -4.5126
    -4.1518  -3.9225  -3.3304  -2.8447  -1.7231   0.9237   1.0231   1.2018

     occupation numbers 
     1.0000   1.0000   1.0000   1.0000   1.0000   1.0000   1.0000   1.0000
     1.0000   1.0000   1.0000   1.0000   1.0000   0.0000   0.0000   0.0000

          k = 0.0833 0.1451 0.0000 ( 10871 PWs)   bands (ev):

   -62.5625 -36.6914 -36.5757 -36.5260 -15.4275 -14.3095  -6.9231  -4.8593
    -4.3463  -3.9848  -3.7133  -2.6510  -1.8665   0.7095   0.7918   0.9854

     occupation numbers 
     1.0000   1.0000   1.0000   1.0000   1.0000   1.0000   1.0000   1.0000
     1.0000   1.0000   1.0000   1.0000   1.0000   0.0000   0.0000   0.0000

          k = 0.0833 0.2418 0.0000 ( 10864 PWs)   bands (ev):

   -62.5546 -36.6755 -36.6508 -36.5491 -15.0684 -14.1600  -6.6393  -5.3265
    -4.8817  -4.2594  -3.6841  -2.6793  -2.2090   0.4224   0.7648   0.8656

     occupation numbers 
     1.0000   1.0000   1.0000   1.0000   1.0000   1.0000   1.0000   1.0000
     1.0000   1.0000   1.0000   1.0000   1.0000   0.0000   0.0000   0.0000

          k = 0.0833 0.3385 0.0000 ( 10861 PWs)   bands (ev):

   -62.5454 -36.7371 -36.6572 -36.5748 -14.6121 -13.9714  -6.6640  -5.5292
    -5.5021  -4.6203  -3.4367  -2.9682  -2.5129   0.3511   0.7249   1.2599

     occupation numbers 
     1.0000   1.0000   1.0000   1.0000   1.0000   1.0000   1.0000   1.0000
     1.0000   1.0000   1.0000   1.0000   1.0000   0.0000   0.0000   0.0000

          k = 0.0833 0.4352 0.0000 ( 10822 PWs)   bands (ev):

   -62.5374 -36.8111 -36.6413 -36.5968 -14.1665 -13.7908  -7.0038  -6.1176
    -5.5291  -4.7889  -3.3130  -3.2896  -2.4180   0.4777   0.8350   1.7396

     occupation numbers 
     1.0000   1.0000   1.0000   1.0000   1.0000   1.0000   1.0000   1.0000
     1.0000   1.0000   1.0000   1.0000   1.0000   0.0000   0.0000   0.0000

          k = 0.0833 0.5319 0.0000 ( 10796 PWs)   bands (ev):

   -62.5327 -36.8535 -36.6321 -36.6094 -13.8794 -13.6773  -7.2604  -6.4603
    -5.6500  -4.8479  -3.4854  -3.1918  -2.1748   0.5555   1.0532   2.1316

     occupation numbers 
     1.0000   1.0000   1.0000   1.0000   1.0000   1.0000   1.0000   1.0000
     1.0000   1.0000   1.0000   1.0000   1.0000   0.0000   0.0000   0.0000

          k = 0.1667 0.0967 0.0000 ( 10871 PWs)   bands (ev):

   -62.5605 -36.6874 -36.6006 -36.5260 -15.3367 -14.2729  -6.8404  -5.0308
    -4.5644  -3.8592  -3.7080  -2.7556  -1.9601   0.6038   0.8755   0.9365

     occupation numbers 
     1.0000   1.0000   1.0000   1.0000   1.0000   1.0000   1.0000   1.0000
     1.0000   1.0000   1.0000   1.0000   1.0000   0.0000   0.0000   0.0000

          k = 0.1667 0.1934 0.0000 ( 10859 PWs)   bands (ev):

   -62.5547 -36.6758 -36.6529 -36.5455 -15.0712 -14.1624  -6.6406  -5.3411
    -4.8917  -4.2400  -3.6639  -2.6810  -2.2150   0.4188   0.7783   0.8610

     occupation numbers 
     1.0000   1.0000   1.0000   1.0000   1.0000   1.0000   1.0000   1.0000
     1.0000   1.0000   1.0000   1.0000   1.0000   0.0000   0.0000   0.0000

          k = 0.1667 0.2901 0.0000 ( 10850 PWs)   bands (ev):

   -62.5468 -36.7177 -36.6599 -36.5781 -14.6805 -13.9989  -6.5622  -5.4795
    -5.3163  -4.8342  -3.6337  -2.7168  -2.4597   0.2525   0.7833   0.9658

     occupation numbers 
     1.0000   1.0000   1.0000   1.0000   1.0000   1.0000   1.0000   1.0000
     1.0000   1.0000   1.0000   1.0000   1.0000   0.0000   0.0000   0.0000

          k = 0.1667 0.3868 0.0000 ( 10823 PWs)   bands (ev):

   -62.5388 -36.7787 -36.6440 -36.6137 -14.2481 -13.8174  -6.7500  -6.0023
    -5.3787  -4.9439  -3.9006  -3.0137  -2.4220   0.3970   0.8585   1.2940

     occupation numbers 
     1.0000   1.0000   1.0000   1.0000   1.0000   1.0000   1.0000   1.0000
     1.0000   1.0000   1.0000   1.0000   1.0000   0.0000   0.0000   0.0000

          k = 0.1667 0.4835 0.0000 ( 10793 PWs)   bands (ev):

   -62.5329 -36.8218 -36.6409 -36.6323 -13.8961 -13.6700  -6.9419  -6.5249
    -5.4743  -4.8682  -4.0344  -3.3728  -2.1701   0.5183   1.0921   1.6408

     occupation numbers 
     1.0000   1.0000   1.0000   1.0000   1.0000   1.0000   1.0000   1.0000
     1.0000   1.0000   1.0000   1.0000   1.0000   0.0000   0.0000   0.0000

          k = 0.1667 0.5802 0.0000 ( 10790 PWs)   bands (ev):

   -62.5308 -36.8373 -36.6510 -36.6280 -13.7576 -13.6124  -7.0103  -6.7149
    -5.5925  -4.8016  -4.0354  -3.5432  -1.9900   0.4343   1.3381   1.7972

     occupation numbers 
     1.0000   1.0000   1.0000   1.0000   1.0000   1.0000   1.0000   1.0000
     1.0000   1.0000   1.0000   1.0000   1.0000   0.0000   0.0000   0.0000

          k = 0.1667-0.0000 0.0000 ( 10897 PWs)   bands (ev):

   -62.5627 -36.6916 -36.5789 -36.5213 -15.4303 -14.3117  -6.9256  -4.8820
    -4.3455  -3.9538  -3.7069  -2.6547  -1.8696   0.6962   0.7940   1.0002

     occupation numbers 
     1.0000   1.0000   1.0000   1.0000   1.0000   1.0000   1.0000   1.0000
     1.0000   1.0000   1.0000   1.0000   1.0000   0.0000   0.0000   0.0000

          k = 0.2500 0.1451 0.0000 ( 10862 PWs)   bands (ev):

   -62.5516 -36.6907 -36.6694 -36.5468 -14.9135 -14.0998  -6.6284  -5.4782
    -5.2166  -4.1324  -3.4470  -2.9957  -2.3880   0.4831   0.6707   1.2001

     occupation numbers 
     1.0000   1.0000   1.0000   1.0000   1.0000   1.0000   1.0000   1.0000
     1.0000   1.0000   1.0000   1.0000   1.0000   0.0000   0.0000   0.0000

          k = 0.2500 0.2418 0.0000 ( 10861 PWs)   bands (ev):

   -62.5458 -36.7395 -36.6578 -36.5690 -14.6189 -13.9777  -6.6659  -5.5367
    -5.5246  -4.5946  -3.4048  -2.9673  -2.5224   0.3578   0.7331   1.2539

     occupation numbers 
     1.0000   1.0000   1.0000   1.0000   1.0000   1.0000   1.0000   1.0000
     1.0000   1.0000   1.0000   1.0000   1.0000   0.0000   0.0000   0.0000

          k = 0.2500 0.3385 0.0000 ( 10821 PWs)   bands (ev):

   -62.5390 -36.7799 -36.6443 -36.6105 -14.2522 -13.8214  -6.7521  -6.0023
    -5.3920  -4.9351  -3.8820  -3.0114  -2.4258   0.3986   0.8616   1.2929

     occupation numbers 
     1.0000   1.0000   1.0000   1.0000   1.0000   1.0000   1.0000   1.0000
     1.0000   1.0000   1.0000   1.0000   1.0000   0.0000   0.0000   0.0000

          k = 0.2500 0.4352 0.0000 ( 10817 PWs)   bands (ev):

   -62.5332 -36.8015 -36.6598 -36.6327 -13.9071 -13.6691  -6.7514  -6.5521
    -5.2685  -4.8848  -4.5582  -3.2992  -2.1974   0.4820   1.1210   1.4016

     occupation numbers 
     1.0000   1.0000   1.0000   1.0000   1.0000   1.0000   1.0000   1.0000
     1.0000   1.0000   1.0000   1.0000   1.0000   0.0000   0.0000   0.0000

          k = 0.2500 0.5319 0.0000 ( 10774 PWs)   bands (ev):

   -62.5297 -36.8052 -36.6971 -36.6259 -13.6940 -13.5722  -6.8914  -6.6214
    -5.4627  -4.8760  -4.6950  -3.6256  -1.8832   0.2168   1.4623   1.5821

     occupation numbers 
     1.0000   1.0000   1.0000   1.0000   1.0000   1.0000   1.0000   1.0000
     1.0000   1.0000   1.0000   1.0000   1.0000   0.0000   0.0000   0.0000

          k = 0.2500-0.0484 0.0000 ( 10870 PWs)   bands (ev):

   -62.5549 -36.6761 -36.6532 -36.5432 -15.0753 -14.1656  -6.6429  -5.3438
    -4.8839  -4.2409  -3.6578  -2.6848  -2.2113   0.4173   0.7739   0.8825

     occupation numbers 
     1.0000   1.0000   1.0000   1.0000   1.0000   1.0000   1.0000   1.0000
     1.0000   1.0000   1.0000   1.0000   1.0000   0.0000   0.0000   0.0000

          k = 0.3333 0.1934 0.0000 ( 10828 PWs)   bands (ev):

   -62.5426 -36.7796 -36.6513 -36.5674 -14.4396 -13.9097  -6.8713  -5.8182
    -5.5652  -4.4900  -3.2895  -3.0330  -2.6340   0.5226   0.6453   1.6886

     occupation numbers 
     1.0000   1.0000   1.0000   1.0000   1.0000   1.0000   1.0000   1.0000
     1.0000   1.0000   1.0000   1.0000   1.0000   0.0000   0.0000   0.0000

          k = 0.3333 0.2901 0.0000 ( 10820 PWs)   bands (ev):

   -62.5380 -36.8129 -36.6421 -36.5897 -14.1780 -13.8016  -7.0092  -6.1169
    -5.5473  -4.7600  -3.2902  -3.2787  -2.4278   0.4827   0.8388   1.7352

     occupation numbers 
     1.0000   1.0000   1.0000   1.0000   1.0000   1.0000   1.0000   1.0000
     1.0000   1.0000   1.0000   1.0000   1.0000   0.0000   0.0000   0.0000

          k = 0.3333 0.3868 0.0000 ( 10799 PWs)   bands (ev):

   -62.5333 -36.8232 -36.6356 -36.6330 -13.9050 -13.6785  -6.9469  -6.5193
    -5.4868  -4.8539  -4.0074  -3.3723  -2.1792   0.5170   1.0928   1.6427

     occupation numbers 
     1.0000   1.0000   1.0000   1.0000   1.0000   1.0000   1.0000   1.0000
     1.0000   1.0000   1.0000   1.0000   1.0000   0.0000   0.0000   0.0000

          k = 0.3333 0.4835 0.0000 ( 10768 PWs)   bands (ev):

   -62.5299 -36.8061 -36.6942 -36.6262 -13.6989 -13.5766  -6.8871  -6.6226
    -5.4715  -4.8610  -4.6881  -3.6274  -1.8869   0.2145   1.4641   1.5772

     occupation numbers 
     1.0000   1.0000   1.0000   1.0000   1.0000   1.0000   1.0000   1.0000
     1.0000   1.0000   1.0000   1.0000   1.0000   0.0000   0.0000   0.0000

          k = 0.3333 0.5802 0.0000 ( 10772 PWs)   bands (ev):

   -62.5287 -36.7785 -36.7370 -36.6238 -13.6225 -13.5363  -7.0315  -6.2270
    -5.7120  -5.2157  -4.5316  -3.8144  -1.6915  -0.0283   1.3757   1.8287

     occupation numbers 
     1.0000   1.0000   1.0000   1.0000   1.0000   1.0000   1.0000   1.0000
     1.0000   1.0000   1.0000   1.0000   1.0000   0.0000   0.0000   0.0000

          k = 0.3333-0.0967 0.0000 ( 10862 PWs)   bands (ev):

   -62.5460 -36.7384 -36.6581 -36.5682 -14.6236 -13.9810  -6.6630  -5.5313
    -5.5216  -4.5897  -3.4229  -2.9753  -2.5030   0.3602   0.7154   1.2828

     occupation numbers 
     1.0000   1.0000   1.0000   1.0000   1.0000   1.0000   1.0000   1.0000
     1.0000   1.0000   1.0000   1.0000   1.0000   0.0000   0.0000   0.0000

          k = 0.3333-0.0000 0.0000 ( 10853 PWs)   bands (ev):

   -62.5472 -36.7173 -36.6605 -36.5746 -14.6894 -14.0057  -6.5600  -5.4830
    -5.3097  -4.8240  -3.6415  -2.7240  -2.4421   0.2548   0.7672   0.9960

     occupation numbers 
     1.0000   1.0000   1.0000   1.0000   1.0000   1.0000   1.0000   1.0000
     1.0000   1.0000   1.0000   1.0000   1.0000   0.0000   0.0000   0.0000

          k = 0.4167 0.2418 0.0000 ( 10800 PWs)   bands (ev):

   -62.5359 -36.8439 -36.6381 -36.5824 -14.0466 -13.7573  -7.2446  -6.2570
    -5.6471  -4.7225  -3.4767  -2.7434  -2.4713   0.5135   0.9029   2.0534

     occupation numbers 
     1.0000   1.0000   1.0000   1.0000   1.0000   1.0000   1.0000   1.0000
     1.0000   1.0000   1.0000   1.0000   1.0000   0.0000   0.0000   0.0000

          k = 0.4167 0.3385 0.0000 ( 10785 PWs)   bands (ev):

   -62.5335 -36.8545 -36.6332 -36.6018 -13.8949 -13.6919  -7.2671  -6.4540
    -5.6594  -4.8129  -3.4924  -3.1590  -2.1863   0.5533   1.0495   2.1311

     occupation numbers 
     1.0000   1.0000   1.0000   1.0000   1.0000   1.0000   1.0000   1.0000
     1.0000   1.0000   1.0000   1.0000   1.0000   0.0000   0.0000   0.0000

          k = 0.4167 0.4352 0.0000 ( 10790 PWs)   bands (ev):

   -62.5313 -36.8380 -36.6451 -36.6289 -13.7707 -13.6241  -7.0125  -6.7055
    -5.6003  -4.7792  -4.0138  -3.5499  -1.9951   0.4273   1.3255   1.8061

     occupation numbers 
     1.0000   1.0000   1.0000   1.0000   1.0000   1.0000   1.0000   1.0000
     1.0000   1.0000   1.0000   1.0000   1.0000   0.0000   0.0000   0.0000

          k = 0.4167 0.5319 0.0000 ( 10780 PWs)   bands (ev):

   -62.5301 -36.8050 -36.6939 -36.6265 -13.7032 -13.5796  -6.8839  -6.6134
    -5.4700  -4.8718  -4.6807  -3.6334  -1.8763   0.2034   1.4683   1.5643

     occupation numbers 
     1.0000   1.0000   1.0000   1.0000   1.0000   1.0000   1.0000   1.0000
     1.0000   1.0000   1.0000   1.0000   1.0000   0.0000   0.0000   0.0000

          k = 0.4167-0.1451 0.0000 ( 10817 PWs)   bands (ev):

   -62.5381 -36.8116 -36.6424 -36.5896 -14.1821 -13.8042  -7.0025  -6.1144
    -5.5465  -4.7513  -3.3008  -3.3000  -2.4039   0.4868   0.8128   1.7657

     occupation numbers 
     1.0000   1.0000   1.0000   1.0000   1.0000   1.0000   1.0000   1.0000
     1.0000   1.0000   1.0000   1.0000   1.0000   0.0000   0.0000   0.0000

          k = 0.4167-0.0484 0.0000 ( 10831 PWs)   bands (ev):

   -62.5394 -36.7779 -36.6449 -36.6093 -14.2611 -13.8276  -6.7409  -5.9956
    -5.3892  -4.9237  -3.9083  -3.0222  -2.3993   0.4016   0.8269   1.3219

     occupation numbers 
     1.0000   1.0000   1.0000   1.0000   1.0000   1.0000   1.0000   1.0000
     1.0000   1.0000   1.0000   1.0000   1.0000   0.0000   0.0000   0.0000

          k =-0.5000-0.2901 0.0000 ( 10784 PWs)   bands (ev):

   -62.5335 -36.8673 -36.6332 -36.5879 -13.8894 -13.6981  -7.4034  -6.4192
    -5.7153  -4.8026  -3.5370  -2.6439  -2.3098   0.5383   1.0454   2.1732

     occupation numbers 
     1.0000   1.0000   1.0000   1.0000   1.0000   1.0000   1.0000   1.0000
     1.0000   1.0000   1.0000   1.0000   1.0000   0.0000   0.0000   0.0000

          k =-0.5000-0.1934 0.0000 ( 10771 PWs)   bands (ev):

   -62.5335 -36.8539 -36.6332 -36.6018 -13.8966 -13.6929  -7.2638  -6.4532
    -5.6597  -4.8084  -3.4971  -3.1680  -2.1748   0.5514   1.0383   2.1585

     occupation numbers 
     1.0000   1.0000   1.0000   1.0000   1.0000   1.0000   1.0000   1.0000
     1.0000   1.0000   1.0000   1.0000   1.0000   0.0000   0.0000   0.0000

          k =-0.5000-0.0967 0.0000 ( 10788 PWs)   bands (ev):

   -62.5335 -36.8215 -36.6355 -36.6333 -13.9108 -13.6823  -6.9357  -6.5155
    -5.4856  -4.8437  -4.0262  -3.3824  -2.1582   0.5098   1.0662   1.6609

     occupation numbers 
     1.0000   1.0000   1.0000   1.0000   1.0000   1.0000   1.0000   1.0000
     1.0000   1.0000   1.0000   1.0000   1.0000   0.0000   0.0000   0.0000

          k =-0.5000 0.0000 0.0000 ( 10815 PWs)   bands (ev):

   -62.5336 -36.7997 -36.6578 -36.6333 -13.9178 -13.6770  -6.7368  -6.5442
    -5.2657  -4.8703  -4.5786  -3.3090  -2.1764   0.4707   1.0905   1.4179

     occupation numbers 
     1.0000   1.0000   1.0000   1.0000   1.0000   1.0000   1.0000   1.0000
     1.0000   1.0000   1.0000   1.0000   1.0000   0.0000   0.0000   0.0000

     highest occupied, lowest unoccupied level (ev):    -1.6696   -0.0283

!    total energy              =    -181.57958116 Ry
     estimated scf accuracy    <          3.1E-13 Ry

     The total energy is the sum of the following terms:
     one-electron contribution =   -1373.39121662 Ry
     hartree contribution      =     686.23747990 Ry
     xc contribution           =     -29.67618075 Ry
     ewald contribution        =     535.25033630 Ry

     convergence has been achieved in  18 iterations

     negative rho (up, down):  3.870E-04 0.000E+00

     Forces acting on atoms (cartesian axes, Ry/au):

     atom    1 type  1   force =     0.00000000    0.00115931    0.00000000
     atom    2 type  2   force =     0.00000000   -0.00057965   -0.00189200
     atom    3 type  2   force =     0.00000000   -0.00057965    0.00189200
     The non-local contrib.  to forces
     atom    1 type  1   force =     0.00000000   -0.00031379    0.00000000
     atom    2 type  2   force =     0.00000000   -0.00026645   -0.27495842
     atom    3 type  2   force =     0.00000000   -0.00026645    0.27495842
     The ionic contribution  to forces
     atom    1 type  1   force =     0.00000000    0.05387264    0.00000000
     atom    2 type  2   force =    -0.00000000   -0.02693632   37.02817722
     atom    3 type  2   force =    -0.00000000   -0.02693632  -37.02817722
     The local contribution  to forces
     atom    1 type  1   force =    -0.00000000   -0.05245543    0.00000000
     atom    2 type  2   force =    -0.00000000    0.02658493  -36.75769430
     atom    3 type  2   force =    -0.00000000    0.02658493   36.75769430
     The core correction contribution to forces
     atom    1 type  1   force =     0.00000000    0.00005563   -0.00000000
     atom    2 type  2   force =     0.00000000    0.00003802    0.00258460
     atom    3 type  2   force =     0.00000000    0.00003802   -0.00258460
     The Hubbard contrib.    to forces
     atom    1 type  1   force =     0.00000000    0.00000000    0.00000000
     atom    2 type  2   force =     0.00000000    0.00000000    0.00000000
     atom    3 type  2   force =     0.00000000    0.00000000    0.00000000
     The SCF correction term to forces
     atom    1 type  1   force =    -0.00000000    0.00000004    0.00000000
     atom    2 type  2   force =     0.00000000   -0.00000006   -0.00000109
     atom    3 type  2   force =     0.00000000   -0.00000006    0.00000109

     Total force =     0.003029     Total SCF correction =     0.000002


     Computing stress (Cartesian axis) and pressure


     negative rho (up, down):  3.870E-04 0.000E+00
          total   stress  (Ry/bohr**3)                   (kbar)     P=       -2.09
  -0.00002223   0.00000000   0.00000000           -3.27        0.00        0.00
   0.00000000  -0.00000694   0.00000000            0.00       -1.02        0.00
   0.00000000   0.00000000  -0.00001339            0.00        0.00       -1.97

     kinetic stress (kbar)   4839.59     -0.00      0.00
                               -0.00   4843.57      0.00
                                0.00      0.00   4889.72

     local   stress (kbar)-145524.87      0.00      0.00
                                0.00-145557.47      0.00
                                0.00      0.00 142500.27

     nonloc. stress (kbar)   2216.77     -0.00      0.00
                               -0.00   2216.24      0.00
                                0.00      0.00   2206.07

     hartree stress (kbar)  71370.36     -0.00      0.00
                               -0.00  71380.57      0.00
                                0.00      0.00 -69584.98

     exc-cor stress (kbar)   -411.10     -0.00      0.00
                               -0.00   -411.04     -0.00
                                0.00     -0.00   -412.13

     corecor stress (kbar)   -545.08      0.00      0.00
                                0.00   -545.09      0.00
                                0.00      0.00   -545.51

     ewald   stress (kbar)  68051.06     -0.00     -0.00
                               -0.00  68072.20     -0.00
                               -0.00     -0.00 -79055.40

     hubbard stress (kbar)      0.00      0.00      0.00
                                0.00      0.00      0.00
                                0.00      0.00      0.00

     DFT-D   stress (kbar)      0.00      0.00      0.00
                                0.00      0.00      0.00
                                0.00      0.00      0.00

     XDM     stress (kbar)      0.00      0.00      0.00
                                0.00      0.00      0.00
                                0.00      0.00      0.00

     dft-nl  stress (kbar)      0.00      0.00      0.00
                                0.00      0.00      0.00
                                0.00      0.00      0.00

     TS-vdW  stress (kbar)      0.00      0.00      0.00
                                0.00      0.00      0.00
                                0.00      0.00      0.00

     MDB     stress (kbar)      0.00      0.00      0.00
                                0.00      0.00      0.00
                                0.00      0.00      0.00

     3D-RISM stress (kbar)      0.00      0.00      0.00
                                0.00      0.00      0.00
                                0.00      0.00      0.00


     BFGS Geometry Optimization
     Energy error            =      9.2E-06 Ry
     Gradient error          =      1.9E-03 Ry/Bohr

     number of scf cycles    =   1
     number of bfgs steps    =   0

     energy             new  =    -181.5795811645 Ry

     new trust radius        =       0.0019788001 bohr
     new conv_thr            =            1.0E-12 Ry


ATOMIC_POSITIONS (crystal)
Mo               0.0001112858        0.0002225717        0.5000000000
S                0.6666110238        0.3332220475        0.5674387253
S                0.6666110238        0.3332220475        0.4325612747



     Writing config-only to output data dir ./tmp/mos2.save/ :
     XML data file
     NEW-OLD atomic charge density approx. for the potential

     negative rho (up, down):  3.872E-04 0.000E+00

     total cpu time spent up to now is      209.5 secs

     Self-consistent Calculation

     iteration #  1     ecut=    60.00 Ry     beta= 0.30
     CG style diagonalization

---- Real-time Memory Report at c_bands before calling an iterative solver
           205 MiB given to the printing process from OS
             0 MiB allocation reported by mallinfo(arena+hblkhd)
          1817 MiB available memory on the node where the printing process lives
------------------
     ethr =  1.00E-06,  avg # of iterations =  3.2

     Threshold (ethr) on eigenvalues was too large:
     Diagonalizing with lowered threshold

     CG style diagonalization

---- Real-time Memory Report at c_bands before calling an iterative solver
           205 MiB given to the printing process from OS
             0 MiB allocation reported by mallinfo(arena+hblkhd)
          2401 MiB available memory on the node where the printing process lives
------------------
     ethr =  3.69E-09,  avg # of iterations =  7.0

     negative rho (up, down):  3.872E-04 0.000E+00

     total cpu time spent up to now is      229.4 secs

     total energy              =    -181.57958826 Ry
     estimated scf accuracy    <       0.00000046 Ry

     iteration #  2     ecut=    60.00 Ry     beta= 0.30
     CG style diagonalization

---- Real-time Memory Report at c_bands before calling an iterative solver
           205 MiB given to the printing process from OS
             0 MiB allocation reported by mallinfo(arena+hblkhd)
          2566 MiB available memory on the node where the printing process lives
------------------
     ethr =  1.78E-09,  avg # of iterations =  3.9

     negative rho (up, down):  3.871E-04 0.000E+00

     total cpu time spent up to now is      237.1 secs

     total energy              =    -181.57958835 Ry
     estimated scf accuracy    <       0.00000028 Ry

     iteration #  3     ecut=    60.00 Ry     beta= 0.30
     CG style diagonalization

---- Real-time Memory Report at c_bands before calling an iterative solver
           205 MiB given to the printing process from OS
             0 MiB allocation reported by mallinfo(arena+hblkhd)
          2544 MiB available memory on the node where the printing process lives
------------------
     ethr =  1.07E-09,  avg # of iterations =  3.2

     negative rho (up, down):  3.871E-04 0.000E+00

     total cpu time spent up to now is      243.9 secs

     total energy              =    -181.57958838 Ry
     estimated scf accuracy    <       0.00000005 Ry

     iteration #  4     ecut=    60.00 Ry     beta= 0.30
     CG style diagonalization

---- Real-time Memory Report at c_bands before calling an iterative solver
           205 MiB given to the printing process from OS
             0 MiB allocation reported by mallinfo(arena+hblkhd)
          3230 MiB available memory on the node where the printing process lives
------------------
     ethr =  1.75E-10,  avg # of iterations =  4.4

     negative rho (up, down):  3.871E-04 0.000E+00

     total cpu time spent up to now is      252.7 secs

     total energy              =    -181.57958838 Ry
     estimated scf accuracy    <       0.00000004 Ry

     iteration #  5     ecut=    60.00 Ry     beta= 0.30
     CG style diagonalization

---- Real-time Memory Report at c_bands before calling an iterative solver
           205 MiB given to the printing process from OS
             0 MiB allocation reported by mallinfo(arena+hblkhd)
          2192 MiB available memory on the node where the printing process lives
------------------
     ethr =  1.55E-10,  avg # of iterations =  3.3

     negative rho (up, down):  3.871E-04 0.000E+00

     total cpu time spent up to now is      259.6 secs

     total energy              =    -181.57958839 Ry
     estimated scf accuracy    <          1.0E-09 Ry

     iteration #  6     ecut=    60.00 Ry     beta= 0.30
     CG style diagonalization

---- Real-time Memory Report at c_bands before calling an iterative solver
           205 MiB given to the printing process from OS
             0 MiB allocation reported by mallinfo(arena+hblkhd)
          2578 MiB available memory on the node where the printing process lives
------------------
     ethr =  3.94E-12,  avg # of iterations =  4.9

     negative rho (up, down):  3.871E-04 0.000E+00

     total cpu time spent up to now is      269.6 secs

     total energy              =    -181.57958839 Ry
     estimated scf accuracy    <          1.4E-09 Ry

     iteration #  7     ecut=    60.00 Ry     beta= 0.30
     CG style diagonalization

---- Real-time Memory Report at c_bands before calling an iterative solver
           205 MiB given to the printing process from OS
             0 MiB allocation reported by mallinfo(arena+hblkhd)
          2192 MiB available memory on the node where the printing process lives
------------------
     ethr =  3.94E-12,  avg # of iterations =  3.1

     negative rho (up, down):  3.871E-04 0.000E+00

     total cpu time spent up to now is      276.1 secs

     total energy              =    -181.57958839 Ry
     estimated scf accuracy    <          2.4E-10 Ry

     iteration #  8     ecut=    60.00 Ry     beta= 0.30
     CG style diagonalization

---- Real-time Memory Report at c_bands before calling an iterative solver
           205 MiB given to the printing process from OS
             0 MiB allocation reported by mallinfo(arena+hblkhd)
          2248 MiB available memory on the node where the printing process lives
------------------
     ethr =  9.21E-13,  avg # of iterations =  3.9

     negative rho (up, down):  3.871E-04 0.000E+00

     total cpu time spent up to now is      284.3 secs

     total energy              =    -181.57958839 Ry
     estimated scf accuracy    <          2.7E-11 Ry

     iteration #  9     ecut=    60.00 Ry     beta= 0.30
     CG style diagonalization

---- Real-time Memory Report at c_bands before calling an iterative solver
           205 MiB given to the printing process from OS
             0 MiB allocation reported by mallinfo(arena+hblkhd)
          2224 MiB available memory on the node where the printing process lives
------------------
     ethr =  1.02E-13,  avg # of iterations =  3.7

     negative rho (up, down):  3.871E-04 0.000E+00

     total cpu time spent up to now is      292.0 secs

     total energy              =    -181.57958839 Ry
     estimated scf accuracy    <          2.8E-11 Ry

     iteration # 10     ecut=    60.00 Ry     beta= 0.30
     CG style diagonalization

---- Real-time Memory Report at c_bands before calling an iterative solver
           205 MiB given to the printing process from OS
             0 MiB allocation reported by mallinfo(arena+hblkhd)
          2374 MiB available memory on the node where the printing process lives
------------------
     ethr =  1.02E-13,  avg # of iterations =  3.2

     negative rho (up, down):  3.871E-04 0.000E+00

     total cpu time spent up to now is      298.7 secs

     total energy              =    -181.57958839 Ry
     estimated scf accuracy    <          1.5E-12 Ry

     iteration # 11     ecut=    60.00 Ry     beta= 0.30
     CG style diagonalization

---- Real-time Memory Report at c_bands before calling an iterative solver
           205 MiB given to the printing process from OS
             0 MiB allocation reported by mallinfo(arena+hblkhd)
          2467 MiB available memory on the node where the printing process lives
------------------
     ethr =  1.00E-13,  avg # of iterations =  3.0

     negative rho (up, down):  3.871E-04 0.000E+00

     total cpu time spent up to now is      305.2 secs

     End of self-consistent calculation

          k = 0.0000 0.0000 0.0000 ( 10891 PWs)   bands (ev):

   -62.5697 -36.7057 -36.5116 -36.5041 -15.7275 -14.4329  -7.2507  -4.3054
    -4.2518  -3.4290  -3.1925  -3.1665  -1.6667   1.0479   1.0809   1.2870

     occupation numbers 
     1.0000   1.0000   1.0000   1.0000   1.0000   1.0000   1.0000   1.0000
     1.0000   1.0000   1.0000   1.0000   1.0000   0.0000   0.0000   0.0000

          k = 0.0000 0.0967 0.0000 ( 10887 PWs)   bands (ev):

   -62.5672 -36.7009 -36.5291 -36.5174 -15.6258 -14.3906  -7.1343  -4.4818
    -4.1991  -3.9161  -3.3565  -2.8345  -1.7185   0.9429   1.0552   1.1720

     occupation numbers 
     1.0000   1.0000   1.0000   1.0000   1.0000   1.0000   1.0000   1.0000
     1.0000   1.0000   1.0000   1.0000   1.0000   0.0000   0.0000   0.0000

          k = 0.0000 0.1934 0.0000 ( 10879 PWs)   bands (ev):

   -62.5605 -36.6875 -36.5969 -36.5331 -15.3369 -14.2704  -6.8414  -5.0091
    -4.5562  -3.9030  -3.7425  -2.7445  -1.9506   0.6287   0.8814   0.9051

     occupation numbers 
     1.0000   1.0000   1.0000   1.0000   1.0000   1.0000   1.0000   1.0000
     1.0000   1.0000   1.0000   1.0000   1.0000   0.0000   0.0000   0.0000

          k = 0.0000 0.2901 0.0000 ( 10879 PWs)   bands (ev):

   -62.5513 -36.6883 -36.6692 -36.5545 -14.9097 -14.0938  -6.6309  -5.4572
    -5.2096  -4.1751  -3.4886  -2.9858  -2.3763   0.4988   0.6414   1.2005

     occupation numbers 
     1.0000   1.0000   1.0000   1.0000   1.0000   1.0000   1.0000   1.0000
     1.0000   1.0000   1.0000   1.0000   1.0000   0.0000   0.0000   0.0000

          k = 0.0000 0.3868 0.0000 ( 10849 PWs)   bands (ev):

   -62.5421 -36.7785 -36.6508 -36.5758 -14.4313 -13.8996  -6.8736  -5.8166
    -5.5455  -4.5389  -3.2784  -3.0752  -2.6225   0.5032   0.6550   1.6869

     occupation numbers 
     1.0000   1.0000   1.0000   1.0000   1.0000   1.0000   1.0000   1.0000
     1.0000   1.0000   1.0000   1.0000   1.0000   0.0000   0.0000   0.0000

          k = 0.0000 0.4835 0.0000 ( 10801 PWs)   bands (ev):

   -62.5353 -36.8436 -36.6373 -36.5914 -14.0346 -13.7434  -7.2426  -6.2620
    -5.6374  -4.7751  -3.4621  -2.7896  -2.4540   0.5081   0.9106   2.0483

     occupation numbers 
     1.0000   1.0000   1.0000   1.0000   1.0000   1.0000   1.0000   1.0000
     1.0000   1.0000   1.0000   1.0000   1.0000   0.0000   0.0000   0.0000

          k = 0.0000-0.5802 0.0000 ( 10796 PWs)   bands (ev):

   -62.5328 -36.8674 -36.6323 -36.5971 -13.8759 -13.6827  -7.3992  -6.4269
    -5.7112  -4.8564  -3.5206  -2.6927  -2.2884   0.5401   1.0534   2.1659

     occupation numbers 
     1.0000   1.0000   1.0000   1.0000   1.0000   1.0000   1.0000   1.0000
     1.0000   1.0000   1.0000   1.0000   1.0000   0.0000   0.0000   0.0000

          k = 0.0833 0.0484 0.0000 ( 10885 PWs)   bands (ev):

   -62.5673 -36.7009 -36.5348 -36.5111 -15.6267 -14.3915  -7.1352  -4.5182
    -4.1586  -3.9250  -3.3335  -2.8465  -1.7207   0.9260   1.0246   1.2050

     occupation numbers 
     1.0000   1.0000   1.0000   1.0000   1.0000   1.0000   1.0000   1.0000
     1.0000   1.0000   1.0000   1.0000   1.0000   0.0000   0.0000   0.0000

          k = 0.0833 0.1451 0.0000 ( 10871 PWs)   bands (ev):

   -62.5626 -36.6918 -36.5763 -36.5267 -15.4313 -14.3101  -6.9268  -4.8654
    -4.3473  -3.9905  -3.7195  -2.6510  -1.8642   0.7123   0.7907   0.9871

     occupation numbers 
     1.0000   1.0000   1.0000   1.0000   1.0000   1.0000   1.0000   1.0000
     1.0000   1.0000   1.0000   1.0000   1.0000   0.0000   0.0000   0.0000

          k = 0.0833 0.2418 0.0000 ( 10864 PWs)   bands (ev):

   -62.5547 -36.6760 -36.6514 -36.5498 -15.0723 -14.1608  -6.6438  -5.3316
    -4.8827  -4.2657  -3.6893  -2.6790  -2.2071   0.4246   0.7662   0.8650

     occupation numbers 
     1.0000   1.0000   1.0000   1.0000   1.0000   1.0000   1.0000   1.0000
     1.0000   1.0000   1.0000   1.0000   1.0000   0.0000   0.0000   0.0000

          k = 0.0833 0.3385 0.0000 ( 10861 PWs)   bands (ev):

   -62.5455 -36.7378 -36.6576 -36.5756 -14.6160 -13.9724  -6.6692  -5.5315
    -5.5057  -4.6256  -3.4406  -2.9672  -2.5124   0.3525   0.7259   1.2602

     occupation numbers 
     1.0000   1.0000   1.0000   1.0000   1.0000   1.0000   1.0000   1.0000
     1.0000   1.0000   1.0000   1.0000   1.0000   0.0000   0.0000   0.0000

          k = 0.0833 0.4352 0.0000 ( 10822 PWs)   bands (ev):

   -62.5375 -36.8118 -36.6417 -36.5976 -14.1707 -13.7920  -7.0078  -6.1206
    -5.5328  -4.7941  -3.3156  -3.2873  -2.4189   0.4786   0.8351   1.7404

     occupation numbers 
     1.0000   1.0000   1.0000   1.0000   1.0000   1.0000   1.0000   1.0000
     1.0000   1.0000   1.0000   1.0000   1.0000   0.0000   0.0000   0.0000

          k = 0.0833 0.5319 0.0000 ( 10796 PWs)   bands (ev):

   -62.5329 -36.8542 -36.6324 -36.6103 -13.8838 -13.6787  -7.2632  -6.4636
    -5.6542  -4.8534  -3.4821  -3.1943  -2.1756   0.5552   1.0533   2.1331

     occupation numbers 
     1.0000   1.0000   1.0000   1.0000   1.0000   1.0000   1.0000   1.0000
     1.0000   1.0000   1.0000   1.0000   1.0000   0.0000   0.0000   0.0000

          k = 0.1667 0.0967 0.0000 ( 10871 PWs)   bands (ev):

   -62.5607 -36.6878 -36.6014 -36.5267 -15.3404 -14.2738  -6.8441  -5.0358
    -4.5678  -3.8656  -3.7115  -2.7552  -1.9590   0.6062   0.8772   0.9389

     occupation numbers 
     1.0000   1.0000   1.0000   1.0000   1.0000   1.0000   1.0000   1.0000
     1.0000   1.0000   1.0000   1.0000   1.0000   0.0000   0.0000   0.0000

          k = 0.1667 0.1934 0.0000 ( 10859 PWs)   bands (ev):

   -62.5549 -36.6762 -36.6537 -36.5462 -15.0749 -14.1634  -6.6449  -5.3457
    -4.8946  -4.2438  -3.6695  -2.6805  -2.2141   0.4208   0.7805   0.8614

     occupation numbers 
     1.0000   1.0000   1.0000   1.0000   1.0000   1.0000   1.0000   1.0000
     1.0000   1.0000   1.0000   1.0000   1.0000   0.0000   0.0000   0.0000

          k = 0.1667 0.2901 0.0000 ( 10850 PWs)   bands (ev):

   -62.5469 -36.7184 -36.6603 -36.5788 -14.6843 -14.0001  -6.5674  -5.4830
    -5.3204  -4.8366  -3.6378  -2.7163  -2.4599   0.2543   0.7846   0.9667

     occupation numbers 
     1.0000   1.0000   1.0000   1.0000   1.0000   1.0000   1.0000   1.0000
     1.0000   1.0000   1.0000   1.0000   1.0000   0.0000   0.0000   0.0000

          k = 0.1667 0.3868 0.0000 ( 10823 PWs)   bands (ev):

   -62.5389 -36.7794 -36.6444 -36.6145 -14.2521 -13.8188  -6.7547  -6.0067
    -5.3819  -4.9461  -3.9031  -3.0125  -2.4237   0.3992   0.8580   1.2958

     occupation numbers 
     1.0000   1.0000   1.0000   1.0000   1.0000   1.0000   1.0000   1.0000
     1.0000   1.0000   1.0000   1.0000   1.0000   0.0000   0.0000   0.0000

          k = 0.1667 0.4835 0.0000 ( 10793 PWs)   bands (ev):

   -62.5330 -36.8225 -36.6417 -36.6327 -13.9003 -13.6716  -6.9452  -6.5294
    -5.4779  -4.8709  -4.0366  -3.3705  -2.1719   0.5186   1.0923   1.6437

     occupation numbers 
     1.0000   1.0000   1.0000   1.0000   1.0000   1.0000   1.0000   1.0000
     1.0000   1.0000   1.0000   1.0000   1.0000   0.0000   0.0000   0.0000

          k = 0.1667 0.5802 0.0000 ( 10790 PWs)   bands (ev):

   -62.5309 -36.8380 -36.6519 -36.6284 -13.7619 -13.6140  -7.0128  -6.7193
    -5.5966  -4.8048  -4.0377  -3.5402  -1.9917   0.4331   1.3393   1.8012

     occupation numbers 
     1.0000   1.0000   1.0000   1.0000   1.0000   1.0000   1.0000   1.0000
     1.0000   1.0000   1.0000   1.0000   1.0000   0.0000   0.0000   0.0000

          k = 0.1667-0.0000 0.0000 ( 10897 PWs)   bands (ev):

   -62.5629 -36.6920 -36.5798 -36.5219 -15.4340 -14.3125  -6.9291  -4.8868
    -4.3498  -3.9607  -3.7084  -2.6555  -1.8685   0.6985   0.7971   1.0028

     occupation numbers 
     1.0000   1.0000   1.0000   1.0000   1.0000   1.0000   1.0000   1.0000
     1.0000   1.0000   1.0000   1.0000   1.0000   0.0000   0.0000   0.0000

          k = 0.2500 0.1451 0.0000 ( 10862 PWs)   bands (ev):

   -62.5517 -36.6916 -36.6698 -36.5474 -14.9171 -14.1012  -6.6329  -5.4815
    -5.2197  -4.1362  -3.4528  -2.9943  -2.3886   0.4859   0.6722   1.2021

     occupation numbers 
     1.0000   1.0000   1.0000   1.0000   1.0000   1.0000   1.0000   1.0000
     1.0000   1.0000   1.0000   1.0000   1.0000   0.0000   0.0000   0.0000

          k = 0.2500 0.2418 0.0000 ( 10861 PWs)   bands (ev):

   -62.5459 -36.7404 -36.6581 -36.5697 -14.6225 -13.9793  -6.6710  -5.5402
    -5.5271  -4.5970  -3.4099  -2.9668  -2.5231   0.3592   0.7349   1.2562

     occupation numbers 
     1.0000   1.0000   1.0000   1.0000   1.0000   1.0000   1.0000   1.0000
     1.0000   1.0000   1.0000   1.0000   1.0000   0.0000   0.0000   0.0000

          k = 0.2500 0.3385 0.0000 ( 10821 PWs)   bands (ev):

   -62.5391 -36.7808 -36.6447 -36.6112 -14.2559 -13.8231  -6.7569  -6.0068
    -5.3942  -4.9359  -3.8855  -3.0109  -2.4277   0.4006   0.8615   1.2956

     occupation numbers 
     1.0000   1.0000   1.0000   1.0000   1.0000   1.0000   1.0000   1.0000
     1.0000   1.0000   1.0000   1.0000   1.0000   0.0000   0.0000   0.0000

          k = 0.2500 0.4352 0.0000 ( 10817 PWs)   bands (ev):

   -62.5333 -36.8023 -36.6606 -36.6330 -13.9110 -13.6710  -6.7552  -6.5569
    -5.2707  -4.8855  -4.5612  -3.2981  -2.1997   0.4825   1.1212   1.4049

     occupation numbers 
     1.0000   1.0000   1.0000   1.0000   1.0000   1.0000   1.0000   1.0000
     1.0000   1.0000   1.0000   1.0000   1.0000   0.0000   0.0000   0.0000

          k = 0.2500 0.5319 0.0000 ( 10774 PWs)   bands (ev):

   -62.5298 -36.8059 -36.6979 -36.6263 -13.6981 -13.5742  -6.8962  -6.6241
    -5.4659  -4.8787  -4.6962  -3.6235  -1.8853   0.2148   1.4661   1.5842

     occupation numbers 
     1.0000   1.0000   1.0000   1.0000   1.0000   1.0000   1.0000   1.0000
     1.0000   1.0000   1.0000   1.0000   1.0000   0.0000   0.0000   0.0000

          k = 0.2500-0.0484 0.0000 ( 10870 PWs)   bands (ev):

   -62.5551 -36.6765 -36.6541 -36.5438 -15.0788 -14.1669  -6.6471  -5.3474
    -4.8876  -4.2435  -3.6638  -2.6838  -2.2122   0.4211   0.7747   0.8841

     occupation numbers 
     1.0000   1.0000   1.0000   1.0000   1.0000   1.0000   1.0000   1.0000
     1.0000   1.0000   1.0000   1.0000   1.0000   0.0000   0.0000   0.0000

          k = 0.3333 0.1934 0.0000 ( 10828 PWs)   bands (ev):

   -62.5427 -36.7805 -36.6517 -36.5680 -14.4431 -13.9118  -6.8760  -5.8203
    -5.5672  -4.4940  -3.2882  -3.0378  -2.6358   0.5226   0.6476   1.6915

     occupation numbers 
     1.0000   1.0000   1.0000   1.0000   1.0000   1.0000   1.0000   1.0000
     1.0000   1.0000   1.0000   1.0000   1.0000   0.0000   0.0000   0.0000

          k = 0.3333 0.2901 0.0000 ( 10820 PWs)   bands (ev):

   -62.5381 -36.8138 -36.6425 -36.5904 -14.1815 -13.8038  -7.0136  -6.1196
    -5.5493  -4.7623  -3.2898  -3.2830  -2.4294   0.4828   0.8397   1.7397

     occupation numbers 
     1.0000   1.0000   1.0000   1.0000   1.0000   1.0000   1.0000   1.0000
     1.0000   1.0000   1.0000   1.0000   1.0000   0.0000   0.0000   0.0000

          k = 0.3333 0.3868 0.0000 ( 10799 PWs)   bands (ev):

   -62.5335 -36.8241 -36.6364 -36.6333 -13.9086 -13.6809  -6.9507  -6.5229
    -5.4889  -4.8548  -4.0106  -3.3720  -2.1815   0.5168   1.0929   1.6469

     occupation numbers 
     1.0000   1.0000   1.0000   1.0000   1.0000   1.0000   1.0000   1.0000
     1.0000   1.0000   1.0000   1.0000   1.0000   0.0000   0.0000   0.0000

          k = 0.3333 0.4835 0.0000 ( 10768 PWs)   bands (ev):

   -62.5300 -36.8070 -36.6950 -36.6266 -13.7027 -13.5790  -6.8913  -6.6258
    -5.4739  -4.8639  -4.6885  -3.6265  -1.8890   0.2122   1.4679   1.5788

     occupation numbers 
     1.0000   1.0000   1.0000   1.0000   1.0000   1.0000   1.0000   1.0000
     1.0000   1.0000   1.0000   1.0000   1.0000   0.0000   0.0000   0.0000

          k = 0.3333 0.5802 0.0000 ( 10772 PWs)   bands (ev):

   -62.5288 -36.7794 -36.7378 -36.6241 -13.6263 -13.5388  -7.0359  -6.2294
    -5.7150  -5.2185  -4.5320  -3.8130  -1.6932  -0.0317   1.3795   1.8311

     occupation numbers 
     1.0000   1.0000   1.0000   1.0000   1.0000   1.0000   1.0000   1.0000
     1.0000   1.0000   1.0000   1.0000   1.0000   0.0000   0.0000   0.0000

          k = 0.3333-0.0967 0.0000 ( 10862 PWs)   bands (ev):

   -62.5461 -36.7393 -36.6585 -36.5688 -14.6270 -13.9830  -6.6679  -5.5336
    -5.5236  -4.5936  -3.4270  -2.9737  -2.5061   0.3634   0.7153   1.2837

     occupation numbers 
     1.0000   1.0000   1.0000   1.0000   1.0000   1.0000   1.0000   1.0000
     1.0000   1.0000   1.0000   1.0000   1.0000   0.0000   0.0000   0.0000

          k = 0.3333-0.0000 0.0000 ( 10853 PWs)   bands (ev):

   -62.5473 -36.7183 -36.6609 -36.5752 -14.6928 -14.0076  -6.5649  -5.4849
    -5.3124  -4.8272  -3.6458  -2.7225  -2.4451   0.2583   0.7669   0.9964

     occupation numbers 
     1.0000   1.0000   1.0000   1.0000   1.0000   1.0000   1.0000   1.0000
     1.0000   1.0000   1.0000   1.0000   1.0000   0.0000   0.0000   0.0000

          k = 0.4167 0.2418 0.0000 ( 10800 PWs)   bands (ev):

   -62.5361 -36.8449 -36.6384 -36.5831 -14.0500 -13.7599  -7.2485  -6.2582
    -5.6494  -4.7266  -3.4757  -2.7472  -2.4730   0.5122   0.9037   2.0570

     occupation numbers 
     1.0000   1.0000   1.0000   1.0000   1.0000   1.0000   1.0000   1.0000
     1.0000   1.0000   1.0000   1.0000   1.0000   0.0000   0.0000   0.0000

          k = 0.4167 0.3385 0.0000 ( 10785 PWs)   bands (ev):

   -62.5336 -36.8554 -36.6335 -36.6025 -13.8984 -13.6946  -7.2707  -6.4558
    -5.6618  -4.8157  -3.4919  -3.1620  -2.1884   0.5520   1.0494   2.1368

     occupation numbers 
     1.0000   1.0000   1.0000   1.0000   1.0000   1.0000   1.0000   1.0000
     1.0000   1.0000   1.0000   1.0000   1.0000   0.0000   0.0000   0.0000

          k = 0.4167 0.4352 0.0000 ( 10790 PWs)   bands (ev):

   -62.5315 -36.8390 -36.6458 -36.6293 -13.7742 -13.6269  -7.0157  -6.7083
    -5.6031  -4.7807  -4.0160  -3.5492  -1.9975   0.4254   1.3257   1.8093

     occupation numbers 
     1.0000   1.0000   1.0000   1.0000   1.0000   1.0000   1.0000   1.0000
     1.0000   1.0000   1.0000   1.0000   1.0000   0.0000   0.0000   0.0000

          k = 0.4167 0.5319 0.0000 ( 10780 PWs)   bands (ev):

   -62.5302 -36.8061 -36.6946 -36.6268 -13.7067 -13.5824  -6.8874  -6.6164
    -5.4734  -4.8735  -4.6816  -3.6324  -1.8785   0.2006   1.4711   1.5651

     occupation numbers 
     1.0000   1.0000   1.0000   1.0000   1.0000   1.0000   1.0000   1.0000
     1.0000   1.0000   1.0000   1.0000   1.0000   0.0000   0.0000   0.0000

          k = 0.4167-0.1451 0.0000 ( 10817 PWs)   bands (ev):

   -62.5382 -36.8126 -36.6427 -36.5902 -14.1854 -13.8067  -7.0067  -6.1159
    -5.5486  -4.7554  -3.3033  -3.2985  -2.4074   0.4876   0.8122   1.7660

     occupation numbers 
     1.0000   1.0000   1.0000   1.0000   1.0000   1.0000   1.0000   1.0000
     1.0000   1.0000   1.0000   1.0000   1.0000   0.0000   0.0000   0.0000

          k = 0.4167-0.0484 0.0000 ( 10831 PWs)   bands (ev):

   -62.5395 -36.7789 -36.6452 -36.6099 -14.2645 -13.8301  -6.7454  -5.9978
    -5.3909  -4.9269  -3.9112  -3.0205  -2.4027   0.4041   0.8250   1.3218

     occupation numbers 
     1.0000   1.0000   1.0000   1.0000   1.0000   1.0000   1.0000   1.0000
     1.0000   1.0000   1.0000   1.0000   1.0000   0.0000   0.0000   0.0000

          k =-0.5000-0.2901 0.0000 ( 10784 PWs)   bands (ev):

   -62.5336 -36.8683 -36.6336 -36.5885 -13.8929 -13.7010  -7.4069  -6.4200
    -5.7179  -4.8068  -3.5361  -2.6472  -2.3113   0.5364   1.0451   2.1771

     occupation numbers 
     1.0000   1.0000   1.0000   1.0000   1.0000   1.0000   1.0000   1.0000
     1.0000   1.0000   1.0000   1.0000   1.0000   0.0000   0.0000   0.0000

          k =-0.5000-0.1934 0.0000 ( 10771 PWs)   bands (ev):

   -62.5336 -36.8550 -36.6336 -36.6025 -13.9000 -13.6957  -7.2672  -6.4545
    -5.6623  -4.8120  -3.4961  -3.1702  -2.1775   0.5501   1.0377   2.1585

     occupation numbers 
     1.0000   1.0000   1.0000   1.0000   1.0000   1.0000   1.0000   1.0000
     1.0000   1.0000   1.0000   1.0000   1.0000   0.0000   0.0000   0.0000

          k =-0.5000-0.0967 0.0000 ( 10788 PWs)   bands (ev):

   -62.5337 -36.8225 -36.6361 -36.6336 -13.9142 -13.6851  -6.9393  -6.5178
    -5.4882  -4.8462  -4.0282  -3.3810  -2.1610   0.5093   1.0650   1.6617

     occupation numbers 
     1.0000   1.0000   1.0000   1.0000   1.0000   1.0000   1.0000   1.0000
     1.0000   1.0000   1.0000   1.0000   1.0000   0.0000   0.0000   0.0000

          k =-0.5000 0.0000 0.0000 ( 10815 PWs)   bands (ev):

   -62.5337 -36.8008 -36.6585 -36.6336 -13.9212 -13.6798  -6.7405  -6.5470
    -5.2682  -4.8722  -4.5807  -3.3076  -2.1792   0.4705   1.0891   1.4189

     occupation numbers 
     1.0000   1.0000   1.0000   1.0000   1.0000   1.0000   1.0000   1.0000
     1.0000   1.0000   1.0000   1.0000   1.0000   0.0000   0.0000   0.0000

     highest occupied, lowest unoccupied level (ev):    -1.6667   -0.0317

!    total energy              =    -181.57958839 Ry
     estimated scf accuracy    <          3.1E-13 Ry

     The total energy is the sum of the following terms:
     one-electron contribution =   -1373.66664560 Ry
     hartree contribution      =     686.37437343 Ry
     xc contribution           =     -29.67767804 Ry
     ewald contribution        =     535.39036183 Ry

     convergence has been achieved in  11 iterations

     negative rho (up, down):  3.871E-04 0.000E+00

     Forces acting on atoms (cartesian axes, Ry/au):

     atom    1 type  1   force =     0.00000000    0.00046416    0.00000000
     atom    2 type  2   force =     0.00000000   -0.00023208   -0.00117785
     atom    3 type  2   force =     0.00000000   -0.00023208    0.00117785
     The non-local contrib.  to forces
     atom    1 type  1   force =     0.00000000   -0.00006622    0.00000000
     atom    2 type  2   force =     0.00000000    0.00000600   -0.27466750
     atom    3 type  2   force =     0.00000000    0.00000600    0.27466750
     The ionic contribution  to forces
     atom    1 type  1   force =     0.00000000    0.04909769    0.00000000
     atom    2 type  2   force =    -0.00000000   -0.02454885   37.02854248
     atom    3 type  2   force =    -0.00000000   -0.02454885  -37.02854248
     The local contribution  to forces
     atom    1 type  1   force =    -0.00000000   -0.04860720    0.00000000
     atom    2 type  2   force =    -0.00000000    0.02428286  -36.75762493
     atom    3 type  2   force =    -0.00000000    0.02428286   36.75762493
     The core correction contribution to forces
     atom    1 type  1   force =     0.00000000    0.00003945   -0.00000000
     atom    2 type  2   force =     0.00000000    0.00002781    0.00257097
     atom    3 type  2   force =     0.00000000    0.00002781   -0.00257097
     The Hubbard contrib.    to forces
     atom    1 type  1   force =     0.00000000    0.00000000    0.00000000
     atom    2 type  2   force =     0.00000000    0.00000000    0.00000000
     atom    3 type  2   force =     0.00000000    0.00000000    0.00000000
     The SCF correction term to forces
     atom    1 type  1   force =     0.00000000    0.00000030    0.00000000
     atom    2 type  2   force =    -0.00000000   -0.00000004    0.00000113
     atom    3 type  2   force =    -0.00000000   -0.00000004   -0.00000113

     Total force =     0.001760     Total SCF correction =     0.000002


     Computing stress (Cartesian axis) and pressure


     negative rho (up, down):  3.871E-04 0.000E+00
          total   stress  (Ry/bohr**3)                   (kbar)     P=       -1.84
  -0.00002091   0.00000000   0.00000000           -3.08        0.00        0.00
   0.00000000  -0.00000621   0.00000000            0.00       -0.91        0.00
   0.00000000   0.00000000  -0.00001032            0.00        0.00       -1.52

     kinetic stress (kbar)   4839.68     -0.00      0.00
                               -0.00   4843.69      0.00
                                0.00      0.00   4890.46

     local   stress (kbar)-145558.88      0.00      0.00
                                0.00-145586.16     -0.00
                                0.00     -0.00 142533.32

     nonloc. stress (kbar)   2216.84     -0.00      0.00
                               -0.00   2216.30      0.00
                                0.00      0.00   2206.03

     hartree stress (kbar)  71385.94      0.00     -0.00
                                0.00  71394.73     -0.00
                               -0.00     -0.00 -69600.13

     exc-cor stress (kbar)   -411.14     -0.00     -0.00
                               -0.00   -411.09      0.00
                               -0.00      0.00   -412.18

     corecor stress (kbar)   -545.09      0.00     -0.00
                                0.00   -545.10     -0.00
                               -0.00     -0.00   -545.52

     ewald   stress (kbar)  68069.57     -0.00     -0.00
                               -0.00  68086.71     -0.00
                               -0.00     -0.00 -79073.50

     hubbard stress (kbar)      0.00      0.00      0.00
                                0.00      0.00      0.00
                                0.00      0.00      0.00

     DFT-D   stress (kbar)      0.00      0.00      0.00
                                0.00      0.00      0.00
                                0.00      0.00      0.00

     XDM     stress (kbar)      0.00      0.00      0.00
                                0.00      0.00      0.00
                                0.00      0.00      0.00

     dft-nl  stress (kbar)      0.00      0.00      0.00
                                0.00      0.00      0.00
                                0.00      0.00      0.00

     TS-vdW  stress (kbar)      0.00      0.00      0.00
                                0.00      0.00      0.00
                                0.00      0.00      0.00

     MDB     stress (kbar)      0.00      0.00      0.00
                                0.00      0.00      0.00
                                0.00      0.00      0.00

     3D-RISM stress (kbar)      0.00      0.00      0.00
                                0.00      0.00      0.00
                                0.00      0.00      0.00

     Energy error            =      7.2E-06 Ry
     Gradient error          =      1.2E-03 Ry/Bohr

     number of scf cycles    =   2
     number of bfgs steps    =   1

     energy             old  =    -181.5795811645 Ry
     energy             new  =    -181.5795883873 Ry

     CASE: energy            _new < energy            _old

     new trust radius        =       0.0021766801 bohr
     new conv_thr            =            1.0E-12 Ry


ATOMIC_POSITIONS (crystal)
Mo               0.0001934057        0.0003868113        0.5000000000
S                0.6665699638        0.3331399277        0.5673900237
S                0.6665699638        0.3331399277        0.4326099763



     Writing config-only to output data dir ./tmp/mos2.save/ :
     XML data file
     NEW-OLD atomic charge density approx. for the potential

     negative rho (up, down):  3.873E-04 0.000E+00

     total cpu time spent up to now is      313.0 secs

     Self-consistent Calculation

     iteration #  1     ecut=    60.00 Ry     beta= 0.30
     CG style diagonalization

---- Real-time Memory Report at c_bands before calling an iterative solver
           210 MiB given to the printing process from OS
             0 MiB allocation reported by mallinfo(arena+hblkhd)
          2354 MiB available memory on the node where the printing process lives
------------------
     ethr =  1.00E-06,  avg # of iterations =  3.1

     Threshold (ethr) on eigenvalues was too large:
     Diagonalizing with lowered threshold

     CG style diagonalization

---- Real-time Memory Report at c_bands before calling an iterative solver
           210 MiB given to the printing process from OS
             0 MiB allocation reported by mallinfo(arena+hblkhd)
          2962 MiB available memory on the node where the printing process lives
------------------
     ethr =  3.95E-09,  avg # of iterations =  6.8

     negative rho (up, down):  3.873E-04 0.000E+00

     total cpu time spent up to now is      333.1 secs

     total energy              =    -181.57959181 Ry
     estimated scf accuracy    <       0.00000054 Ry

     iteration #  2     ecut=    60.00 Ry     beta= 0.30
     CG style diagonalization

---- Real-time Memory Report at c_bands before calling an iterative solver
           210 MiB given to the printing process from OS
             0 MiB allocation reported by mallinfo(arena+hblkhd)
          2431 MiB available memory on the node where the printing process lives
------------------
     ethr =  2.09E-09,  avg # of iterations =  3.8

     negative rho (up, down):  3.873E-04 0.000E+00

     total cpu time spent up to now is      340.8 secs

     total energy              =    -181.57959191 Ry
     estimated scf accuracy    <       0.00000035 Ry

     iteration #  3     ecut=    60.00 Ry     beta= 0.30
     CG style diagonalization

---- Real-time Memory Report at c_bands before calling an iterative solver
           210 MiB given to the printing process from OS
             0 MiB allocation reported by mallinfo(arena+hblkhd)
          2509 MiB available memory on the node where the printing process lives
------------------
     ethr =  1.35E-09,  avg # of iterations =  3.2

     negative rho (up, down):  3.873E-04 0.000E+00

     total cpu time spent up to now is      347.9 secs

     total energy              =    -181.57959194 Ry
     estimated scf accuracy    <       0.00000005 Ry

     iteration #  4     ecut=    60.00 Ry     beta= 0.30
     CG style diagonalization

---- Real-time Memory Report at c_bands before calling an iterative solver
           210 MiB given to the printing process from OS
             0 MiB allocation reported by mallinfo(arena+hblkhd)
          2198 MiB available memory on the node where the printing process lives
------------------
     ethr =  1.87E-10,  avg # of iterations =  4.4

     negative rho (up, down):  3.873E-04 0.000E+00

     total cpu time spent up to now is      356.4 secs

     total energy              =    -181.57959195 Ry
     estimated scf accuracy    <       0.00000005 Ry

     iteration #  5     ecut=    60.00 Ry     beta= 0.30
     CG style diagonalization

---- Real-time Memory Report at c_bands before calling an iterative solver
           210 MiB given to the printing process from OS
             0 MiB allocation reported by mallinfo(arena+hblkhd)
          1524 MiB available memory on the node where the printing process lives
------------------
     ethr =  1.76E-10,  avg # of iterations =  3.3

     negative rho (up, down):  3.873E-04 0.000E+00

     total cpu time spent up to now is      363.3 secs

     total energy              =    -181.57959195 Ry
     estimated scf accuracy    <          1.0E-09 Ry

     iteration #  6     ecut=    60.00 Ry     beta= 0.30
     CG style diagonalization

---- Real-time Memory Report at c_bands before calling an iterative solver
           210 MiB given to the printing process from OS
             0 MiB allocation reported by mallinfo(arena+hblkhd)
          1705 MiB available memory on the node where the printing process lives
------------------
     ethr =  3.98E-12,  avg # of iterations =  5.1

     negative rho (up, down):  3.873E-04 0.000E+00

     total cpu time spent up to now is      373.6 secs

     total energy              =    -181.57959195 Ry
     estimated scf accuracy    <          1.9E-09 Ry

     iteration #  7     ecut=    60.00 Ry     beta= 0.30
     CG style diagonalization

---- Real-time Memory Report at c_bands before calling an iterative solver
           210 MiB given to the printing process from OS
             0 MiB allocation reported by mallinfo(arena+hblkhd)
          2145 MiB available memory on the node where the printing process lives
------------------
     ethr =  3.98E-12,  avg # of iterations =  3.1

     negative rho (up, down):  3.873E-04 0.000E+00

     total cpu time spent up to now is      379.9 secs

     total energy              =    -181.57959195 Ry
     estimated scf accuracy    <          3.3E-10 Ry

     iteration #  8     ecut=    60.00 Ry     beta= 0.30
     CG style diagonalization

---- Real-time Memory Report at c_bands before calling an iterative solver
           210 MiB given to the printing process from OS
             0 MiB allocation reported by mallinfo(arena+hblkhd)
          2316 MiB available memory on the node where the printing process lives
------------------
     ethr =  1.29E-12,  avg # of iterations =  3.9

     negative rho (up, down):  3.873E-04 0.000E+00

     total cpu time spent up to now is      387.8 secs

     total energy              =    -181.57959195 Ry
     estimated scf accuracy    <          2.0E-11 Ry

     iteration #  9     ecut=    60.00 Ry     beta= 0.30
     CG style diagonalization

---- Real-time Memory Report at c_bands before calling an iterative solver
           210 MiB given to the printing process from OS
             0 MiB allocation reported by mallinfo(arena+hblkhd)
          1912 MiB available memory on the node where the printing process lives
------------------
     ethr =  1.00E-13,  avg # of iterations =  4.0

     negative rho (up, down):  3.873E-04 0.000E+00

     total cpu time spent up to now is      395.6 secs

     total energy              =    -181.57959195 Ry
     estimated scf accuracy    <          3.7E-11 Ry

     iteration # 10     ecut=    60.00 Ry     beta= 0.30
     CG style diagonalization

---- Real-time Memory Report at c_bands before calling an iterative solver
           210 MiB given to the printing process from OS
             0 MiB allocation reported by mallinfo(arena+hblkhd)
          2072 MiB available memory on the node where the printing process lives
------------------
     ethr =  1.00E-13,  avg # of iterations =  3.2

     negative rho (up, down):  3.873E-04 0.000E+00

     total cpu time spent up to now is      402.7 secs

     total energy              =    -181.57959195 Ry
     estimated scf accuracy    <          4.5E-12 Ry

     iteration # 11     ecut=    60.00 Ry     beta= 0.30
     CG style diagonalization

---- Real-time Memory Report at c_bands before calling an iterative solver
           210 MiB given to the printing process from OS
             0 MiB allocation reported by mallinfo(arena+hblkhd)
          2087 MiB available memory on the node where the printing process lives
------------------
     ethr =  1.00E-13,  avg # of iterations =  3.0

     negative rho (up, down):  3.873E-04 0.000E+00

     total cpu time spent up to now is      409.4 secs

     End of self-consistent calculation

          k = 0.0000 0.0000 0.0000 ( 10891 PWs)   bands (ev):

   -62.5698 -36.7062 -36.5124 -36.5047 -15.7318 -14.4334  -7.2545  -4.3119
    -4.2596  -3.4266  -3.2010  -3.1692  -1.6634   1.0512   1.0774   1.2882

     occupation numbers 
     1.0000   1.0000   1.0000   1.0000   1.0000   1.0000   1.0000   1.0000
     1.0000   1.0000   1.0000   1.0000   1.0000   0.0000   0.0000   0.0000

          k = 0.0000 0.0967 0.0000 ( 10887 PWs)   bands (ev):

   -62.5674 -36.7013 -36.5297 -36.5182 -15.6302 -14.3911  -7.1382  -4.4894
    -4.2056  -3.9162  -3.3647  -2.8347  -1.7154   0.9401   1.0591   1.1732

     occupation numbers 
     1.0000   1.0000   1.0000   1.0000   1.0000   1.0000   1.0000   1.0000
     1.0000   1.0000   1.0000   1.0000   1.0000   0.0000   0.0000   0.0000

          k = 0.0000 0.1934 0.0000 ( 10879 PWs)   bands (ev):

   -62.5607 -36.6880 -36.5976 -36.5340 -15.3412 -14.2712  -6.8458  -5.0157
    -4.5573  -3.9093  -3.7503  -2.7439  -1.9481   0.6324   0.8799   0.9061

     occupation numbers 
     1.0000   1.0000   1.0000   1.0000   1.0000   1.0000   1.0000   1.0000
     1.0000   1.0000   1.0000   1.0000   1.0000   0.0000   0.0000   0.0000

          k = 0.0000 0.2901 0.0000 ( 10879 PWs)   bands (ev):

   -62.5515 -36.6891 -36.6696 -36.5554 -14.9140 -14.0949  -6.6365  -5.4617
    -5.2115  -4.1824  -3.4946  -2.9844  -2.3746   0.5018   0.6420   1.2002

     occupation numbers 
     1.0000   1.0000   1.0000   1.0000   1.0000   1.0000   1.0000   1.0000
     1.0000   1.0000   1.0000   1.0000   1.0000   0.0000   0.0000   0.0000

          k = 0.0000 0.3868 0.0000 ( 10849 PWs)   bands (ev):

   -62.5423 -36.7793 -36.6512 -36.5767 -14.4358 -13.9010  -6.8789  -5.8190
    -5.5490  -4.5460  -3.2760  -3.0807  -2.6216   0.5032   0.6568   1.6872

     occupation numbers 
     1.0000   1.0000   1.0000   1.0000   1.0000   1.0000   1.0000   1.0000
     1.0000   1.0000   1.0000   1.0000   1.0000   0.0000   0.0000   0.0000

          k = 0.0000 0.4835 0.0000 ( 10801 PWs)   bands (ev):

   -62.5354 -36.8445 -36.6377 -36.5923 -14.0393 -13.7451  -7.2464  -6.2644
    -5.6414  -4.7820  -3.4591  -2.7944  -2.4534   0.5074   0.9112   2.0486

     occupation numbers 
     1.0000   1.0000   1.0000   1.0000   1.0000   1.0000   1.0000   1.0000
     1.0000   1.0000   1.0000   1.0000   1.0000   0.0000   0.0000   0.0000

          k = 0.0000-0.5802 0.0000 ( 10796 PWs)   bands (ev):

   -62.5330 -36.8683 -36.6328 -36.5979 -13.8808 -13.6845  -7.4023  -6.4294
    -5.7156  -4.8634  -3.5173  -2.6973  -2.2878   0.5390   1.0533   2.1661

     occupation numbers 
     1.0000   1.0000   1.0000   1.0000   1.0000   1.0000   1.0000   1.0000
     1.0000   1.0000   1.0000   1.0000   1.0000   0.0000   0.0000   0.0000

          k = 0.0833 0.0484 0.0000 ( 10885 PWs)   bands (ev):

   -62.5674 -36.7014 -36.5356 -36.5118 -15.6310 -14.3920  -7.1391  -4.5248
    -4.1661  -3.9275  -3.3377  -2.8483  -1.7179   0.9277   1.0266   1.2083

     occupation numbers 
     1.0000   1.0000   1.0000   1.0000   1.0000   1.0000   1.0000   1.0000
     1.0000   1.0000   1.0000   1.0000   1.0000   0.0000   0.0000   0.0000

          k = 0.0833 0.1451 0.0000 ( 10871 PWs)   bands (ev):

   -62.5628 -36.6923 -36.5771 -36.5275 -15.4356 -14.3109  -6.9310  -4.8721
    -4.3489  -3.9971  -3.7260  -2.6510  -1.8618   0.7153   0.7898   0.9890

     occupation numbers 
     1.0000   1.0000   1.0000   1.0000   1.0000   1.0000   1.0000   1.0000
     1.0000   1.0000   1.0000   1.0000   1.0000   0.0000   0.0000   0.0000

          k = 0.0833 0.2418 0.0000 ( 10864 PWs)   bands (ev):

   -62.5549 -36.6764 -36.6522 -36.5507 -15.0766 -14.1618  -6.6489  -5.3370
    -4.8844  -4.2721  -3.6953  -2.6785  -2.2055   0.4273   0.7678   0.8647

     occupation numbers 
     1.0000   1.0000   1.0000   1.0000   1.0000   1.0000   1.0000   1.0000
     1.0000   1.0000   1.0000   1.0000   1.0000   0.0000   0.0000   0.0000

          k = 0.0833 0.3385 0.0000 ( 10861 PWs)   bands (ev):

   -62.5457 -36.7387 -36.6581 -36.5764 -14.6204 -13.9738  -6.6750  -5.5342
    -5.5094  -4.6311  -3.4452  -2.9660  -2.5124   0.3544   0.7269   1.2608

     occupation numbers 
     1.0000   1.0000   1.0000   1.0000   1.0000   1.0000   1.0000   1.0000
     1.0000   1.0000   1.0000   1.0000   1.0000   0.0000   0.0000   0.0000

          k = 0.0833 0.4352 0.0000 ( 10822 PWs)   bands (ev):

   -62.5377 -36.8127 -36.6421 -36.5985 -14.1753 -13.7937  -7.0124  -6.1238
    -5.5365  -4.7994  -3.3187  -3.2851  -2.4204   0.4794   0.8351   1.7418

     occupation numbers 
     1.0000   1.0000   1.0000   1.0000   1.0000   1.0000   1.0000   1.0000
     1.0000   1.0000   1.0000   1.0000   1.0000   0.0000   0.0000   0.0000

          k = 0.0833 0.5319 0.0000 ( 10796 PWs)   bands (ev):

   -62.5330 -36.8551 -36.6329 -36.6112 -13.8886 -13.6806  -7.2664  -6.4669
    -5.6584  -4.8590  -3.4791  -3.1972  -2.1770   0.5546   1.0532   2.1351

     occupation numbers 
     1.0000   1.0000   1.0000   1.0000   1.0000   1.0000   1.0000   1.0000
     1.0000   1.0000   1.0000   1.0000   1.0000   0.0000   0.0000   0.0000

          k = 0.1667 0.0967 0.0000 ( 10871 PWs)   bands (ev):

   -62.5608 -36.6883 -36.6022 -36.5274 -15.3446 -14.2747  -6.8484  -5.0416
    -4.5712  -3.8728  -3.7160  -2.7547  -1.9577   0.6090   0.8786   0.9414

     occupation numbers 
     1.0000   1.0000   1.0000   1.0000   1.0000   1.0000   1.0000   1.0000
     1.0000   1.0000   1.0000   1.0000   1.0000   0.0000   0.0000   0.0000

          k = 0.1667 0.1934 0.0000 ( 10859 PWs)   bands (ev):

   -62.5550 -36.6766 -36.6545 -36.5469 -15.0790 -14.1646  -6.6498  -5.3509
    -4.8977  -4.2482  -3.6758  -2.6799  -2.2131   0.4233   0.7828   0.8619

     occupation numbers 
     1.0000   1.0000   1.0000   1.0000   1.0000   1.0000   1.0000   1.0000
     1.0000   1.0000   1.0000   1.0000   1.0000   0.0000   0.0000   0.0000

          k = 0.1667 0.2901 0.0000 ( 10850 PWs)   bands (ev):

   -62.5471 -36.7193 -36.6607 -36.5797 -14.6885 -14.0016  -6.5732  -5.4867
    -5.3248  -4.8393  -3.6424  -2.7156  -2.4605   0.2566   0.7859   0.9676

     occupation numbers 
     1.0000   1.0000   1.0000   1.0000   1.0000   1.0000   1.0000   1.0000
     1.0000   1.0000   1.0000   1.0000   1.0000   0.0000   0.0000   0.0000

          k = 0.1667 0.3868 0.0000 ( 10823 PWs)   bands (ev):

   -62.5391 -36.7803 -36.6448 -36.6154 -14.2565 -13.8206  -6.7599  -6.0114
    -5.3852  -4.9484  -3.9061  -3.0112  -2.4259   0.4017   0.8573   1.2976

     occupation numbers 
     1.0000   1.0000   1.0000   1.0000   1.0000   1.0000   1.0000   1.0000
     1.0000   1.0000   1.0000   1.0000   1.0000   0.0000   0.0000   0.0000

          k = 0.1667 0.4835 0.0000 ( 10793 PWs)   bands (ev):

   -62.5332 -36.8234 -36.6427 -36.6331 -13.9049 -13.6737  -6.9490  -6.5340
    -5.4817  -4.8737  -4.0392  -3.3682  -2.1742   0.5188   1.0923   1.6469

     occupation numbers 
     1.0000   1.0000   1.0000   1.0000   1.0000   1.0000   1.0000   1.0000
     1.0000   1.0000   1.0000   1.0000   1.0000   0.0000   0.0000   0.0000

          k = 0.1667 0.5802 0.0000 ( 10790 PWs)   bands (ev):

   -62.5310 -36.8389 -36.6528 -36.6288 -13.7666 -13.6162  -7.0158  -6.7240
    -5.6009  -4.8080  -4.0402  -3.5373  -1.9937   0.4316   1.3404   1.8054

     occupation numbers 
     1.0000   1.0000   1.0000   1.0000   1.0000   1.0000   1.0000   1.0000
     1.0000   1.0000   1.0000   1.0000   1.0000   0.0000   0.0000   0.0000

          k = 0.1667-0.0000 0.0000 ( 10897 PWs)   bands (ev):

   -62.5630 -36.6925 -36.5807 -36.5226 -15.4382 -14.3134  -6.9332  -4.8925
    -4.3538  -3.9682  -3.7113  -2.6561  -1.8669   0.7012   0.7995   1.0055

     occupation numbers 
     1.0000   1.0000   1.0000   1.0000   1.0000   1.0000   1.0000   1.0000
     1.0000   1.0000   1.0000   1.0000   1.0000   0.0000   0.0000   0.0000

          k = 0.2500 0.1451 0.0000 ( 10862 PWs)   bands (ev):

   -62.5519 -36.6925 -36.6702 -36.5481 -14.9211 -14.1027  -6.6382  -5.4852
    -5.2229  -4.1409  -3.4593  -2.9927  -2.3890   0.4890   0.6737   1.2039

     occupation numbers 
     1.0000   1.0000   1.0000   1.0000   1.0000   1.0000   1.0000   1.0000
     1.0000   1.0000   1.0000   1.0000   1.0000   0.0000   0.0000   0.0000

          k = 0.2500 0.2418 0.0000 ( 10861 PWs)   bands (ev):

   -62.5461 -36.7413 -36.6586 -36.5705 -14.6266 -13.9810  -6.6767  -5.5438
    -5.5301  -4.6002  -3.4155  -2.9660  -2.5240   0.3609   0.7366   1.2583

     occupation numbers 
     1.0000   1.0000   1.0000   1.0000   1.0000   1.0000   1.0000   1.0000
     1.0000   1.0000   1.0000   1.0000   1.0000   0.0000   0.0000   0.0000

          k = 0.2500 0.3385 0.0000 ( 10821 PWs)   bands (ev):

   -62.5393 -36.7817 -36.6451 -36.6121 -14.2601 -13.8252  -6.7622  -6.0116
    -5.3967  -4.9374  -3.8893  -3.0101  -2.4299   0.4029   0.8610   1.2982

     occupation numbers 
     1.0000   1.0000   1.0000   1.0000   1.0000   1.0000   1.0000   1.0000
     1.0000   1.0000   1.0000   1.0000   1.0000   0.0000   0.0000   0.0000

          k = 0.2500 0.4352 0.0000 ( 10817 PWs)   bands (ev):

   -62.5334 -36.8033 -36.6615 -36.6334 -13.9154 -13.6733  -6.7596  -6.5620
    -5.2733  -4.8865  -4.5645  -3.2968  -2.2024   0.4830   1.1212   1.4084

     occupation numbers 
     1.0000   1.0000   1.0000   1.0000   1.0000   1.0000   1.0000   1.0000
     1.0000   1.0000   1.0000   1.0000   1.0000   0.0000   0.0000   0.0000

          k = 0.2500 0.5319 0.0000 ( 10774 PWs)   bands (ev):

   -62.5300 -36.8068 -36.6989 -36.6267 -13.7026 -13.5767  -6.9015  -6.6272
    -5.4694  -4.8815  -4.6975  -3.6214  -1.8876   0.2124   1.4703   1.5863

     occupation numbers 
     1.0000   1.0000   1.0000   1.0000   1.0000   1.0000   1.0000   1.0000
     1.0000   1.0000   1.0000   1.0000   1.0000   0.0000   0.0000   0.0000

          k = 0.2500-0.0484 0.0000 ( 10870 PWs)   bands (ev):

   -62.5552 -36.6769 -36.6551 -36.5445 -15.0829 -14.1682  -6.6518  -5.3517
    -4.8914  -4.2471  -3.6705  -2.6829  -2.2127   0.4251   0.7759   0.8856

     occupation numbers 
     1.0000   1.0000   1.0000   1.0000   1.0000   1.0000   1.0000   1.0000
     1.0000   1.0000   1.0000   1.0000   1.0000   0.0000   0.0000   0.0000

          k = 0.3333 0.1934 0.0000 ( 10828 PWs)   bands (ev):

   -62.5428 -36.7816 -36.6521 -36.5688 -14.4471 -13.9140  -6.8814  -5.8226
    -5.5697  -4.4989  -3.2865  -3.0433  -2.6373   0.5226   0.6501   1.6943

     occupation numbers 
     1.0000   1.0000   1.0000   1.0000   1.0000   1.0000   1.0000   1.0000
     1.0000   1.0000   1.0000   1.0000   1.0000   0.0000   0.0000   0.0000

          k = 0.3333 0.2901 0.0000 ( 10820 PWs)   bands (ev):

   -62.5382 -36.8149 -36.6429 -36.5912 -14.1856 -13.8063  -7.0184  -6.1226
    -5.5518  -4.7655  -3.2891  -3.2874  -2.4315   0.4831   0.8404   1.7436

     occupation numbers 
     1.0000   1.0000   1.0000   1.0000   1.0000   1.0000   1.0000   1.0000
     1.0000   1.0000   1.0000   1.0000   1.0000   0.0000   0.0000   0.0000

          k = 0.3333 0.3868 0.0000 ( 10799 PWs)   bands (ev):

   -62.5336 -36.8251 -36.6372 -36.6337 -13.9128 -13.6835  -6.9549  -6.5270
    -5.4915  -4.8562  -4.0139  -3.3712  -2.1841   0.5166   1.0928   1.6510

     occupation numbers 
     1.0000   1.0000   1.0000   1.0000   1.0000   1.0000   1.0000   1.0000
     1.0000   1.0000   1.0000   1.0000   1.0000   0.0000   0.0000   0.0000

          k = 0.3333 0.4835 0.0000 ( 10768 PWs)   bands (ev):

   -62.5302 -36.8080 -36.6959 -36.6270 -13.7070 -13.5818  -6.8961  -6.6292
    -5.4768  -4.8669  -4.6891  -3.6254  -1.8915   0.2096   1.4721   1.5805

     occupation numbers 
     1.0000   1.0000   1.0000   1.0000   1.0000   1.0000   1.0000   1.0000
     1.0000   1.0000   1.0000   1.0000   1.0000   0.0000   0.0000   0.0000

          k = 0.3333 0.5802 0.0000 ( 10772 PWs)   bands (ev):

   -62.5290 -36.7805 -36.7387 -36.6245 -13.6306 -13.5416  -7.0409  -6.2321
    -5.7183  -5.2216  -4.5325  -3.8115  -1.6953  -0.0355   1.3837   1.8338

     occupation numbers 
     1.0000   1.0000   1.0000   1.0000   1.0000   1.0000   1.0000   1.0000
     1.0000   1.0000   1.0000   1.0000   1.0000   0.0000   0.0000   0.0000

          k = 0.3333-0.0967 0.0000 ( 10862 PWs)   bands (ev):

   -62.5463 -36.7404 -36.6589 -36.5696 -14.6310 -13.9850  -6.6734  -5.5363
    -5.5261  -4.5979  -3.4317  -2.9721  -2.5088   0.3665   0.7155   1.2848

     occupation numbers 
     1.0000   1.0000   1.0000   1.0000   1.0000   1.0000   1.0000   1.0000
     1.0000   1.0000   1.0000   1.0000   1.0000   0.0000   0.0000   0.0000

          k = 0.3333-0.0000 0.0000 ( 10853 PWs)   bands (ev):

   -62.5475 -36.7193 -36.6613 -36.5759 -14.6967 -14.0095  -6.5706  -5.4875
    -5.3157  -4.8306  -3.6506  -2.7210  -2.4478   0.2618   0.7670   0.9970

     occupation numbers 
     1.0000   1.0000   1.0000   1.0000   1.0000   1.0000   1.0000   1.0000
     1.0000   1.0000   1.0000   1.0000   1.0000   0.0000   0.0000   0.0000

          k = 0.4167 0.2418 0.0000 ( 10800 PWs)   bands (ev):

   -62.5362 -36.8460 -36.6388 -36.5838 -14.0540 -13.7627  -7.2527  -6.2597
    -5.6521  -4.7316  -3.4743  -2.7516  -2.4746   0.5109   0.9045   2.0605

     occupation numbers 
     1.0000   1.0000   1.0000   1.0000   1.0000   1.0000   1.0000   1.0000
     1.0000   1.0000   1.0000   1.0000   1.0000   0.0000   0.0000   0.0000

          k = 0.4167 0.3385 0.0000 ( 10785 PWs)   bands (ev):

   -62.5337 -36.8565 -36.6339 -36.6032 -13.9025 -13.6975  -7.2745  -6.4579
    -5.6648  -4.8193  -3.4909  -3.1652  -2.1906   0.5506   1.0492   2.1419

     occupation numbers 
     1.0000   1.0000   1.0000   1.0000   1.0000   1.0000   1.0000   1.0000
     1.0000   1.0000   1.0000   1.0000   1.0000   0.0000   0.0000   0.0000

          k = 0.4167 0.4352 0.0000 ( 10790 PWs)   bands (ev):

   -62.5316 -36.8401 -36.6466 -36.6297 -13.7784 -13.6299  -7.0192  -6.7118
    -5.6064  -4.7827  -4.0185  -3.5481  -2.0001   0.4232   1.3260   1.8129

     occupation numbers 
     1.0000   1.0000   1.0000   1.0000   1.0000   1.0000   1.0000   1.0000
     1.0000   1.0000   1.0000   1.0000   1.0000   0.0000   0.0000   0.0000

          k = 0.4167 0.5319 0.0000 ( 10780 PWs)   bands (ev):

   -62.5304 -36.8072 -36.6954 -36.6272 -13.7109 -13.5854  -6.8916  -6.6198
    -5.4770  -4.8758  -4.6826  -3.6311  -1.8809   0.1976   1.4744   1.5663

     occupation numbers 
     1.0000   1.0000   1.0000   1.0000   1.0000   1.0000   1.0000   1.0000
     1.0000   1.0000   1.0000   1.0000   1.0000   0.0000   0.0000   0.0000

          k = 0.4167-0.1451 0.0000 ( 10817 PWs)   bands (ev):

   -62.5384 -36.8137 -36.6431 -36.5910 -14.1894 -13.8094  -7.0114  -6.1179
    -5.5511  -4.7599  -3.3063  -3.2968  -2.4109   0.4885   0.8119   1.7669

     occupation numbers 
     1.0000   1.0000   1.0000   1.0000   1.0000   1.0000   1.0000   1.0000
     1.0000   1.0000   1.0000   1.0000   1.0000   0.0000   0.0000   0.0000

          k = 0.4167-0.0484 0.0000 ( 10831 PWs)   bands (ev):

   -62.5397 -36.7800 -36.6456 -36.6106 -14.2684 -13.8326  -6.7506  -6.0008
    -5.3932  -4.9300  -3.9144  -3.0189  -2.4061   0.4068   0.8233   1.3224

     occupation numbers 
     1.0000   1.0000   1.0000   1.0000   1.0000   1.0000   1.0000   1.0000
     1.0000   1.0000   1.0000   1.0000   1.0000   0.0000   0.0000   0.0000

          k =-0.5000-0.2901 0.0000 ( 10784 PWs)   bands (ev):

   -62.5338 -36.8694 -36.6340 -36.5893 -13.8969 -13.7040  -7.4106  -6.4211
    -5.7209  -4.8118  -3.5348  -2.6512  -2.3126   0.5345   1.0448   2.1807

     occupation numbers 
     1.0000   1.0000   1.0000   1.0000   1.0000   1.0000   1.0000   1.0000
     1.0000   1.0000   1.0000   1.0000   1.0000   0.0000   0.0000   0.0000

          k =-0.5000-0.1934 0.0000 ( 10771 PWs)   bands (ev):

   -62.5338 -36.8561 -36.6340 -36.6032 -13.9041 -13.6987  -7.2711  -6.4564
    -5.6654  -4.8162  -3.4947  -3.1728  -2.1802   0.5487   1.0372   2.1594

     occupation numbers 
     1.0000   1.0000   1.0000   1.0000   1.0000   1.0000   1.0000   1.0000
     1.0000   1.0000   1.0000   1.0000   1.0000   0.0000   0.0000   0.0000

          k =-0.5000-0.0967 0.0000 ( 10788 PWs)   bands (ev):

   -62.5338 -36.8236 -36.6369 -36.6340 -13.9182 -13.6881  -6.9433  -6.5209
    -5.4912  -4.8488  -4.0307  -3.3796  -2.1640   0.5089   1.0641   1.6633

     occupation numbers 
     1.0000   1.0000   1.0000   1.0000   1.0000   1.0000   1.0000   1.0000
     1.0000   1.0000   1.0000   1.0000   1.0000   0.0000   0.0000   0.0000

          k =-0.5000 0.0000 0.0000 ( 10815 PWs)   bands (ev):

   -62.5339 -36.8019 -36.6592 -36.6340 -13.9252 -13.6827  -6.7448  -6.5507
    -5.2710  -4.8740  -4.5832  -3.3061  -2.1821   0.4704   1.0880   1.4206

     occupation numbers 
     1.0000   1.0000   1.0000   1.0000   1.0000   1.0000   1.0000   1.0000
     1.0000   1.0000   1.0000   1.0000   1.0000   0.0000   0.0000   0.0000

     highest occupied, lowest unoccupied level (ev):    -1.6634   -0.0355

!    total energy              =    -181.57959195 Ry
     estimated scf accuracy    <          4.5E-13 Ry

     The total energy is the sum of the following terms:
     one-electron contribution =   -1373.97737910 Ry
     hartree contribution      =     686.52880084 Ry
     xc contribution           =     -29.67937120 Ry
     ewald contribution        =     535.54835751 Ry

     convergence has been achieved in  11 iterations

     negative rho (up, down):  3.873E-04 0.000E+00

     Forces acting on atoms (cartesian axes, Ry/au):

     atom    1 type  1   force =     0.00000000   -0.00004877    0.00000000
     atom    2 type  2   force =     0.00000000    0.00002439   -0.00036748
     atom    3 type  2   force =     0.00000000    0.00002439    0.00036748
     The non-local contrib.  to forces
     atom    1 type  1   force =     0.00000000    0.00011711    0.00000000
     atom    2 type  2   force =     0.00000000    0.00020737   -0.27433702
     atom    3 type  2   force =     0.00000000    0.00020737    0.27433702
     The ionic contribution  to forces
     atom    1 type  1   force =     0.00000000    0.04559743    0.00000000
     atom    2 type  2   force =    -0.00000000   -0.02279871   37.02896203
     atom    3 type  2   force =    -0.00000000   -0.02279871  -37.02896203
     The local contribution  to forces
     atom    1 type  1   force =    -0.00000000   -0.04579118    0.00000000
     atom    2 type  2   force =    -0.00000000    0.02259531  -36.75754935
     atom    3 type  2   force =    -0.00000000    0.02259531   36.75754935
     The core correction contribution to forces
     atom    1 type  1   force =     0.00000000    0.00002751   -0.00000000
     atom    2 type  2   force =     0.00000000    0.00002028    0.00255553
     atom    3 type  2   force =     0.00000000    0.00002028   -0.00255553
     The Hubbard contrib.    to forces
     atom    1 type  1   force =     0.00000000    0.00000000    0.00000000
     atom    2 type  2   force =     0.00000000    0.00000000    0.00000000
     atom    3 type  2   force =     0.00000000    0.00000000    0.00000000
     The SCF correction term to forces
     atom    1 type  1   force =     0.00000000    0.00000020    0.00000000
     atom    2 type  2   force =     0.00000000   -0.00000003    0.00000133
     atom    3 type  2   force =     0.00000000   -0.00000003   -0.00000133

     Total force =     0.000523     Total SCF correction =     0.000002


     Computing stress (Cartesian axis) and pressure


     negative rho (up, down):  3.873E-04 0.000E+00
          total   stress  (Ry/bohr**3)                   (kbar)     P=       -1.55
  -0.00001952   0.00000000   0.00000000           -2.87        0.00        0.00
   0.00000000  -0.00000527   0.00000000            0.00       -0.77        0.00
   0.00000000   0.00000000  -0.00000685            0.00        0.00       -1.01

     kinetic stress (kbar)   4839.79     -0.00      0.00
                               -0.00   4843.83      0.00
                                0.00      0.00   4891.29

     local   stress (kbar)-145596.21      0.00     -0.00
                                0.00-145619.55     -0.00
                               -0.00     -0.00 142570.58

     nonloc. stress (kbar)   2216.91     -0.00      0.00
                               -0.00   2216.36      0.00
                                0.00      0.00   2205.99

     hartree stress (kbar)  71403.25     -0.00     -0.00
                               -0.00  71410.97     -0.00
                               -0.00     -0.00 -69617.21

     exc-cor stress (kbar)   -411.19     -0.00      0.00
                               -0.00   -411.14     -0.00
                                0.00     -0.00   -412.23

     corecor stress (kbar)   -545.09      0.00      0.00
                                0.00   -545.10      0.00
                                0.00      0.00   -545.52

     ewald   stress (kbar)  68089.68     -0.00      0.00
                               -0.00  68103.86     -0.00
                                0.00     -0.00 -79093.91

     hubbard stress (kbar)      0.00      0.00      0.00
                                0.00      0.00      0.00
                                0.00      0.00      0.00

     DFT-D   stress (kbar)      0.00      0.00      0.00
                                0.00      0.00      0.00
                                0.00      0.00      0.00

     XDM     stress (kbar)      0.00      0.00      0.00
                                0.00      0.00      0.00
                                0.00      0.00      0.00

     dft-nl  stress (kbar)      0.00      0.00      0.00
                                0.00      0.00      0.00
                                0.00      0.00      0.00

     TS-vdW  stress (kbar)      0.00      0.00      0.00
                                0.00      0.00      0.00
                                0.00      0.00      0.00

     MDB     stress (kbar)      0.00      0.00      0.00
                                0.00      0.00      0.00
                                0.00      0.00      0.00

     3D-RISM stress (kbar)      0.00      0.00      0.00
                                0.00      0.00      0.00
                                0.00      0.00      0.00

     Energy error            =      3.6E-06 Ry
     Gradient error          =      3.7E-04 Ry/Bohr

     number of scf cycles    =   3
     number of bfgs steps    =   2

     energy             old  =    -181.5795883873 Ry
     energy             new  =    -181.5795919536 Ry

     CASE: energy            _new < energy            _old

     new trust radius        =       0.0008841845 bohr
     new conv_thr            =            3.7E-13 Ry


ATOMIC_POSITIONS (crystal)
Mo               0.0002027792        0.0004055584        0.5000000000
S                0.6665652771        0.3331305541        0.5673698781
S                0.6665652771        0.3331305541        0.4326301219



     Writing config-only to output data dir ./tmp/mos2.save/ :
     XML data file
     NEW-OLD atomic charge density approx. for the potential

     negative rho (up, down):  3.873E-04 0.000E+00

     total cpu time spent up to now is      416.8 secs

     Self-consistent Calculation

     iteration #  1     ecut=    60.00 Ry     beta= 0.30
     CG style diagonalization

---- Real-time Memory Report at c_bands before calling an iterative solver
           213 MiB given to the printing process from OS
             0 MiB allocation reported by mallinfo(arena+hblkhd)
          2578 MiB available memory on the node where the printing process lives
------------------
     ethr =  1.00E-06,  avg # of iterations =  2.0

     Threshold (ethr) on eigenvalues was too large:
     Diagonalizing with lowered threshold

     CG style diagonalization

---- Real-time Memory Report at c_bands before calling an iterative solver
           213 MiB given to the printing process from OS
             0 MiB allocation reported by mallinfo(arena+hblkhd)
          1757 MiB available memory on the node where the printing process lives
------------------
     ethr =  9.01E-09,  avg # of iterations =  3.5

     negative rho (up, down):  3.873E-04 0.000E+00

     total cpu time spent up to now is      429.8 secs

     total energy              =    -181.57959224 Ry
     estimated scf accuracy    <       0.00000004 Ry

     iteration #  2     ecut=    60.00 Ry     beta= 0.30
     CG style diagonalization

---- Real-time Memory Report at c_bands before calling an iterative solver
           213 MiB given to the printing process from OS
             0 MiB allocation reported by mallinfo(arena+hblkhd)
          1467 MiB available memory on the node where the printing process lives
------------------
     ethr =  1.55E-10,  avg # of iterations =  5.5

     negative rho (up, down):  3.873E-04 0.000E+00

     total cpu time spent up to now is      440.4 secs

     total energy              =    -181.57959230 Ry
     estimated scf accuracy    <       0.00000015 Ry

     iteration #  3     ecut=    60.00 Ry     beta= 0.30
     CG style diagonalization

---- Real-time Memory Report at c_bands before calling an iterative solver
           213 MiB given to the printing process from OS
             0 MiB allocation reported by mallinfo(arena+hblkhd)
          2357 MiB available memory on the node where the printing process lives
------------------
     ethr =  1.55E-10,  avg # of iterations =  3.1

     negative rho (up, down):  3.873E-04 0.000E+00

     total cpu time spent up to now is      446.7 secs

     total energy              =    -181.57959228 Ry
     estimated scf accuracy    <       0.00000007 Ry

     iteration #  4     ecut=    60.00 Ry     beta= 0.30
     CG style diagonalization

---- Real-time Memory Report at c_bands before calling an iterative solver
           213 MiB given to the printing process from OS
             0 MiB allocation reported by mallinfo(arena+hblkhd)
          1888 MiB available memory on the node where the printing process lives
------------------
     ethr =  1.55E-10,  avg # of iterations =  4.0

     negative rho (up, down):  3.873E-04 0.000E+00

     total cpu time spent up to now is      455.3 secs

     total energy              =    -181.57959229 Ry
     estimated scf accuracy    <       0.00000003 Ry

     iteration #  5     ecut=    60.00 Ry     beta= 0.30
     CG style diagonalization

---- Real-time Memory Report at c_bands before calling an iterative solver
           213 MiB given to the printing process from OS
             0 MiB allocation reported by mallinfo(arena+hblkhd)
          2178 MiB available memory on the node where the printing process lives
------------------
     ethr =  1.04E-10,  avg # of iterations =  3.3

     negative rho (up, down):  3.873E-04 0.000E+00

     total cpu time spent up to now is      462.8 secs

     total energy              =    -181.57959229 Ry
     estimated scf accuracy    <          4.3E-10 Ry

     iteration #  6     ecut=    60.00 Ry     beta= 0.30
     CG style diagonalization

---- Real-time Memory Report at c_bands before calling an iterative solver
           213 MiB given to the printing process from OS
             0 MiB allocation reported by mallinfo(arena+hblkhd)
          1844 MiB available memory on the node where the printing process lives
------------------
     ethr =  1.65E-12,  avg # of iterations =  4.6

     negative rho (up, down):  3.873E-04 0.000E+00

     total cpu time spent up to now is      471.5 secs

     total energy              =    -181.57959229 Ry
     estimated scf accuracy    <          3.3E-10 Ry

     iteration #  7     ecut=    60.00 Ry     beta= 0.30
     CG style diagonalization

---- Real-time Memory Report at c_bands before calling an iterative solver
           213 MiB given to the printing process from OS
             0 MiB allocation reported by mallinfo(arena+hblkhd)
          2069 MiB available memory on the node where the printing process lives
------------------
     ethr =  1.28E-12,  avg # of iterations =  3.2

     negative rho (up, down):  3.873E-04 0.000E+00

     total cpu time spent up to now is      477.9 secs

     total energy              =    -181.57959229 Ry
     estimated scf accuracy    <          3.2E-11 Ry

     iteration #  8     ecut=    60.00 Ry     beta= 0.30
     CG style diagonalization

---- Real-time Memory Report at c_bands before calling an iterative solver
           213 MiB given to the printing process from OS
             0 MiB allocation reported by mallinfo(arena+hblkhd)
          2049 MiB available memory on the node where the printing process lives
------------------
     ethr =  1.22E-13,  avg # of iterations =  4.6

     negative rho (up, down):  3.873E-04 0.000E+00

     total cpu time spent up to now is      486.7 secs

     total energy              =    -181.57959229 Ry
     estimated scf accuracy    <          1.0E-11 Ry

     iteration #  9     ecut=    60.00 Ry     beta= 0.30
     CG style diagonalization

---- Real-time Memory Report at c_bands before calling an iterative solver
           213 MiB given to the printing process from OS
             0 MiB allocation reported by mallinfo(arena+hblkhd)
          1920 MiB available memory on the node where the printing process lives
------------------
     ethr =  1.00E-13,  avg # of iterations =  3.0

     negative rho (up, down):  3.873E-04 0.000E+00

     total cpu time spent up to now is      493.2 secs

     total energy              =    -181.57959229 Ry
     estimated scf accuracy    <          1.5E-11 Ry

     iteration # 10     ecut=    60.00 Ry     beta= 0.30
     CG style diagonalization

---- Real-time Memory Report at c_bands before calling an iterative solver
           213 MiB given to the printing process from OS
             0 MiB allocation reported by mallinfo(arena+hblkhd)
          2012 MiB available memory on the node where the printing process lives
------------------
     ethr =  1.00E-13,  avg # of iterations =  3.2

     negative rho (up, down):  3.873E-04 0.000E+00

     total cpu time spent up to now is      499.7 secs

     total energy              =    -181.57959229 Ry
     estimated scf accuracy    <          5.3E-13 Ry

     iteration # 11     ecut=    60.00 Ry     beta= 0.30
     CG style diagonalization

---- Real-time Memory Report at c_bands before calling an iterative solver
           213 MiB given to the printing process from OS
             0 MiB allocation reported by mallinfo(arena+hblkhd)
          1907 MiB available memory on the node where the printing process lives
------------------
     ethr =  1.00E-13,  avg # of iterations =  3.0

     negative rho (up, down):  3.873E-04 0.000E+00

     total cpu time spent up to now is      506.5 secs

     total energy              =    -181.57959229 Ry
     estimated scf accuracy    <          9.4E-13 Ry

     iteration # 12     ecut=    60.00 Ry     beta= 0.30
     CG style diagonalization

---- Real-time Memory Report at c_bands before calling an iterative solver
           213 MiB given to the printing process from OS
             0 MiB allocation reported by mallinfo(arena+hblkhd)
          1776 MiB available memory on the node where the printing process lives
------------------
     ethr =  1.00E-13,  avg # of iterations =  3.0

     negative rho (up, down):  3.873E-04 0.000E+00

     total cpu time spent up to now is      512.9 secs

     End of self-consistent calculation

          k = 0.0000 0.0000 0.0000 ( 10891 PWs)   bands (ev):

   -62.5699 -36.7064 -36.5128 -36.5050 -15.7336 -14.4335  -7.2561  -4.3148
    -4.2627  -3.4257  -3.2037  -3.1711  -1.6621   1.0516   1.0770   1.2892

     occupation numbers 
     1.0000   1.0000   1.0000   1.0000   1.0000   1.0000   1.0000   1.0000
     1.0000   1.0000   1.0000   1.0000   1.0000   0.0000   0.0000   0.0000

          k = 0.0000 0.0967 0.0000 ( 10887 PWs)   bands (ev):

   -62.5674 -36.7016 -36.5301 -36.5185 -15.6319 -14.3914  -7.1399  -4.4924
    -4.2084  -3.9167  -3.3673  -2.8351  -1.7142   0.9398   1.0604   1.1741

     occupation numbers 
     1.0000   1.0000   1.0000   1.0000   1.0000   1.0000   1.0000   1.0000
     1.0000   1.0000   1.0000   1.0000   1.0000   0.0000   0.0000   0.0000

          k = 0.0000 0.1934 0.0000 ( 10879 PWs)   bands (ev):

   -62.5607 -36.6882 -36.5979 -36.5343 -15.3429 -14.2715  -6.8476  -5.0182
    -4.5582  -3.9121  -3.7528  -2.7437  -1.9473   0.6338   0.8799   0.9068

     occupation numbers 
     1.0000   1.0000   1.0000   1.0000   1.0000   1.0000   1.0000   1.0000
     1.0000   1.0000   1.0000   1.0000   1.0000   0.0000   0.0000   0.0000

          k = 0.0000 0.2901 0.0000 ( 10879 PWs)   bands (ev):

   -62.5516 -36.6895 -36.6698 -36.5557 -14.9158 -14.0954  -6.6387  -5.4635
    -5.2125  -4.1849  -3.4971  -2.9838  -2.3743   0.5031   0.6425   1.2005

     occupation numbers 
     1.0000   1.0000   1.0000   1.0000   1.0000   1.0000   1.0000   1.0000
     1.0000   1.0000   1.0000   1.0000   1.0000   0.0000   0.0000   0.0000

          k = 0.0000 0.3868 0.0000 ( 10849 PWs)   bands (ev):

   -62.5423 -36.7797 -36.6514 -36.5770 -14.4376 -13.9018  -6.8812  -5.8199
    -5.5503  -4.5485  -3.2752  -3.0829  -2.6217   0.5032   0.6577   1.6878

     occupation numbers 
     1.0000   1.0000   1.0000   1.0000   1.0000   1.0000   1.0000   1.0000
     1.0000   1.0000   1.0000   1.0000   1.0000   0.0000   0.0000   0.0000

          k = 0.0000 0.4835 0.0000 ( 10801 PWs)   bands (ev):

   -62.5355 -36.8450 -36.6379 -36.5926 -14.0411 -13.7461  -7.2481  -6.2653
    -5.6428  -4.7845  -3.4582  -2.7963  -2.4536   0.5070   0.9115   2.0493

     occupation numbers 
     1.0000   1.0000   1.0000   1.0000   1.0000   1.0000   1.0000   1.0000
     1.0000   1.0000   1.0000   1.0000   1.0000   0.0000   0.0000   0.0000

          k = 0.0000-0.5802 0.0000 ( 10796 PWs)   bands (ev):

   -62.5330 -36.8687 -36.6329 -36.5983 -13.8826 -13.6855  -7.4038  -6.4302
    -5.7171  -4.8659  -3.5164  -2.6990  -2.2880   0.5384   1.0532   2.1669

     occupation numbers 
     1.0000   1.0000   1.0000   1.0000   1.0000   1.0000   1.0000   1.0000
     1.0000   1.0000   1.0000   1.0000   1.0000   0.0000   0.0000   0.0000

          k = 0.0833 0.0484 0.0000 ( 10885 PWs)   bands (ev):

   -62.5675 -36.7016 -36.5359 -36.5121 -15.6328 -14.3923  -7.1407  -4.5276
    -4.1691  -3.9283  -3.3398  -2.8488  -1.7167   0.9279   1.0277   1.2094

     occupation numbers 
     1.0000   1.0000   1.0000   1.0000   1.0000   1.0000   1.0000   1.0000
     1.0000   1.0000   1.0000   1.0000   1.0000   0.0000   0.0000   0.0000

          k = 0.0833 0.1451 0.0000 ( 10871 PWs)   bands (ev):

   -62.5629 -36.6925 -36.5774 -36.5279 -15.4374 -14.3112  -6.9327  -4.8748
    -4.3497  -4.0000  -3.7283  -2.6511  -1.8609   0.7166   0.7898   0.9899

     occupation numbers 
     1.0000   1.0000   1.0000   1.0000   1.0000   1.0000   1.0000   1.0000
     1.0000   1.0000   1.0000   1.0000   1.0000   0.0000   0.0000   0.0000

          k = 0.0833 0.2418 0.0000 ( 10864 PWs)   bands (ev):

   -62.5549 -36.6766 -36.6526 -36.5510 -15.0783 -14.1623  -6.6509  -5.3391
    -4.8854  -4.2742  -3.6979  -2.6782  -2.2052   0.4286   0.7684   0.8648

     occupation numbers 
     1.0000   1.0000   1.0000   1.0000   1.0000   1.0000   1.0000   1.0000
     1.0000   1.0000   1.0000   1.0000   1.0000   0.0000   0.0000   0.0000

          k = 0.0833 0.3385 0.0000 ( 10861 PWs)   bands (ev):

   -62.5458 -36.7390 -36.6582 -36.5768 -14.6222 -13.9744  -6.6774  -5.5355
    -5.5107  -4.6330  -3.4472  -2.9655  -2.5128   0.3552   0.7274   1.2612

     occupation numbers 
     1.0000   1.0000   1.0000   1.0000   1.0000   1.0000   1.0000   1.0000
     1.0000   1.0000   1.0000   1.0000   1.0000   0.0000   0.0000   0.0000

          k = 0.0833 0.4352 0.0000 ( 10822 PWs)   bands (ev):

   -62.5377 -36.8131 -36.6423 -36.5988 -14.1771 -13.7945  -7.0143  -6.1250
    -5.5377  -4.8013  -3.3202  -3.2844  -2.4213   0.4797   0.8352   1.7426

     occupation numbers 
     1.0000   1.0000   1.0000   1.0000   1.0000   1.0000   1.0000   1.0000
     1.0000   1.0000   1.0000   1.0000   1.0000   0.0000   0.0000   0.0000

          k = 0.0833 0.5319 0.0000 ( 10796 PWs)   bands (ev):

   -62.5331 -36.8555 -36.6330 -36.6115 -13.8905 -13.6816  -7.2679  -6.4680
    -5.6599  -4.8609  -3.4782  -3.1984  -2.1778   0.5542   1.0531   2.1361

     occupation numbers 
     1.0000   1.0000   1.0000   1.0000   1.0000   1.0000   1.0000   1.0000
     1.0000   1.0000   1.0000   1.0000   1.0000   0.0000   0.0000   0.0000

          k = 0.1667 0.0967 0.0000 ( 10871 PWs)   bands (ev):

   -62.5609 -36.6885 -36.6026 -36.5277 -15.3463 -14.2751  -6.8501  -5.0441
    -4.5723  -3.8756  -3.7181  -2.7545  -1.9570   0.6102   0.8789   0.9423

     occupation numbers 
     1.0000   1.0000   1.0000   1.0000   1.0000   1.0000   1.0000   1.0000
     1.0000   1.0000   1.0000   1.0000   1.0000   0.0000   0.0000   0.0000

          k = 0.1667 0.1934 0.0000 ( 10859 PWs)   bands (ev):

   -62.5551 -36.6768 -36.6549 -36.5473 -15.0808 -14.1651  -6.6518  -5.3529
    -4.8990  -4.2501  -3.6785  -2.6797  -2.2128   0.4246   0.7835   0.8621

     occupation numbers 
     1.0000   1.0000   1.0000   1.0000   1.0000   1.0000   1.0000   1.0000
     1.0000   1.0000   1.0000   1.0000   1.0000   0.0000   0.0000   0.0000

          k = 0.1667 0.2901 0.0000 ( 10850 PWs)   bands (ev):

   -62.5471 -36.7197 -36.6609 -36.5800 -14.6902 -14.0022  -6.5756  -5.4881
    -5.3265  -4.8405  -3.6444  -2.7153  -2.4610   0.2576   0.7863   0.9680

     occupation numbers 
     1.0000   1.0000   1.0000   1.0000   1.0000   1.0000   1.0000   1.0000
     1.0000   1.0000   1.0000   1.0000   1.0000   0.0000   0.0000   0.0000

          k = 0.1667 0.3868 0.0000 ( 10823 PWs)   bands (ev):

   -62.5391 -36.7807 -36.6450 -36.6158 -14.2582 -13.8215  -6.7621  -6.0132
    -5.3864  -4.9494  -3.9074  -3.0107  -2.4269   0.4027   0.8570   1.2983

     occupation numbers 
     1.0000   1.0000   1.0000   1.0000   1.0000   1.0000   1.0000   1.0000
     1.0000   1.0000   1.0000   1.0000   1.0000   0.0000   0.0000   0.0000

          k = 0.1667 0.4835 0.0000 ( 10793 PWs)   bands (ev):

   -62.5332 -36.8238 -36.6430 -36.6333 -13.9067 -13.6747  -6.9506  -6.5358
    -5.4831  -4.8747  -4.0403  -3.3675  -2.1753   0.5188   1.0922   1.6482

     occupation numbers 
     1.0000   1.0000   1.0000   1.0000   1.0000   1.0000   1.0000   1.0000
     1.0000   1.0000   1.0000   1.0000   1.0000   0.0000   0.0000   0.0000

          k = 0.1667 0.5802 0.0000 ( 10790 PWs)   bands (ev):

   -62.5311 -36.8393 -36.6532 -36.6290 -13.7684 -13.6172  -7.0171  -6.7257
    -5.6024  -4.8091  -4.0412  -3.5365  -1.9947   0.4309   1.3407   1.8070

     occupation numbers 
     1.0000   1.0000   1.0000   1.0000   1.0000   1.0000   1.0000   1.0000
     1.0000   1.0000   1.0000   1.0000   1.0000   0.0000   0.0000   0.0000

          k = 0.1667-0.0000 0.0000 ( 10897 PWs)   bands (ev):

   -62.5631 -36.6927 -36.5810 -36.5229 -15.4399 -14.3137  -6.9349  -4.8950
    -4.3550  -3.9712  -3.7132  -2.6562  -1.8661   0.7025   0.7998   1.0064

     occupation numbers 
     1.0000   1.0000   1.0000   1.0000   1.0000   1.0000   1.0000   1.0000
     1.0000   1.0000   1.0000   1.0000   1.0000   0.0000   0.0000   0.0000

          k = 0.2500 0.1451 0.0000 ( 10862 PWs)   bands (ev):

   -62.5519 -36.6929 -36.6704 -36.5485 -14.9228 -14.1033  -6.6404  -5.4869
    -5.2241  -4.1431  -3.4620  -2.9921  -2.3890   0.4903   0.6742   1.2045

     occupation numbers 
     1.0000   1.0000   1.0000   1.0000   1.0000   1.0000   1.0000   1.0000
     1.0000   1.0000   1.0000   1.0000   1.0000   0.0000   0.0000   0.0000

          k = 0.2500 0.2418 0.0000 ( 10861 PWs)   bands (ev):

   -62.5461 -36.7417 -36.6588 -36.5708 -14.6283 -13.9818  -6.6790  -5.5451
    -5.5313  -4.6019  -3.4176  -2.9656  -2.5245   0.3618   0.7371   1.2589

     occupation numbers 
     1.0000   1.0000   1.0000   1.0000   1.0000   1.0000   1.0000   1.0000
     1.0000   1.0000   1.0000   1.0000   1.0000   0.0000   0.0000   0.0000

          k = 0.2500 0.3385 0.0000 ( 10821 PWs)   bands (ev):

   -62.5393 -36.7821 -36.6453 -36.6124 -14.2619 -13.8261  -6.7644  -6.0134
    -5.3978  -4.9383  -3.8907  -3.0097  -2.4310   0.4040   0.8607   1.2990

     occupation numbers 
     1.0000   1.0000   1.0000   1.0000   1.0000   1.0000   1.0000   1.0000
     1.0000   1.0000   1.0000   1.0000   1.0000   0.0000   0.0000   0.0000

          k = 0.2500 0.4352 0.0000 ( 10817 PWs)   bands (ev):

   -62.5335 -36.8037 -36.6619 -36.6336 -13.9171 -13.6744  -6.7614  -6.5640
    -5.2744  -4.8870  -4.5658  -3.2962  -2.2035   0.4831   1.1211   1.4096

     occupation numbers 
     1.0000   1.0000   1.0000   1.0000   1.0000   1.0000   1.0000   1.0000
     1.0000   1.0000   1.0000   1.0000   1.0000   0.0000   0.0000   0.0000

          k = 0.2500 0.5319 0.0000 ( 10774 PWs)   bands (ev):

   -62.5301 -36.8072 -36.6993 -36.6269 -13.7044 -13.5778  -6.9035  -6.6286
    -5.4708  -4.8827  -4.6979  -3.6207  -1.8886   0.2114   1.4719   1.5870

     occupation numbers 
     1.0000   1.0000   1.0000   1.0000   1.0000   1.0000   1.0000   1.0000
     1.0000   1.0000   1.0000   1.0000   1.0000   0.0000   0.0000   0.0000

          k = 0.2500-0.0484 0.0000 ( 10870 PWs)   bands (ev):

   -62.5553 -36.6771 -36.6555 -36.5448 -15.0846 -14.1687  -6.6538  -5.3537
    -4.8927  -4.2489  -3.6732  -2.6826  -2.2126   0.4264   0.7765   0.8859

     occupation numbers 
     1.0000   1.0000   1.0000   1.0000   1.0000   1.0000   1.0000   1.0000
     1.0000   1.0000   1.0000   1.0000   1.0000   0.0000   0.0000   0.0000

          k = 0.3333 0.1934 0.0000 ( 10828 PWs)   bands (ev):

   -62.5429 -36.7820 -36.6523 -36.5691 -14.4488 -13.9148  -6.8836  -5.8236
    -5.5708  -4.5012  -3.2857  -3.0456  -2.6377   0.5226   0.6511   1.6951

     occupation numbers 
     1.0000   1.0000   1.0000   1.0000   1.0000   1.0000   1.0000   1.0000
     1.0000   1.0000   1.0000   1.0000   1.0000   0.0000   0.0000   0.0000

          k = 0.3333 0.2901 0.0000 ( 10820 PWs)   bands (ev):

   -62.5383 -36.8153 -36.6431 -36.5915 -14.1873 -13.8072  -7.0204  -6.1237
    -5.5529  -4.7672  -3.2889  -3.2885  -2.4324   0.4834   0.8405   1.7447

     occupation numbers 
     1.0000   1.0000   1.0000   1.0000   1.0000   1.0000   1.0000   1.0000
     1.0000   1.0000   1.0000   1.0000   1.0000   0.0000   0.0000   0.0000

          k = 0.3333 0.3868 0.0000 ( 10799 PWs)   bands (ev):

   -62.5337 -36.8256 -36.6375 -36.6339 -13.9145 -13.6846  -6.9566  -6.5287
    -5.4928  -4.8570  -4.0151  -3.3707  -2.1852   0.5166   1.0926   1.6523

     occupation numbers 
     1.0000   1.0000   1.0000   1.0000   1.0000   1.0000   1.0000   1.0000
     1.0000   1.0000   1.0000   1.0000   1.0000   0.0000   0.0000   0.0000

          k = 0.3333 0.4835 0.0000 ( 10768 PWs)   bands (ev):

   -62.5302 -36.8084 -36.6962 -36.6272 -13.7088 -13.5830  -6.8981  -6.6306
    -5.4781  -4.8681  -4.6894  -3.6248  -1.8925   0.2085   1.4737   1.5812

     occupation numbers 
     1.0000   1.0000   1.0000   1.0000   1.0000   1.0000   1.0000   1.0000
     1.0000   1.0000   1.0000   1.0000   1.0000   0.0000   0.0000   0.0000

          k = 0.3333 0.5802 0.0000 ( 10772 PWs)   bands (ev):

   -62.5290 -36.7809 -36.7390 -36.6247 -13.6324 -13.5428  -7.0430  -6.2332
    -5.7197  -5.2229  -4.5327  -3.8109  -1.6961  -0.0371   1.3854   1.8350

     occupation numbers 
     1.0000   1.0000   1.0000   1.0000   1.0000   1.0000   1.0000   1.0000
     1.0000   1.0000   1.0000   1.0000   1.0000   0.0000   0.0000   0.0000

          k = 0.3333-0.0967 0.0000 ( 10862 PWs)   bands (ev):

   -62.5463 -36.7408 -36.6591 -36.5699 -14.6327 -13.9857  -6.6758  -5.5375
    -5.5274  -4.5997  -3.4337  -2.9715  -2.5095   0.3676   0.7158   1.2853

     occupation numbers 
     1.0000   1.0000   1.0000   1.0000   1.0000   1.0000   1.0000   1.0000
     1.0000   1.0000   1.0000   1.0000   1.0000   0.0000   0.0000   0.0000

          k = 0.3333-0.0000 0.0000 ( 10853 PWs)   bands (ev):

   -62.5476 -36.7197 -36.6615 -36.5762 -14.6984 -14.0102  -6.5730  -5.4888
    -5.3173  -4.8319  -3.6525  -2.7205  -2.4485   0.2630   0.7672   0.9973

     occupation numbers 
     1.0000   1.0000   1.0000   1.0000   1.0000   1.0000   1.0000   1.0000
     1.0000   1.0000   1.0000   1.0000   1.0000   0.0000   0.0000   0.0000

          k = 0.4167 0.2418 0.0000 ( 10800 PWs)   bands (ev):

   -62.5363 -36.8464 -36.6390 -36.5841 -14.0558 -13.7637  -7.2545  -6.2604
    -5.6534  -4.7339  -3.4735  -2.7535  -2.4751   0.5104   0.9048   2.0616

     occupation numbers 
     1.0000   1.0000   1.0000   1.0000   1.0000   1.0000   1.0000   1.0000
     1.0000   1.0000   1.0000   1.0000   1.0000   0.0000   0.0000   0.0000

          k = 0.4167 0.3385 0.0000 ( 10785 PWs)   bands (ev):

   -62.5338 -36.8570 -36.6341 -36.6036 -13.9042 -13.6986  -7.2761  -6.4589
    -5.6662  -4.8211  -3.4902  -3.1664  -2.1915   0.5501   1.0491   2.1433

     occupation numbers 
     1.0000   1.0000   1.0000   1.0000   1.0000   1.0000   1.0000   1.0000
     1.0000   1.0000   1.0000   1.0000   1.0000   0.0000   0.0000   0.0000

          k = 0.4167 0.4352 0.0000 ( 10790 PWs)   bands (ev):

   -62.5317 -36.8405 -36.6469 -36.6298 -13.7801 -13.6310  -7.0207  -6.7133
    -5.6079  -4.7836  -4.0195  -3.5475  -2.0012   0.4224   1.3262   1.8145

     occupation numbers 
     1.0000   1.0000   1.0000   1.0000   1.0000   1.0000   1.0000   1.0000
     1.0000   1.0000   1.0000   1.0000   1.0000   0.0000   0.0000   0.0000

          k = 0.4167 0.5319 0.0000 ( 10780 PWs)   bands (ev):

   -62.5304 -36.8076 -36.6957 -36.6274 -13.7127 -13.5866  -6.8935  -6.6212
    -5.4784  -4.8768  -4.6830  -3.6305  -1.8819   0.1965   1.4760   1.5669

     occupation numbers 
     1.0000   1.0000   1.0000   1.0000   1.0000   1.0000   1.0000   1.0000
     1.0000   1.0000   1.0000   1.0000   1.0000   0.0000   0.0000   0.0000

          k = 0.4167-0.1451 0.0000 ( 10817 PWs)   bands (ev):

   -62.5385 -36.8141 -36.6433 -36.5913 -14.1911 -13.8103  -7.0133  -6.1190
    -5.5523  -4.7617  -3.3077  -3.2962  -2.4120   0.4888   0.8119   1.7677

     occupation numbers 
     1.0000   1.0000   1.0000   1.0000   1.0000   1.0000   1.0000   1.0000
     1.0000   1.0000   1.0000   1.0000   1.0000   0.0000   0.0000   0.0000

          k = 0.4167-0.0484 0.0000 ( 10831 PWs)   bands (ev):

   -62.5397 -36.7805 -36.6458 -36.6109 -14.2701 -13.8335  -6.7527  -6.0024
    -5.3943  -4.9311  -3.9158  -3.0183  -2.4073   0.4078   0.8228   1.3230

     occupation numbers 
     1.0000   1.0000   1.0000   1.0000   1.0000   1.0000   1.0000   1.0000
     1.0000   1.0000   1.0000   1.0000   1.0000   0.0000   0.0000   0.0000

          k =-0.5000-0.2901 0.0000 ( 10784 PWs)   bands (ev):

   -62.5339 -36.8698 -36.6341 -36.5896 -13.8986 -13.7051  -7.4121  -6.4217
    -5.7224  -4.8141  -3.5341  -2.6529  -2.3129   0.5337   1.0446   2.1818

     occupation numbers 
     1.0000   1.0000   1.0000   1.0000   1.0000   1.0000   1.0000   1.0000
     1.0000   1.0000   1.0000   1.0000   1.0000   0.0000   0.0000   0.0000

          k =-0.5000-0.1934 0.0000 ( 10771 PWs)   bands (ev):

   -62.5338 -36.8565 -36.6342 -36.6036 -13.9058 -13.6998  -7.2726  -6.4573
    -5.6667  -4.8180  -3.4940  -3.1740  -2.1812   0.5482   1.0371   2.1603

     occupation numbers 
     1.0000   1.0000   1.0000   1.0000   1.0000   1.0000   1.0000   1.0000
     1.0000   1.0000   1.0000   1.0000   1.0000   0.0000   0.0000   0.0000

          k =-0.5000-0.0967 0.0000 ( 10788 PWs)   bands (ev):

   -62.5339 -36.8241 -36.6372 -36.6342 -13.9200 -13.6891  -6.9450  -6.5224
    -5.4925  -4.8497  -4.0318  -3.3789  -2.1652   0.5088   1.0639   1.6644

     occupation numbers 
     1.0000   1.0000   1.0000   1.0000   1.0000   1.0000   1.0000   1.0000
     1.0000   1.0000   1.0000   1.0000   1.0000   0.0000   0.0000   0.0000

          k =-0.5000 0.0000 0.0000 ( 10815 PWs)   bands (ev):

   -62.5339 -36.8023 -36.6596 -36.6342 -13.9270 -13.6838  -6.7466  -6.5525
    -5.2721  -4.8746  -4.5844  -3.3055  -2.1833   0.4704   1.0878   1.4216

     occupation numbers 
     1.0000   1.0000   1.0000   1.0000   1.0000   1.0000   1.0000   1.0000
     1.0000   1.0000   1.0000   1.0000   1.0000   0.0000   0.0000   0.0000

     highest occupied, lowest unoccupied level (ev):    -1.6621   -0.0371

!    total energy              =    -181.57959229 Ry
     estimated scf accuracy    <          3.3E-14 Ry

     The total energy is the sum of the following terms:
     one-electron contribution =   -1374.10592498 Ry
     hartree contribution      =     686.59267339 Ry
     xc contribution           =     -29.68007268 Ry
     ewald contribution        =     535.61373198 Ry

     convergence has been achieved in  12 iterations

     negative rho (up, down):  3.873E-04 0.000E+00

     Forces acting on atoms (cartesian axes, Ry/au):

     atom    1 type  1   force =     0.00000000   -0.00010587    0.00000000
     atom    2 type  2   force =     0.00000000    0.00005294   -0.00003055
     atom    3 type  2   force =     0.00000000    0.00005294    0.00003055
     The non-local contrib.  to forces
     atom    1 type  1   force =     0.00000000    0.00013788    0.00000000
     atom    2 type  2   force =     0.00000000    0.00023025   -0.27419958
     atom    3 type  2   force =     0.00000000    0.00023025    0.27419958
     The ionic contribution  to forces
     atom    1 type  1   force =     0.00000000    0.04522217    0.00000000
     atom    2 type  2   force =    -0.00000000   -0.02261108   37.02914035
     atom    3 type  2   force =    -0.00000000   -0.02261108  -37.02914035
     The local contribution  to forces
     atom    1 type  1   force =     0.00000000   -0.04549231    0.00000000
     atom    2 type  2   force =    -0.00000000    0.02241405  -36.75752010
     atom    3 type  2   force =    -0.00000000    0.02241405   36.75752010
     The core correction contribution to forces
     atom    1 type  1   force =     0.00000000    0.00002617   -0.00000000
     atom    2 type  2   force =     0.00000000    0.00001944    0.00254912
     atom    3 type  2   force =     0.00000000    0.00001944   -0.00254912
     The Hubbard contrib.    to forces
     atom    1 type  1   force =     0.00000000    0.00000000    0.00000000
     atom    2 type  2   force =     0.00000000    0.00000000    0.00000000
     atom    3 type  2   force =     0.00000000    0.00000000    0.00000000
     The SCF correction term to forces
     atom    1 type  1   force =     0.00000000   -0.00000006   -0.00000000
     atom    2 type  2   force =     0.00000000   -0.00000000   -0.00000034
     atom    3 type  2   force =     0.00000000   -0.00000000    0.00000034

     Total force =     0.000137     Total SCF correction =     0.000000


     Computing stress (Cartesian axis) and pressure


     negative rho (up, down):  3.873E-04 0.000E+00
          total   stress  (Ry/bohr**3)                   (kbar)     P=       -1.43
  -0.00001900   0.00000000   0.00000000           -2.80        0.00        0.00
   0.00000000  -0.00000481   0.00000000            0.00       -0.71        0.00
   0.00000000   0.00000000  -0.00000541            0.00        0.00       -0.80

     kinetic stress (kbar)   4839.83     -0.00      0.00
                               -0.00   4843.88      0.00
                                0.00      0.00   4891.64

     local   stress (kbar)-145611.07      0.00     -0.00
                                0.00-145633.95     -0.00
                               -0.00     -0.00 142585.99

     nonloc. stress (kbar)   2216.93     -0.00      0.00
                               -0.00   2216.39      0.00
                                0.00      0.00   2205.97

     hartree stress (kbar)  71410.25      0.00     -0.00
                                0.00  71417.84     -0.00
                               -0.00     -0.00 -69624.27

     exc-cor stress (kbar)   -411.21     -0.00      0.00
                               -0.00   -411.16      0.00
                                0.00      0.00   -412.26

     corecor stress (kbar)   -545.09      0.00     -0.00
                                0.00   -545.10      0.00
                               -0.00      0.00   -545.52

     ewald   stress (kbar)  68097.56     -0.00     -0.00
                               -0.00  68111.39      0.00
                               -0.00      0.00 -79102.35

     hubbard stress (kbar)      0.00      0.00      0.00
                                0.00      0.00      0.00
                                0.00      0.00      0.00

     DFT-D   stress (kbar)      0.00      0.00      0.00
                                0.00      0.00      0.00
                                0.00      0.00      0.00

     XDM     stress (kbar)      0.00      0.00      0.00
                                0.00      0.00      0.00
                                0.00      0.00      0.00

     dft-nl  stress (kbar)      0.00      0.00      0.00
                                0.00      0.00      0.00
                                0.00      0.00      0.00

     TS-vdW  stress (kbar)      0.00      0.00      0.00
                                0.00      0.00      0.00
                                0.00      0.00      0.00

     MDB     stress (kbar)      0.00      0.00      0.00
                                0.00      0.00      0.00
                                0.00      0.00      0.00

     3D-RISM stress (kbar)      0.00      0.00      0.00
                                0.00      0.00      0.00
                                0.00      0.00      0.00

     Energy error            =      3.4E-07 Ry
     Gradient error          =      1.1E-04 Ry/Bohr

     number of scf cycles    =   4
     number of bfgs steps    =   3

     energy             old  =    -181.5795919536 Ry
     energy             new  =    -181.5795922934 Ry

     CASE: energy            _new < energy            _old

     new trust radius        =       0.0001003950 bohr
     new conv_thr            =            1.1E-13 Ry


ATOMIC_POSITIONS (crystal)
Mo               0.0001931420        0.0003862839        0.5000000000
S                0.6665700957        0.3331401914        0.5673682851
S                0.6665700957        0.3331401914        0.4326317149



     Writing config-only to output data dir ./tmp/mos2.save/ :
     XML data file
     NEW-OLD atomic charge density approx. for the potential

     negative rho (up, down):  3.873E-04 0.000E+00

     total cpu time spent up to now is      520.9 secs

     Self-consistent Calculation

     iteration #  1     ecut=    60.00 Ry     beta= 0.30
     CG style diagonalization

---- Real-time Memory Report at c_bands before calling an iterative solver
           217 MiB given to the printing process from OS
             0 MiB allocation reported by mallinfo(arena+hblkhd)
          2251 MiB available memory on the node where the printing process lives
------------------
     ethr =  1.00E-06,  avg # of iterations =  2.0

     Threshold (ethr) on eigenvalues was too large:
     Diagonalizing with lowered threshold

     CG style diagonalization

---- Real-time Memory Report at c_bands before calling an iterative solver
           217 MiB given to the printing process from OS
             0 MiB allocation reported by mallinfo(arena+hblkhd)
          2036 MiB available memory on the node where the printing process lives
------------------
     ethr =  1.93E-10,  avg # of iterations =  4.8

     negative rho (up, down):  3.873E-04 0.000E+00

     total cpu time spent up to now is      535.4 secs

     total energy              =    -181.57959230 Ry
     estimated scf accuracy    <          6.0E-10 Ry

     iteration #  2     ecut=    60.00 Ry     beta= 0.30
     CG style diagonalization

---- Real-time Memory Report at c_bands before calling an iterative solver
           217 MiB given to the printing process from OS
             0 MiB allocation reported by mallinfo(arena+hblkhd)
          1772 MiB available memory on the node where the printing process lives
------------------
     ethr =  2.30E-12,  avg # of iterations =  5.8

     negative rho (up, down):  3.873E-04 0.000E+00

     total cpu time spent up to now is      546.6 secs

     total energy              =    -181.57959231 Ry
     estimated scf accuracy    <          6.8E-10 Ry

     iteration #  3     ecut=    60.00 Ry     beta= 0.30
     CG style diagonalization

---- Real-time Memory Report at c_bands before calling an iterative solver
           217 MiB given to the printing process from OS
             0 MiB allocation reported by mallinfo(arena+hblkhd)
          2706 MiB available memory on the node where the printing process lives
------------------
     ethr =  2.30E-12,  avg # of iterations =  3.0

     negative rho (up, down):  3.873E-04 0.000E+00

     total cpu time spent up to now is      552.8 secs

     total energy              =    -181.57959231 Ry
     estimated scf accuracy    <          2.7E-10 Ry

     iteration #  4     ecut=    60.00 Ry     beta= 0.30
     CG style diagonalization

---- Real-time Memory Report at c_bands before calling an iterative solver
           217 MiB given to the printing process from OS
             0 MiB allocation reported by mallinfo(arena+hblkhd)
          2303 MiB available memory on the node where the printing process lives
------------------
     ethr =  1.03E-12,  avg # of iterations =  3.9

     negative rho (up, down):  3.873E-04 0.000E+00

     total cpu time spent up to now is      560.7 secs

     total energy              =    -181.57959231 Ry
     estimated scf accuracy    <          1.1E-10 Ry

     iteration #  5     ecut=    60.00 Ry     beta= 0.30
     CG style diagonalization

---- Real-time Memory Report at c_bands before calling an iterative solver
           217 MiB given to the printing process from OS
             0 MiB allocation reported by mallinfo(arena+hblkhd)
          2171 MiB available memory on the node where the printing process lives
------------------
     ethr =  4.13E-13,  avg # of iterations =  3.5

     negative rho (up, down):  3.873E-04 0.000E+00

     total cpu time spent up to now is      567.5 secs

     total energy              =    -181.57959231 Ry
     estimated scf accuracy    <          5.0E-12 Ry

     iteration #  6     ecut=    60.00 Ry     beta= 0.30
     CG style diagonalization

---- Real-time Memory Report at c_bands before calling an iterative solver
           217 MiB given to the printing process from OS
             0 MiB allocation reported by mallinfo(arena+hblkhd)
          1995 MiB available memory on the node where the printing process lives
------------------
     ethr =  1.00E-13,  avg # of iterations =  3.3

     negative rho (up, down):  3.873E-04 0.000E+00

     total cpu time spent up to now is      574.5 secs

     total energy              =    -181.57959231 Ry
     estimated scf accuracy    <          4.8E-12 Ry

     iteration #  7     ecut=    60.00 Ry     beta= 0.30
     CG style diagonalization

---- Real-time Memory Report at c_bands before calling an iterative solver
           217 MiB given to the printing process from OS
             0 MiB allocation reported by mallinfo(arena+hblkhd)
          1823 MiB available memory on the node where the printing process lives
------------------
     ethr =  1.00E-13,  avg # of iterations =  3.0

     negative rho (up, down):  3.873E-04 0.000E+00

     total cpu time spent up to now is      581.4 secs

     total energy              =    -181.57959231 Ry
     estimated scf accuracy    <          4.5E-13 Ry

     iteration #  8     ecut=    60.00 Ry     beta= 0.30
     CG style diagonalization

---- Real-time Memory Report at c_bands before calling an iterative solver
           217 MiB given to the printing process from OS
             0 MiB allocation reported by mallinfo(arena+hblkhd)
          1534 MiB available memory on the node where the printing process lives
------------------
     ethr =  1.00E-13,  avg # of iterations =  3.0

     negative rho (up, down):  3.873E-04 0.000E+00

     total cpu time spent up to now is      587.9 secs

     total energy              =    -181.57959231 Ry
     estimated scf accuracy    <          4.9E-13 Ry

     iteration #  9     ecut=    60.00 Ry     beta= 0.30
     CG style diagonalization

---- Real-time Memory Report at c_bands before calling an iterative solver
           217 MiB given to the printing process from OS
             0 MiB allocation reported by mallinfo(arena+hblkhd)
          2138 MiB available memory on the node where the printing process lives
------------------
     ethr =  1.00E-13,  avg # of iterations =  3.0

     negative rho (up, down):  3.873E-04 0.000E+00

     total cpu time spent up to now is      594.3 secs

     End of self-consistent calculation

          k = 0.0000 0.0000 0.0000 ( 10891 PWs)   bands (ev):

   -62.5699 -36.7065 -36.5128 -36.5051 -15.7338 -14.4336  -7.2562  -4.3151
    -4.2629  -3.4256  -3.2035  -3.1716  -1.6620   1.0512   1.0774   1.2895

     occupation numbers 
     1.0000   1.0000   1.0000   1.0000   1.0000   1.0000   1.0000   1.0000
     1.0000   1.0000   1.0000   1.0000   1.0000   0.0000   0.0000   0.0000

          k = 0.0000 0.0967 0.0000 ( 10887 PWs)   bands (ev):

   -62.5675 -36.7016 -36.5301 -36.5185 -15.6321 -14.3914  -7.1400  -4.4925
    -4.2087  -3.9170  -3.3672  -2.8353  -1.7141   0.9401   1.0604   1.1743

     occupation numbers 
     1.0000   1.0000   1.0000   1.0000   1.0000   1.0000   1.0000   1.0000
     1.0000   1.0000   1.0000   1.0000   1.0000   0.0000   0.0000   0.0000

          k = 0.0000 0.1934 0.0000 ( 10879 PWs)   bands (ev):

   -62.5607 -36.6882 -36.5980 -36.5343 -15.3431 -14.2716  -6.8478  -5.0184
    -4.5585  -3.9123  -3.7528  -2.7437  -1.9473   0.6338   0.8801   0.9070

     occupation numbers 
     1.0000   1.0000   1.0000   1.0000   1.0000   1.0000   1.0000   1.0000
     1.0000   1.0000   1.0000   1.0000   1.0000   0.0000   0.0000   0.0000

          k = 0.0000 0.2901 0.0000 ( 10879 PWs)   bands (ev):

   -62.5516 -36.6895 -36.6698 -36.5557 -14.9159 -14.0955  -6.6389  -5.4635
    -5.2127  -4.1849  -3.4974  -2.9837  -2.3745   0.5032   0.6426   1.2007

     occupation numbers 
     1.0000   1.0000   1.0000   1.0000   1.0000   1.0000   1.0000   1.0000
     1.0000   1.0000   1.0000   1.0000   1.0000   0.0000   0.0000   0.0000

          k = 0.0000 0.3868 0.0000 ( 10849 PWs)   bands (ev):

   -62.5423 -36.7798 -36.6514 -36.5771 -14.4377 -13.9019  -6.8813  -5.8200
    -5.5503  -4.5485  -3.2752  -3.0831  -2.6219   0.5032   0.6579   1.6881

     occupation numbers 
     1.0000   1.0000   1.0000   1.0000   1.0000   1.0000   1.0000   1.0000
     1.0000   1.0000   1.0000   1.0000   1.0000   0.0000   0.0000   0.0000

          k = 0.0000 0.4835 0.0000 ( 10801 PWs)   bands (ev):

   -62.5355 -36.8450 -36.6379 -36.5926 -14.0412 -13.7462  -7.2483  -6.2653
    -5.6428  -4.7846  -3.4582  -2.7965  -2.4538   0.5069   0.9116   2.0497

     occupation numbers 
     1.0000   1.0000   1.0000   1.0000   1.0000   1.0000   1.0000   1.0000
     1.0000   1.0000   1.0000   1.0000   1.0000   0.0000   0.0000   0.0000

          k = 0.0000-0.5802 0.0000 ( 10796 PWs)   bands (ev):

   -62.5331 -36.8687 -36.6330 -36.5983 -13.8827 -13.6857  -7.4039  -6.4301
    -5.7171  -4.8659  -3.5165  -2.6991  -2.2881   0.5383   1.0532   2.1672

     occupation numbers 
     1.0000   1.0000   1.0000   1.0000   1.0000   1.0000   1.0000   1.0000
     1.0000   1.0000   1.0000   1.0000   1.0000   0.0000   0.0000   0.0000

          k = 0.0833 0.0484 0.0000 ( 10885 PWs)   bands (ev):

   -62.5675 -36.7016 -36.5359 -36.5122 -15.6330 -14.3923  -7.1408  -4.5279
    -4.1693  -3.9282  -3.3402  -2.8488  -1.7166   0.9277   1.0279   1.2094

     occupation numbers 
     1.0000   1.0000   1.0000   1.0000   1.0000   1.0000   1.0000   1.0000
     1.0000   1.0000   1.0000   1.0000   1.0000   0.0000   0.0000   0.0000

          k = 0.0833 0.1451 0.0000 ( 10871 PWs)   bands (ev):

   -62.5629 -36.6925 -36.5774 -36.5279 -15.4375 -14.3112  -6.9328  -4.8750
    -4.3499  -4.0002  -3.7284  -2.6511  -1.8609   0.7167   0.7899   0.9900

     occupation numbers 
     1.0000   1.0000   1.0000   1.0000   1.0000   1.0000   1.0000   1.0000
     1.0000   1.0000   1.0000   1.0000   1.0000   0.0000   0.0000   0.0000

          k = 0.0833 0.2418 0.0000 ( 10864 PWs)   bands (ev):

   -62.5549 -36.6766 -36.6526 -36.5510 -15.0784 -14.1623  -6.6510  -5.3392
    -4.8857  -4.2742  -3.6981  -2.6782  -2.2052   0.4287   0.7685   0.8650

     occupation numbers 
     1.0000   1.0000   1.0000   1.0000   1.0000   1.0000   1.0000   1.0000
     1.0000   1.0000   1.0000   1.0000   1.0000   0.0000   0.0000   0.0000

          k = 0.0833 0.3385 0.0000 ( 10861 PWs)   bands (ev):

   -62.5458 -36.7391 -36.6583 -36.5768 -14.6223 -13.9745  -6.6776  -5.5356
    -5.5108  -4.6330  -3.4474  -2.9654  -2.5130   0.3553   0.7274   1.2613

     occupation numbers 
     1.0000   1.0000   1.0000   1.0000   1.0000   1.0000   1.0000   1.0000
     1.0000   1.0000   1.0000   1.0000   1.0000   0.0000   0.0000   0.0000

          k = 0.0833 0.4352 0.0000 ( 10822 PWs)   bands (ev):

   -62.5378 -36.8132 -36.6423 -36.5989 -14.1772 -13.7947  -7.0145  -6.1250
    -5.5378  -4.8013  -3.3203  -3.2844  -2.4215   0.4797   0.8352   1.7427

     occupation numbers 
     1.0000   1.0000   1.0000   1.0000   1.0000   1.0000   1.0000   1.0000
     1.0000   1.0000   1.0000   1.0000   1.0000   0.0000   0.0000   0.0000

          k = 0.0833 0.5319 0.0000 ( 10796 PWs)   bands (ev):

   -62.5331 -36.8556 -36.6331 -36.6115 -13.8905 -13.6818  -7.2681  -6.4680
    -5.6599  -4.8610  -3.4783  -3.1985  -2.1780   0.5541   1.0531   2.1363

     occupation numbers 
     1.0000   1.0000   1.0000   1.0000   1.0000   1.0000   1.0000   1.0000
     1.0000   1.0000   1.0000   1.0000   1.0000   0.0000   0.0000   0.0000

          k = 0.1667 0.0967 0.0000 ( 10871 PWs)   bands (ev):

   -62.5609 -36.6885 -36.6026 -36.5277 -15.3465 -14.2751  -6.8503  -5.0443
    -4.5723  -3.8758  -3.7184  -2.7545  -1.9569   0.6104   0.8788   0.9423

     occupation numbers 
     1.0000   1.0000   1.0000   1.0000   1.0000   1.0000   1.0000   1.0000
     1.0000   1.0000   1.0000   1.0000   1.0000   0.0000   0.0000   0.0000

          k = 0.1667 0.1934 0.0000 ( 10859 PWs)   bands (ev):

   -62.5551 -36.6769 -36.6549 -36.5473 -15.0809 -14.1651  -6.6519  -5.3531
    -4.8990  -4.2503  -3.6787  -2.6796  -2.2128   0.4247   0.7835   0.8621

     occupation numbers 
     1.0000   1.0000   1.0000   1.0000   1.0000   1.0000   1.0000   1.0000
     1.0000   1.0000   1.0000   1.0000   1.0000   0.0000   0.0000   0.0000

          k = 0.1667 0.2901 0.0000 ( 10850 PWs)   bands (ev):

   -62.5471 -36.7197 -36.6609 -36.5800 -14.6903 -14.0023  -6.5758  -5.4882
    -5.3266  -4.8407  -3.6445  -2.7152  -2.4611   0.2578   0.7863   0.9680

     occupation numbers 
     1.0000   1.0000   1.0000   1.0000   1.0000   1.0000   1.0000   1.0000
     1.0000   1.0000   1.0000   1.0000   1.0000   0.0000   0.0000   0.0000

          k = 0.1667 0.3868 0.0000 ( 10823 PWs)   bands (ev):

   -62.5391 -36.7807 -36.6450 -36.6158 -14.2583 -13.8216  -6.7623  -6.0133
    -5.3864  -4.9495  -3.9076  -3.0107  -2.4270   0.4028   0.8569   1.2984

     occupation numbers 
     1.0000   1.0000   1.0000   1.0000   1.0000   1.0000   1.0000   1.0000
     1.0000   1.0000   1.0000   1.0000   1.0000   0.0000   0.0000   0.0000

          k = 0.1667 0.4835 0.0000 ( 10793 PWs)   bands (ev):

   -62.5333 -36.8239 -36.6430 -36.6333 -13.9068 -13.6748  -6.9508  -6.5358
    -5.4831  -4.8747  -4.0405  -3.3676  -2.1754   0.5188   1.0921   1.6483

     occupation numbers 
     1.0000   1.0000   1.0000   1.0000   1.0000   1.0000   1.0000   1.0000
     1.0000   1.0000   1.0000   1.0000   1.0000   0.0000   0.0000   0.0000

          k = 0.1667 0.5802 0.0000 ( 10790 PWs)   bands (ev):

   -62.5311 -36.8394 -36.6532 -36.6290 -13.7685 -13.6174  -7.0173  -6.7257
    -5.6025  -4.8091  -4.0413  -3.5366  -1.9948   0.4308   1.3407   1.8071

     occupation numbers 
     1.0000   1.0000   1.0000   1.0000   1.0000   1.0000   1.0000   1.0000
     1.0000   1.0000   1.0000   1.0000   1.0000   0.0000   0.0000   0.0000

          k = 0.1667-0.0000 0.0000 ( 10897 PWs)   bands (ev):

   -62.5631 -36.6927 -36.5810 -36.5229 -15.4401 -14.3137  -6.9350  -4.8953
    -4.3549  -3.9713  -3.7137  -2.6562  -1.8660   0.7026   0.7996   1.0064

     occupation numbers 
     1.0000   1.0000   1.0000   1.0000   1.0000   1.0000   1.0000   1.0000
     1.0000   1.0000   1.0000   1.0000   1.0000   0.0000   0.0000   0.0000

          k = 0.2500 0.1451 0.0000 ( 10862 PWs)   bands (ev):

   -62.5520 -36.6929 -36.6704 -36.5485 -14.9230 -14.1033  -6.6406  -5.4871
    -5.2241  -4.1434  -3.4622  -2.9920  -2.3889   0.4904   0.6742   1.2044

     occupation numbers 
     1.0000   1.0000   1.0000   1.0000   1.0000   1.0000   1.0000   1.0000
     1.0000   1.0000   1.0000   1.0000   1.0000   0.0000   0.0000   0.0000

          k = 0.2500 0.2418 0.0000 ( 10861 PWs)   bands (ev):

   -62.5461 -36.7417 -36.6588 -36.5708 -14.6284 -13.9818  -6.6792  -5.5451
    -5.5315  -4.6021  -3.4177  -2.9655  -2.5245   0.3620   0.7371   1.2588

     occupation numbers 
     1.0000   1.0000   1.0000   1.0000   1.0000   1.0000   1.0000   1.0000
     1.0000   1.0000   1.0000   1.0000   1.0000   0.0000   0.0000   0.0000

          k = 0.2500 0.3385 0.0000 ( 10821 PWs)   bands (ev):

   -62.5393 -36.7822 -36.6453 -36.6125 -14.2620 -13.8262  -6.7646  -6.0135
    -5.3979  -4.9384  -3.8908  -3.0096  -2.4311   0.4041   0.8606   1.2990

     occupation numbers 
     1.0000   1.0000   1.0000   1.0000   1.0000   1.0000   1.0000   1.0000
     1.0000   1.0000   1.0000   1.0000   1.0000   0.0000   0.0000   0.0000

          k = 0.2500 0.4352 0.0000 ( 10817 PWs)   bands (ev):

   -62.5335 -36.8037 -36.6619 -36.6336 -13.9173 -13.6745  -6.7615  -6.5641
    -5.2745  -4.8871  -4.5658  -3.2961  -2.2036   0.4831   1.1210   1.4097

     occupation numbers 
     1.0000   1.0000   1.0000   1.0000   1.0000   1.0000   1.0000   1.0000
     1.0000   1.0000   1.0000   1.0000   1.0000   0.0000   0.0000   0.0000

          k = 0.2500 0.5319 0.0000 ( 10774 PWs)   bands (ev):

   -62.5301 -36.8073 -36.6993 -36.6269 -13.7045 -13.5779  -6.9036  -6.6287
    -5.4709  -4.8828  -4.6979  -3.6207  -1.8887   0.2112   1.4720   1.5870

     occupation numbers 
     1.0000   1.0000   1.0000   1.0000   1.0000   1.0000   1.0000   1.0000
     1.0000   1.0000   1.0000   1.0000   1.0000   0.0000   0.0000   0.0000

          k = 0.2500-0.0484 0.0000 ( 10870 PWs)   bands (ev):

   -62.5553 -36.6772 -36.6555 -36.5448 -15.0848 -14.1688  -6.6540  -5.3539
    -4.8926  -4.2492  -3.6734  -2.6826  -2.2124   0.4265   0.7766   0.8858

     occupation numbers 
     1.0000   1.0000   1.0000   1.0000   1.0000   1.0000   1.0000   1.0000
     1.0000   1.0000   1.0000   1.0000   1.0000   0.0000   0.0000   0.0000

          k = 0.3333 0.1934 0.0000 ( 10828 PWs)   bands (ev):

   -62.5429 -36.7820 -36.6523 -36.5691 -14.4489 -13.9148  -6.8838  -5.8237
    -5.5709  -4.5015  -3.2857  -3.0458  -2.6376   0.5226   0.6511   1.6951

     occupation numbers 
     1.0000   1.0000   1.0000   1.0000   1.0000   1.0000   1.0000   1.0000
     1.0000   1.0000   1.0000   1.0000   1.0000   0.0000   0.0000   0.0000

          k = 0.3333 0.2901 0.0000 ( 10820 PWs)   bands (ev):

   -62.5383 -36.8153 -36.6431 -36.5916 -14.1874 -13.8073  -7.0205  -6.1238
    -5.5531  -4.7674  -3.2890  -3.2884  -2.4325   0.4835   0.8404   1.7445

     occupation numbers 
     1.0000   1.0000   1.0000   1.0000   1.0000   1.0000   1.0000   1.0000
     1.0000   1.0000   1.0000   1.0000   1.0000   0.0000   0.0000   0.0000

          k = 0.3333 0.3868 0.0000 ( 10799 PWs)   bands (ev):

   -62.5337 -36.8256 -36.6376 -36.6339 -13.9147 -13.6846  -6.9567  -6.5288
    -5.4929  -4.8572  -4.0151  -3.3705  -2.1853   0.5166   1.0926   1.6523

     occupation numbers 
     1.0000   1.0000   1.0000   1.0000   1.0000   1.0000   1.0000   1.0000
     1.0000   1.0000   1.0000   1.0000   1.0000   0.0000   0.0000   0.0000

          k = 0.3333 0.4835 0.0000 ( 10768 PWs)   bands (ev):

   -62.5303 -36.8084 -36.6963 -36.6272 -13.7089 -13.5830  -6.8983  -6.6307
    -5.4783  -4.8681  -4.6895  -3.6247  -1.8926   0.2084   1.4738   1.5813

     occupation numbers 
     1.0000   1.0000   1.0000   1.0000   1.0000   1.0000   1.0000   1.0000
     1.0000   1.0000   1.0000   1.0000   1.0000   0.0000   0.0000   0.0000

          k = 0.3333 0.5802 0.0000 ( 10772 PWs)   bands (ev):

   -62.5290 -36.7809 -36.7391 -36.6247 -13.6326 -13.5429  -7.0431  -6.2333
    -5.7198  -5.2230  -4.5328  -3.8109  -1.6962  -0.0372   1.3855   1.8350

     occupation numbers 
     1.0000   1.0000   1.0000   1.0000   1.0000   1.0000   1.0000   1.0000
     1.0000   1.0000   1.0000   1.0000   1.0000   0.0000   0.0000   0.0000

          k = 0.3333-0.0967 0.0000 ( 10862 PWs)   bands (ev):

   -62.5464 -36.7408 -36.6591 -36.5699 -14.6328 -13.9857  -6.6760  -5.5377
    -5.5275  -4.5998  -3.4339  -2.9715  -2.5093   0.3675   0.7160   1.2853

     occupation numbers 
     1.0000   1.0000   1.0000   1.0000   1.0000   1.0000   1.0000   1.0000
     1.0000   1.0000   1.0000   1.0000   1.0000   0.0000   0.0000   0.0000

          k = 0.3333-0.0000 0.0000 ( 10853 PWs)   bands (ev):

   -62.5476 -36.7197 -36.6616 -36.5763 -14.6986 -14.0102  -6.5732  -5.4890
    -5.3175  -4.8319  -3.6527  -2.7206  -2.4484   0.2630   0.7674   0.9974

     occupation numbers 
     1.0000   1.0000   1.0000   1.0000   1.0000   1.0000   1.0000   1.0000
     1.0000   1.0000   1.0000   1.0000   1.0000   0.0000   0.0000   0.0000

          k = 0.4167 0.2418 0.0000 ( 10800 PWs)   bands (ev):

   -62.5363 -36.8464 -36.6390 -36.5842 -14.0559 -13.7638  -7.2546  -6.2605
    -5.6536  -4.7341  -3.4734  -2.7536  -2.4750   0.5104   0.9048   2.0615

     occupation numbers 
     1.0000   1.0000   1.0000   1.0000   1.0000   1.0000   1.0000   1.0000
     1.0000   1.0000   1.0000   1.0000   1.0000   0.0000   0.0000   0.0000

          k = 0.4167 0.3385 0.0000 ( 10785 PWs)   bands (ev):

   -62.5338 -36.8570 -36.6341 -36.6036 -13.9044 -13.6987  -7.2762  -6.4590
    -5.6664  -4.8213  -3.4901  -3.1665  -2.1916   0.5501   1.0490   2.1431

     occupation numbers 
     1.0000   1.0000   1.0000   1.0000   1.0000   1.0000   1.0000   1.0000
     1.0000   1.0000   1.0000   1.0000   1.0000   0.0000   0.0000   0.0000

          k = 0.4167 0.4352 0.0000 ( 10790 PWs)   bands (ev):

   -62.5317 -36.8405 -36.6470 -36.6299 -13.7803 -13.6311  -7.0207  -6.7135
    -5.6080  -4.7837  -4.0196  -3.5473  -2.0012   0.4223   1.3262   1.8146

     occupation numbers 
     1.0000   1.0000   1.0000   1.0000   1.0000   1.0000   1.0000   1.0000
     1.0000   1.0000   1.0000   1.0000   1.0000   0.0000   0.0000   0.0000

          k = 0.4167 0.5319 0.0000 ( 10780 PWs)   bands (ev):

   -62.5304 -36.8076 -36.6958 -36.6274 -13.7128 -13.5866  -6.8938  -6.6213
    -5.4785  -4.8770  -4.6830  -3.6304  -1.8819   0.1964   1.4762   1.5671

     occupation numbers 
     1.0000   1.0000   1.0000   1.0000   1.0000   1.0000   1.0000   1.0000
     1.0000   1.0000   1.0000   1.0000   1.0000   0.0000   0.0000   0.0000

          k = 0.4167-0.1451 0.0000 ( 10817 PWs)   bands (ev):

   -62.5385 -36.8142 -36.6433 -36.5914 -14.1913 -13.8104  -7.0135  -6.1192
    -5.5525  -4.7618  -3.3079  -3.2961  -2.4120   0.4888   0.8119   1.7679

     occupation numbers 
     1.0000   1.0000   1.0000   1.0000   1.0000   1.0000   1.0000   1.0000
     1.0000   1.0000   1.0000   1.0000   1.0000   0.0000   0.0000   0.0000

          k = 0.4167-0.0484 0.0000 ( 10831 PWs)   bands (ev):

   -62.5397 -36.7805 -36.6458 -36.6110 -14.2702 -13.8335  -6.7529  -6.0027
    -5.3944  -4.9310  -3.9159  -3.0183  -2.4073   0.4079   0.8228   1.3232

     occupation numbers 
     1.0000   1.0000   1.0000   1.0000   1.0000   1.0000   1.0000   1.0000
     1.0000   1.0000   1.0000   1.0000   1.0000   0.0000   0.0000   0.0000

          k =-0.5000-0.2901 0.0000 ( 10784 PWs)   bands (ev):

   -62.5339 -36.8699 -36.6342 -36.5897 -13.8988 -13.7051  -7.4122  -6.4218
    -5.7225  -4.8143  -3.5339  -2.6530  -2.3129   0.5337   1.0446   2.1818

     occupation numbers 
     1.0000   1.0000   1.0000   1.0000   1.0000   1.0000   1.0000   1.0000
     1.0000   1.0000   1.0000   1.0000   1.0000   0.0000   0.0000   0.0000

          k =-0.5000-0.1934 0.0000 ( 10771 PWs)   bands (ev):

   -62.5338 -36.8565 -36.6342 -36.6036 -13.9060 -13.6998  -7.2727  -6.4574
    -5.6669  -4.8182  -3.4939  -3.1741  -2.1812   0.5482   1.0371   2.1606

     occupation numbers 
     1.0000   1.0000   1.0000   1.0000   1.0000   1.0000   1.0000   1.0000
     1.0000   1.0000   1.0000   1.0000   1.0000   0.0000   0.0000   0.0000

          k =-0.5000-0.0967 0.0000 ( 10788 PWs)   bands (ev):

   -62.5339 -36.8241 -36.6372 -36.6342 -13.9201 -13.6892  -6.9451  -6.5227
    -5.4926  -4.8498  -4.0319  -3.3789  -2.1652   0.5088   1.0640   1.6646

     occupation numbers 
     1.0000   1.0000   1.0000   1.0000   1.0000   1.0000   1.0000   1.0000
     1.0000   1.0000   1.0000   1.0000   1.0000   0.0000   0.0000   0.0000

          k =-0.5000 0.0000 0.0000 ( 10815 PWs)   bands (ev):

   -62.5339 -36.8024 -36.6596 -36.6342 -13.9271 -13.6838  -6.7467  -6.5528
    -5.2721  -4.8746  -4.5846  -3.3054  -2.1834   0.4705   1.0879   1.4219

     occupation numbers 
     1.0000   1.0000   1.0000   1.0000   1.0000   1.0000   1.0000   1.0000
     1.0000   1.0000   1.0000   1.0000   1.0000   0.0000   0.0000   0.0000

     highest occupied, lowest unoccupied level (ev):    -1.6620   -0.0372

!    total energy              =    -181.57959231 Ry
     estimated scf accuracy    <          1.0E-13 Ry

     The total energy is the sum of the following terms:
     one-electron contribution =   -1374.11611321 Ry
     hartree contribution      =     686.59774104 Ry
     xc contribution           =     -29.68012890 Ry
     ewald contribution        =     535.61890876 Ry

     convergence has been achieved in   9 iterations

     negative rho (up, down):  3.873E-04 0.000E+00

     Forces acting on atoms (cartesian axes, Ry/au):

     atom    1 type  1   force =     0.00000000   -0.00004453    0.00000000
     atom    2 type  2   force =     0.00000000    0.00002227   -0.00000362
     atom    3 type  2   force =     0.00000000    0.00002227    0.00000362
     The non-local contrib.  to forces
     atom    1 type  1   force =     0.00000000    0.00011613    0.00000000
     atom    2 type  2   force =     0.00000000    0.00020641   -0.27418869
     atom    3 type  2   force =     0.00000000    0.00020641    0.27418869
     The ionic contribution  to forces
     atom    1 type  1   force =     0.00000000    0.04564653    0.00000000
     atom    2 type  2   force =    -0.00000000   -0.02282326   37.02915754
     atom    3 type  2   force =    -0.00000000   -0.02282326  -37.02915754
     The local contribution  to forces
     atom    1 type  1   force =    -0.00000000   -0.04583513    0.00000000
     atom    2 type  2   force =    -0.00000000    0.02261860  -36.75752167
     atom    3 type  2   force =    -0.00000000    0.02261860   36.75752167
     The core correction contribution to forces
     atom    1 type  1   force =     0.00000000    0.00002760    0.00000000
     atom    2 type  2   force =     0.00000000    0.00002034    0.00254860
     atom    3 type  2   force =     0.00000000    0.00002034   -0.00254860
     The Hubbard contrib.    to forces
     atom    1 type  1   force =     0.00000000    0.00000000    0.00000000
     atom    2 type  2   force =     0.00000000    0.00000000    0.00000000
     atom    3 type  2   force =     0.00000000    0.00000000    0.00000000
     The SCF correction term to forces
     atom    1 type  1   force =    -0.00000000    0.00000008   -0.00000000
     atom    2 type  2   force =     0.00000000   -0.00000009    0.00000059
     atom    3 type  2   force =     0.00000000   -0.00000009   -0.00000059

     Total force =     0.000055     Total SCF correction =     0.000001


     Computing stress (Cartesian axis) and pressure


     negative rho (up, down):  3.873E-04 0.000E+00
          total   stress  (Ry/bohr**3)                   (kbar)     P=       -1.42
  -0.00001899   0.00000000   0.00000000           -2.79        0.00        0.00
   0.00000000  -0.00000475   0.00000000            0.00       -0.70        0.00
   0.00000000   0.00000000  -0.00000529            0.00        0.00       -0.78

     kinetic stress (kbar)   4839.84     -0.00      0.00
                               -0.00   4843.88      0.00
                                0.00      0.00   4891.66

     local   stress (kbar)-145611.99      0.00     -0.00
                                0.00-145635.34     -0.00
                               -0.00     -0.00 142587.21

     nonloc. stress (kbar)   2216.94     -0.00      0.00
                               -0.00   2216.39      0.00
                                0.00      0.00   2205.97

     hartree stress (kbar)  71410.73      0.00      0.00
                                0.00  71418.46      0.00
                                0.00      0.00 -69624.83

     exc-cor stress (kbar)   -411.21     -0.00      0.00
                               -0.00   -411.16      0.00
                                0.00      0.00   -412.26

     corecor stress (kbar)   -545.09      0.00      0.00
                                0.00   -545.10      0.00
                                0.00      0.00   -545.52

     ewald   stress (kbar)  68097.99     -0.00     -0.00
                               -0.00  68112.17      0.00
                               -0.00      0.00 -79103.01

     hubbard stress (kbar)      0.00      0.00      0.00
                                0.00      0.00      0.00
                                0.00      0.00      0.00

     DFT-D   stress (kbar)      0.00      0.00      0.00
                                0.00      0.00      0.00
                                0.00      0.00      0.00

     XDM     stress (kbar)      0.00      0.00      0.00
                                0.00      0.00      0.00
                                0.00      0.00      0.00

     dft-nl  stress (kbar)      0.00      0.00      0.00
                                0.00      0.00      0.00
                                0.00      0.00      0.00

     TS-vdW  stress (kbar)      0.00      0.00      0.00
                                0.00      0.00      0.00
                                0.00      0.00      0.00

     MDB     stress (kbar)      0.00      0.00      0.00
                                0.00      0.00      0.00
                                0.00      0.00      0.00

     3D-RISM stress (kbar)      0.00      0.00      0.00
                                0.00      0.00      0.00
                                0.00      0.00      0.00

     Energy error            =      1.3E-08 Ry
     Gradient error          =      4.5E-05 Ry/Bohr

     number of scf cycles    =   5
     number of bfgs steps    =   4

     energy             old  =    -181.5795922934 Ry
     energy             new  =    -181.5795923065 Ry

     CASE: energy            _new < energy            _old

     small trust_radius: resetting bfgs history

     new trust radius        =       0.0000445347 bohr
     new conv_thr            =            1.3E-14 Ry


ATOMIC_POSITIONS (crystal)
Mo               0.0001888669        0.0003777338        0.5000000000
S                0.6665722332        0.3331444664        0.5673682024
S                0.6665722332        0.3331444664        0.4326317976



     Writing config-only to output data dir ./tmp/mos2.save/ :
     XML data file
     NEW-OLD atomic charge density approx. for the potential

     negative rho (up, down):  3.873E-04 0.000E+00

     total cpu time spent up to now is      602.4 secs

     Self-consistent Calculation

     iteration #  1     ecut=    60.00 Ry     beta= 0.30
     CG style diagonalization

---- Real-time Memory Report at c_bands before calling an iterative solver
           220 MiB given to the printing process from OS
             0 MiB allocation reported by mallinfo(arena+hblkhd)
          2268 MiB available memory on the node where the printing process lives
------------------
     ethr =  1.00E-06,  avg # of iterations =  2.0

     Threshold (ethr) on eigenvalues was too large:
     Diagonalizing with lowered threshold

     CG style diagonalization

---- Real-time Memory Report at c_bands before calling an iterative solver
           220 MiB given to the printing process from OS
             0 MiB allocation reported by mallinfo(arena+hblkhd)
          2403 MiB available memory on the node where the printing process lives
------------------
     ethr =  2.45E-11,  avg # of iterations =  5.1

     negative rho (up, down):  3.873E-04 0.000E+00

     total cpu time spent up to now is      617.5 secs

     total energy              =    -181.57959231 Ry
     estimated scf accuracy    <          7.7E-11 Ry

     iteration #  2     ecut=    60.00 Ry     beta= 0.30
     CG style diagonalization

---- Real-time Memory Report at c_bands before calling an iterative solver
           220 MiB given to the printing process from OS
             0 MiB allocation reported by mallinfo(arena+hblkhd)
          2199 MiB available memory on the node where the printing process lives
------------------
     ethr =  2.95E-13,  avg # of iterations =  5.6

     negative rho (up, down):  3.873E-04 0.000E+00

     total cpu time spent up to now is      628.4 secs

     total energy              =    -181.57959231 Ry
     estimated scf accuracy    <          4.5E-11 Ry

     iteration #  3     ecut=    60.00 Ry     beta= 0.30
     CG style diagonalization

---- Real-time Memory Report at c_bands before calling an iterative solver
           220 MiB given to the printing process from OS
             0 MiB allocation reported by mallinfo(arena+hblkhd)
          1949 MiB available memory on the node where the printing process lives
------------------
     ethr =  1.72E-13,  avg # of iterations =  3.2

     negative rho (up, down):  3.873E-04 0.000E+00

     total cpu time spent up to now is      635.3 secs

     total energy              =    -181.57959231 Ry
     estimated scf accuracy    <          1.5E-11 Ry

     iteration #  4     ecut=    60.00 Ry     beta= 0.30
     CG style diagonalization

---- Real-time Memory Report at c_bands before calling an iterative solver
           220 MiB given to the printing process from OS
             0 MiB allocation reported by mallinfo(arena+hblkhd)
          2266 MiB available memory on the node where the printing process lives
------------------
     ethr =  1.00E-13,  avg # of iterations =  3.4

     negative rho (up, down):  3.873E-04 0.000E+00

     total cpu time spent up to now is      642.2 secs

     total energy              =    -181.57959231 Ry
     estimated scf accuracy    <          1.6E-12 Ry

     iteration #  5     ecut=    60.00 Ry     beta= 0.30
     CG style diagonalization

---- Real-time Memory Report at c_bands before calling an iterative solver
           220 MiB given to the printing process from OS
             0 MiB allocation reported by mallinfo(arena+hblkhd)
          2190 MiB available memory on the node where the printing process lives
------------------
     ethr =  1.00E-13,  avg # of iterations =  3.0

     negative rho (up, down):  3.873E-04 0.000E+00

     total cpu time spent up to now is      648.9 secs

     total energy              =    -181.57959231 Ry
     estimated scf accuracy    <          7.8E-13 Ry

     iteration #  6     ecut=    60.00 Ry     beta= 0.30
     CG style diagonalization

---- Real-time Memory Report at c_bands before calling an iterative solver
           220 MiB given to the printing process from OS
             0 MiB allocation reported by mallinfo(arena+hblkhd)
          1979 MiB available memory on the node where the printing process lives
------------------
     ethr =  1.00E-13,  avg # of iterations =  3.0

     negative rho (up, down):  3.873E-04 0.000E+00

     total cpu time spent up to now is      655.2 secs

     total energy              =    -181.57959231 Ry
     estimated scf accuracy    <          5.3E-14 Ry

     iteration #  7     ecut=    60.00 Ry     beta= 0.30
     CG style diagonalization

---- Real-time Memory Report at c_bands before calling an iterative solver
           220 MiB given to the printing process from OS
             0 MiB allocation reported by mallinfo(arena+hblkhd)
          1972 MiB available memory on the node where the printing process lives
------------------
     ethr =  1.00E-13,  avg # of iterations =  3.0

     negative rho (up, down):  3.873E-04 0.000E+00

     total cpu time spent up to now is      661.7 secs

     total energy              =    -181.57959231 Ry
     estimated scf accuracy    <          1.8E-14 Ry

     iteration #  8     ecut=    60.00 Ry     beta= 0.30
     CG style diagonalization

---- Real-time Memory Report at c_bands before calling an iterative solver
           220 MiB given to the printing process from OS
             0 MiB allocation reported by mallinfo(arena+hblkhd)
          1945 MiB available memory on the node where the printing process lives
------------------
     ethr =  1.00E-13,  avg # of iterations =  3.0

     negative rho (up, down):  3.873E-04 0.000E+00

     total cpu time spent up to now is      668.2 secs

     End of self-consistent calculation

          k = 0.0000 0.0000 0.0000 ( 10891 PWs)   bands (ev):

   -62.5699 -36.7065 -36.5128 -36.5051 -15.7338 -14.4336  -7.2563  -4.3152
    -4.2628  -3.4256  -3.2033  -3.1718  -1.6620   1.0510   1.0776   1.2895

     occupation numbers 
     1.0000   1.0000   1.0000   1.0000   1.0000   1.0000   1.0000   1.0000
     1.0000   1.0000   1.0000   1.0000   1.0000   0.0000   0.0000   0.0000

          k = 0.0000 0.0967 0.0000 ( 10887 PWs)   bands (ev):

   -62.5675 -36.7016 -36.5301 -36.5185 -15.6321 -14.3914  -7.1400  -4.4925
    -4.2088  -3.9170  -3.3671  -2.8353  -1.7141   0.9402   1.0603   1.1744

     occupation numbers 
     1.0000   1.0000   1.0000   1.0000   1.0000   1.0000   1.0000   1.0000
     1.0000   1.0000   1.0000   1.0000   1.0000   0.0000   0.0000   0.0000

          k = 0.0000 0.1934 0.0000 ( 10879 PWs)   bands (ev):

   -62.5607 -36.6882 -36.5980 -36.5343 -15.3431 -14.2716  -6.8478  -5.0184
    -4.5586  -3.9124  -3.7527  -2.7437  -1.9473   0.6338   0.8802   0.9070

     occupation numbers 
     1.0000   1.0000   1.0000   1.0000   1.0000   1.0000   1.0000   1.0000
     1.0000   1.0000   1.0000   1.0000   1.0000   0.0000   0.0000   0.0000

          k = 0.0000 0.2901 0.0000 ( 10879 PWs)   bands (ev):

   -62.5516 -36.6895 -36.6698 -36.5557 -14.9159 -14.0955  -6.6389  -5.4635
    -5.2128  -4.1848  -3.4974  -2.9837  -2.3746   0.5032   0.6426   1.2008

     occupation numbers 
     1.0000   1.0000   1.0000   1.0000   1.0000   1.0000   1.0000   1.0000
     1.0000   1.0000   1.0000   1.0000   1.0000   0.0000   0.0000   0.0000

          k = 0.0000 0.3868 0.0000 ( 10849 PWs)   bands (ev):

   -62.5423 -36.7798 -36.6514 -36.5771 -14.4377 -13.9019  -6.8813  -5.8200
    -5.5502  -4.5484  -3.2752  -3.0831  -2.6220   0.5032   0.6579   1.6882

     occupation numbers 
     1.0000   1.0000   1.0000   1.0000   1.0000   1.0000   1.0000   1.0000
     1.0000   1.0000   1.0000   1.0000   1.0000   0.0000   0.0000   0.0000

          k = 0.0000 0.4835 0.0000 ( 10801 PWs)   bands (ev):

   -62.5355 -36.8450 -36.6379 -36.5926 -14.0412 -13.7463  -7.2483  -6.2652
    -5.6428  -4.7845  -3.4583  -2.7965  -2.4539   0.5069   0.9116   2.0498

     occupation numbers 
     1.0000   1.0000   1.0000   1.0000   1.0000   1.0000   1.0000   1.0000
     1.0000   1.0000   1.0000   1.0000   1.0000   0.0000   0.0000   0.0000

          k = 0.0000-0.5802 0.0000 ( 10796 PWs)   bands (ev):

   -62.5331 -36.8687 -36.6330 -36.5983 -13.8827 -13.6858  -7.4040  -6.4301
    -5.7171  -4.8658  -3.5165  -2.6991  -2.2882   0.5382   1.0532   2.1673

     occupation numbers 
     1.0000   1.0000   1.0000   1.0000   1.0000   1.0000   1.0000   1.0000
     1.0000   1.0000   1.0000   1.0000   1.0000   0.0000   0.0000   0.0000

          k = 0.0833 0.0484 0.0000 ( 10885 PWs)   bands (ev):

   -62.5675 -36.7016 -36.5359 -36.5122 -15.6330 -14.3923  -7.1409  -4.5279
    -4.1693  -3.9282  -3.3403  -2.8488  -1.7166   0.9276   1.0280   1.2094

     occupation numbers 
     1.0000   1.0000   1.0000   1.0000   1.0000   1.0000   1.0000   1.0000
     1.0000   1.0000   1.0000   1.0000   1.0000   0.0000   0.0000   0.0000

          k = 0.0833 0.1451 0.0000 ( 10871 PWs)   bands (ev):

   -62.5629 -36.6925 -36.5774 -36.5279 -15.4375 -14.3112  -6.9328  -4.8750
    -4.3500  -4.0003  -3.7283  -2.6511  -1.8609   0.7167   0.7900   0.9900

     occupation numbers 
     1.0000   1.0000   1.0000   1.0000   1.0000   1.0000   1.0000   1.0000
     1.0000   1.0000   1.0000   1.0000   1.0000   0.0000   0.0000   0.0000

          k = 0.0833 0.2418 0.0000 ( 10864 PWs)   bands (ev):

   -62.5549 -36.6766 -36.6526 -36.5510 -15.0784 -14.1623  -6.6510  -5.3392
    -4.8857  -4.2741  -3.6981  -2.6782  -2.2053   0.4287   0.7685   0.8650

     occupation numbers 
     1.0000   1.0000   1.0000   1.0000   1.0000   1.0000   1.0000   1.0000
     1.0000   1.0000   1.0000   1.0000   1.0000   0.0000   0.0000   0.0000

          k = 0.0833 0.3385 0.0000 ( 10861 PWs)   bands (ev):

   -62.5458 -36.7391 -36.6583 -36.5768 -14.6223 -13.9746  -6.6776  -5.5356
    -5.5107  -4.6330  -3.4475  -2.9654  -2.5130   0.3554   0.7274   1.2614

     occupation numbers 
     1.0000   1.0000   1.0000   1.0000   1.0000   1.0000   1.0000   1.0000
     1.0000   1.0000   1.0000   1.0000   1.0000   0.0000   0.0000   0.0000

          k = 0.0833 0.4352 0.0000 ( 10822 PWs)   bands (ev):

   -62.5377 -36.8132 -36.6423 -36.5989 -14.1771 -13.7947  -7.0145  -6.1250
    -5.5377  -4.8013  -3.3204  -3.2844  -2.4215   0.4797   0.8352   1.7428

     occupation numbers 
     1.0000   1.0000   1.0000   1.0000   1.0000   1.0000   1.0000   1.0000
     1.0000   1.0000   1.0000   1.0000   1.0000   0.0000   0.0000   0.0000

          k = 0.0833 0.5319 0.0000 ( 10796 PWs)   bands (ev):

   -62.5331 -36.8556 -36.6331 -36.6115 -13.8905 -13.6818  -7.2681  -6.4680
    -5.6599  -4.8609  -3.4784  -3.1985  -2.1780   0.5541   1.0531   2.1363

     occupation numbers 
     1.0000   1.0000   1.0000   1.0000   1.0000   1.0000   1.0000   1.0000
     1.0000   1.0000   1.0000   1.0000   1.0000   0.0000   0.0000   0.0000

          k = 0.1667 0.0967 0.0000 ( 10871 PWs)   bands (ev):

   -62.5609 -36.6885 -36.6026 -36.5277 -15.3465 -14.2751  -6.8503  -5.0443
    -4.5723  -3.8758  -3.7185  -2.7545  -1.9569   0.6104   0.8788   0.9423

     occupation numbers 
     1.0000   1.0000   1.0000   1.0000   1.0000   1.0000   1.0000   1.0000
     1.0000   1.0000   1.0000   1.0000   1.0000   0.0000   0.0000   0.0000

          k = 0.1667 0.1934 0.0000 ( 10859 PWs)   bands (ev):

   -62.5551 -36.6768 -36.6549 -36.5473 -15.0809 -14.1651  -6.6519  -5.3531
    -4.8990  -4.2504  -3.6787  -2.6796  -2.2128   0.4248   0.7835   0.8621

     occupation numbers 
     1.0000   1.0000   1.0000   1.0000   1.0000   1.0000   1.0000   1.0000
     1.0000   1.0000   1.0000   1.0000   1.0000   0.0000   0.0000   0.0000

          k = 0.1667 0.2901 0.0000 ( 10850 PWs)   bands (ev):

   -62.5471 -36.7197 -36.6609 -36.5800 -14.6903 -14.0023  -6.5758  -5.4881
    -5.3266  -4.8407  -3.6445  -2.7152  -2.4611   0.2578   0.7863   0.9680

     occupation numbers 
     1.0000   1.0000   1.0000   1.0000   1.0000   1.0000   1.0000   1.0000
     1.0000   1.0000   1.0000   1.0000   1.0000   0.0000   0.0000   0.0000

          k = 0.1667 0.3868 0.0000 ( 10823 PWs)   bands (ev):

   -62.5391 -36.7807 -36.6450 -36.6158 -14.2583 -13.8216  -6.7623  -6.0133
    -5.3864  -4.9495  -3.9076  -3.0107  -2.4271   0.4028   0.8569   1.2984

     occupation numbers 
     1.0000   1.0000   1.0000   1.0000   1.0000   1.0000   1.0000   1.0000
     1.0000   1.0000   1.0000   1.0000   1.0000   0.0000   0.0000   0.0000

          k = 0.1667 0.4835 0.0000 ( 10793 PWs)   bands (ev):

   -62.5333 -36.8239 -36.6430 -36.6333 -13.9068 -13.6749  -6.9508  -6.5358
    -5.4831  -4.8747  -4.0405  -3.3676  -2.1754   0.5188   1.0921   1.6483

     occupation numbers 
     1.0000   1.0000   1.0000   1.0000   1.0000   1.0000   1.0000   1.0000
     1.0000   1.0000   1.0000   1.0000   1.0000   0.0000   0.0000   0.0000

          k = 0.1667 0.5802 0.0000 ( 10790 PWs)   bands (ev):

   -62.5311 -36.8394 -36.6532 -36.6290 -13.7685 -13.6174  -7.0173  -6.7257
    -5.6025  -4.8090  -4.0413  -3.5366  -1.9948   0.4307   1.3406   1.8071

     occupation numbers 
     1.0000   1.0000   1.0000   1.0000   1.0000   1.0000   1.0000   1.0000
     1.0000   1.0000   1.0000   1.0000   1.0000   0.0000   0.0000   0.0000

          k = 0.1667-0.0000 0.0000 ( 10897 PWs)   bands (ev):

   -62.5631 -36.6927 -36.5810 -36.5229 -15.4401 -14.3137  -6.9350  -4.8954
    -4.3548  -3.9713  -3.7138  -2.6562  -1.8660   0.7026   0.7994   1.0064

     occupation numbers 
     1.0000   1.0000   1.0000   1.0000   1.0000   1.0000   1.0000   1.0000
     1.0000   1.0000   1.0000   1.0000   1.0000   0.0000   0.0000   0.0000

          k = 0.2500 0.1451 0.0000 ( 10862 PWs)   bands (ev):

   -62.5520 -36.6929 -36.6704 -36.5485 -14.9230 -14.1033  -6.6406  -5.4871
    -5.2241  -4.1435  -3.4622  -2.9920  -2.3888   0.4904   0.6742   1.2044

     occupation numbers 
     1.0000   1.0000   1.0000   1.0000   1.0000   1.0000   1.0000   1.0000
     1.0000   1.0000   1.0000   1.0000   1.0000   0.0000   0.0000   0.0000

          k = 0.2500 0.2418 0.0000 ( 10861 PWs)   bands (ev):

   -62.5461 -36.7417 -36.6588 -36.5708 -14.6284 -13.9818  -6.6792  -5.5451
    -5.5315  -4.6022  -3.4177  -2.9655  -2.5246   0.3620   0.7371   1.2588

     occupation numbers 
     1.0000   1.0000   1.0000   1.0000   1.0000   1.0000   1.0000   1.0000
     1.0000   1.0000   1.0000   1.0000   1.0000   0.0000   0.0000   0.0000

          k = 0.2500 0.3385 0.0000 ( 10821 PWs)   bands (ev):

   -62.5393 -36.7822 -36.6453 -36.6125 -14.2620 -13.8262  -6.7646  -6.0134
    -5.3980  -4.9385  -3.8908  -3.0095  -2.4311   0.4041   0.8606   1.2989

     occupation numbers 
     1.0000   1.0000   1.0000   1.0000   1.0000   1.0000   1.0000   1.0000
     1.0000   1.0000   1.0000   1.0000   1.0000   0.0000   0.0000   0.0000

          k = 0.2500 0.4352 0.0000 ( 10817 PWs)   bands (ev):

   -62.5335 -36.8037 -36.6619 -36.6336 -13.9173 -13.6745  -6.7615  -6.5641
    -5.2745  -4.8871  -4.5658  -3.2961  -2.2036   0.4831   1.1210   1.4096

     occupation numbers 
     1.0000   1.0000   1.0000   1.0000   1.0000   1.0000   1.0000   1.0000
     1.0000   1.0000   1.0000   1.0000   1.0000   0.0000   0.0000   0.0000

          k = 0.2500 0.5319 0.0000 ( 10774 PWs)   bands (ev):

   -62.5301 -36.8073 -36.6993 -36.6269 -13.7045 -13.5779  -6.9036  -6.6287
    -5.4709  -4.8828  -4.6979  -3.6207  -1.8887   0.2112   1.4720   1.5870

     occupation numbers 
     1.0000   1.0000   1.0000   1.0000   1.0000   1.0000   1.0000   1.0000
     1.0000   1.0000   1.0000   1.0000   1.0000   0.0000   0.0000   0.0000

          k = 0.2500-0.0484 0.0000 ( 10870 PWs)   bands (ev):

   -62.5553 -36.6772 -36.6555 -36.5448 -15.0848 -14.1688  -6.6540  -5.3540
    -4.8926  -4.2493  -3.6734  -2.6826  -2.2123   0.4264   0.7766   0.8858

     occupation numbers 
     1.0000   1.0000   1.0000   1.0000   1.0000   1.0000   1.0000   1.0000
     1.0000   1.0000   1.0000   1.0000   1.0000   0.0000   0.0000   0.0000

          k = 0.3333 0.1934 0.0000 ( 10828 PWs)   bands (ev):

   -62.5429 -36.7820 -36.6523 -36.5691 -14.4489 -13.9148  -6.8838  -5.8237
    -5.5710  -4.5015  -3.2856  -3.0458  -2.6376   0.5226   0.6511   1.6951

     occupation numbers 
     1.0000   1.0000   1.0000   1.0000   1.0000   1.0000   1.0000   1.0000
     1.0000   1.0000   1.0000   1.0000   1.0000   0.0000   0.0000   0.0000

          k = 0.3333 0.2901 0.0000 ( 10820 PWs)   bands (ev):

   -62.5383 -36.8153 -36.6431 -36.5916 -14.1875 -13.8073  -7.0205  -6.1238
    -5.5531  -4.7675  -3.2889  -3.2883  -2.4325   0.4835   0.8404   1.7445

     occupation numbers 
     1.0000   1.0000   1.0000   1.0000   1.0000   1.0000   1.0000   1.0000
     1.0000   1.0000   1.0000   1.0000   1.0000   0.0000   0.0000   0.0000

          k = 0.3333 0.3868 0.0000 ( 10799 PWs)   bands (ev):

   -62.5337 -36.8256 -36.6376 -36.6339 -13.9147 -13.6846  -6.9567  -6.5288
    -5.4930  -4.8573  -4.0151  -3.3705  -2.1853   0.5166   1.0926   1.6522

     occupation numbers 
     1.0000   1.0000   1.0000   1.0000   1.0000   1.0000   1.0000   1.0000
     1.0000   1.0000   1.0000   1.0000   1.0000   0.0000   0.0000   0.0000

          k = 0.3333 0.4835 0.0000 ( 10768 PWs)   bands (ev):

   -62.5303 -36.8084 -36.6963 -36.6272 -13.7089 -13.5830  -6.8983  -6.6307
    -5.4783  -4.8681  -4.6895  -3.6247  -1.8926   0.2084   1.4738   1.5813

     occupation numbers 
     1.0000   1.0000   1.0000   1.0000   1.0000   1.0000   1.0000   1.0000
     1.0000   1.0000   1.0000   1.0000   1.0000   0.0000   0.0000   0.0000

          k = 0.3333 0.5802 0.0000 ( 10772 PWs)   bands (ev):

   -62.5290 -36.7809 -36.7391 -36.6247 -13.6326 -13.5429  -7.0431  -6.2333
    -5.7198  -5.2230  -4.5328  -3.8109  -1.6962  -0.0372   1.3856   1.8351

     occupation numbers 
     1.0000   1.0000   1.0000   1.0000   1.0000   1.0000   1.0000   1.0000
     1.0000   1.0000   1.0000   1.0000   1.0000   0.0000   0.0000   0.0000

          k = 0.3333-0.0967 0.0000 ( 10862 PWs)   bands (ev):

   -62.5463 -36.7408 -36.6591 -36.5699 -14.6329 -13.9857  -6.6760  -5.5377
    -5.5276  -4.5998  -3.4339  -2.9715  -2.5093   0.3675   0.7160   1.2853

     occupation numbers 
     1.0000   1.0000   1.0000   1.0000   1.0000   1.0000   1.0000   1.0000
     1.0000   1.0000   1.0000   1.0000   1.0000   0.0000   0.0000   0.0000

          k = 0.3333-0.0000 0.0000 ( 10853 PWs)   bands (ev):

   -62.5476 -36.7197 -36.6615 -36.5763 -14.6986 -14.0102  -6.5732  -5.4890
    -5.3176  -4.8319  -3.6527  -2.7206  -2.4483   0.2629   0.7674   0.9974

     occupation numbers 
     1.0000   1.0000   1.0000   1.0000   1.0000   1.0000   1.0000   1.0000
     1.0000   1.0000   1.0000   1.0000   1.0000   0.0000   0.0000   0.0000

          k = 0.4167 0.2418 0.0000 ( 10800 PWs)   bands (ev):

   -62.5363 -36.8464 -36.6390 -36.5842 -14.0559 -13.7637  -7.2546  -6.2605
    -5.6536  -4.7342  -3.4734  -2.7536  -2.4750   0.5104   0.9048   2.0615

     occupation numbers 
     1.0000   1.0000   1.0000   1.0000   1.0000   1.0000   1.0000   1.0000
     1.0000   1.0000   1.0000   1.0000   1.0000   0.0000   0.0000   0.0000

          k = 0.4167 0.3385 0.0000 ( 10785 PWs)   bands (ev):

   -62.5338 -36.8570 -36.6341 -36.6036 -13.9044 -13.6986  -7.2762  -6.4590
    -5.6664  -4.8214  -3.4900  -3.1665  -2.1916   0.5501   1.0490   2.1430

     occupation numbers 
     1.0000   1.0000   1.0000   1.0000   1.0000   1.0000   1.0000   1.0000
     1.0000   1.0000   1.0000   1.0000   1.0000   0.0000   0.0000   0.0000

          k = 0.4167 0.4352 0.0000 ( 10790 PWs)   bands (ev):

   -62.5317 -36.8405 -36.6470 -36.6299 -13.7803 -13.6311  -7.0207  -6.7135
    -5.6080  -4.7837  -4.0196  -3.5473  -2.0012   0.4223   1.3262   1.8147

     occupation numbers 
     1.0000   1.0000   1.0000   1.0000   1.0000   1.0000   1.0000   1.0000
     1.0000   1.0000   1.0000   1.0000   1.0000   0.0000   0.0000   0.0000

          k = 0.4167 0.5319 0.0000 ( 10780 PWs)   bands (ev):

   -62.5304 -36.8076 -36.6958 -36.6274 -13.7128 -13.5866  -6.8938  -6.6213
    -5.4785  -4.8770  -4.6830  -3.6304  -1.8819   0.1964   1.4762   1.5671

     occupation numbers 
     1.0000   1.0000   1.0000   1.0000   1.0000   1.0000   1.0000   1.0000
     1.0000   1.0000   1.0000   1.0000   1.0000   0.0000   0.0000   0.0000

          k = 0.4167-0.1451 0.0000 ( 10817 PWs)   bands (ev):

   -62.5385 -36.8142 -36.6433 -36.5914 -14.1913 -13.8103  -7.0135  -6.1192
    -5.5525  -4.7618  -3.3079  -3.2961  -2.4119   0.4888   0.8120   1.7679

     occupation numbers 
     1.0000   1.0000   1.0000   1.0000   1.0000   1.0000   1.0000   1.0000
     1.0000   1.0000   1.0000   1.0000   1.0000   0.0000   0.0000   0.0000

          k = 0.4167-0.0484 0.0000 ( 10831 PWs)   bands (ev):

   -62.5397 -36.7805 -36.6458 -36.6110 -14.2703 -13.8335  -6.7529  -6.0028
    -5.3944  -4.9310  -3.9159  -3.0184  -2.4072   0.4079   0.8229   1.3232

     occupation numbers 
     1.0000   1.0000   1.0000   1.0000   1.0000   1.0000   1.0000   1.0000
     1.0000   1.0000   1.0000   1.0000   1.0000   0.0000   0.0000   0.0000

          k =-0.5000-0.2901 0.0000 ( 10784 PWs)   bands (ev):

   -62.5339 -36.8699 -36.6342 -36.5897 -13.8988 -13.7051  -7.4122  -6.4218
    -5.7225  -4.8144  -3.5339  -2.6530  -2.3128   0.5337   1.0446   2.1817

     occupation numbers 
     1.0000   1.0000   1.0000   1.0000   1.0000   1.0000   1.0000   1.0000
     1.0000   1.0000   1.0000   1.0000   1.0000   0.0000   0.0000   0.0000

          k =-0.5000-0.1934 0.0000 ( 10771 PWs)   bands (ev):

   -62.5338 -36.8565 -36.6342 -36.6036 -13.9060 -13.6998  -7.2727  -6.4575
    -5.6669  -4.8182  -3.4939  -3.1741  -2.1811   0.5482   1.0371   2.1607

     occupation numbers 
     1.0000   1.0000   1.0000   1.0000   1.0000   1.0000   1.0000   1.0000
     1.0000   1.0000   1.0000   1.0000   1.0000   0.0000   0.0000   0.0000

          k =-0.5000-0.0967 0.0000 ( 10788 PWs)   bands (ev):

   -62.5339 -36.8241 -36.6373 -36.6342 -13.9202 -13.6892  -6.9451  -6.5227
    -5.4926  -4.8498  -4.0319  -3.3789  -2.1652   0.5088   1.0640   1.6647

     occupation numbers 
     1.0000   1.0000   1.0000   1.0000   1.0000   1.0000   1.0000   1.0000
     1.0000   1.0000   1.0000   1.0000   1.0000   0.0000   0.0000   0.0000

          k =-0.5000 0.0000 0.0000 ( 10815 PWs)   bands (ev):

   -62.5339 -36.8024 -36.6596 -36.6342 -13.9271 -13.6838  -6.7468  -6.5528
    -5.2721  -4.8746  -4.5846  -3.3055  -2.1834   0.4705   1.0880   1.4219

     occupation numbers 
     1.0000   1.0000   1.0000   1.0000   1.0000   1.0000   1.0000   1.0000
     1.0000   1.0000   1.0000   1.0000   1.0000   0.0000   0.0000   0.0000

     highest occupied, lowest unoccupied level (ev):    -1.6620   -0.0372

!    total energy              =    -181.57959231 Ry
     estimated scf accuracy    <          3.5E-15 Ry

     The total energy is the sum of the following terms:
     one-electron contribution =   -1374.11664077 Ry
     hartree contribution      =     686.59800018 Ry
     xc contribution           =     -29.68013182 Ry
     ewald contribution        =     535.61918009 Ry

     convergence has been achieved in   8 iterations

     negative rho (up, down):  3.873E-04 0.000E+00

     Forces acting on atoms (cartesian axes, Ry/au):

     atom    1 type  1   force =     0.00000000   -0.00001743    0.00000000
     atom    2 type  2   force =     0.00000000    0.00000871   -0.00000218
     atom    3 type  2   force =     0.00000000    0.00000871    0.00000218
     The non-local contrib.  to forces
     atom    1 type  1   force =     0.00000000    0.00010648    0.00000000
     atom    2 type  2   force =     0.00000000    0.00019591   -0.27418795
     atom    3 type  2   force =     0.00000000    0.00019591    0.27418795
     The ionic contribution  to forces
     atom    1 type  1   force =     0.00000000    0.04583373    0.00000000
     atom    2 type  2   force =    -0.00000000   -0.02291687   37.02915960
     atom    3 type  2   force =    -0.00000000   -0.02291687  -37.02915960
     The local contribution  to forces
     atom    1 type  1   force =    -0.00000000   -0.04598601    0.00000000
     atom    2 type  2   force =    -0.00000000    0.02270867  -36.75752236
     atom    3 type  2   force =    -0.00000000    0.02270867   36.75752236
     The core correction contribution to forces
     atom    1 type  1   force =    -0.00000000    0.00002823    0.00000000
     atom    2 type  2   force =     0.00000000    0.00002074    0.00254857
     atom    3 type  2   force =     0.00000000    0.00002074   -0.00254857
     The Hubbard contrib.    to forces
     atom    1 type  1   force =     0.00000000    0.00000000    0.00000000
     atom    2 type  2   force =     0.00000000    0.00000000    0.00000000
     atom    3 type  2   force =     0.00000000    0.00000000    0.00000000
     The SCF correction term to forces
     atom    1 type  1   force =    -0.00000000   -0.00000007    0.00000000
     atom    2 type  2   force =     0.00000000    0.00000004   -0.00000005
     atom    3 type  2   force =     0.00000000    0.00000004    0.00000005

     Total force =     0.000022     Total SCF correction =     0.000000


     Computing stress (Cartesian axis) and pressure


     negative rho (up, down):  3.873E-04 0.000E+00
          total   stress  (Ry/bohr**3)                   (kbar)     P=       -1.42
  -0.00001900   0.00000000   0.00000000           -2.79        0.00        0.00
   0.00000000  -0.00000473   0.00000000            0.00       -0.70        0.00
   0.00000000   0.00000000  -0.00000529            0.00        0.00       -0.78

     kinetic stress (kbar)   4839.84     -0.00      0.00
                               -0.00   4843.88      0.00
                                0.00      0.00   4891.67

     local   stress (kbar)-145611.95      0.00     -0.00
                                0.00-145635.50     -0.00
                               -0.00     -0.00 142587.27

     nonloc. stress (kbar)   2216.94     -0.00      0.00
                               -0.00   2216.39      0.00
                                0.00      0.00   2205.97

     hartree stress (kbar)  71410.73      0.00     -0.00
                                0.00  71418.51      0.00
                               -0.00      0.00 -69624.86

     exc-cor stress (kbar)   -411.21     -0.00      0.00
                               -0.00   -411.16     -0.00
                                0.00     -0.00   -412.26

     corecor stress (kbar)   -545.09      0.00      0.00
                                0.00   -545.10     -0.00
                                0.00     -0.00   -545.52

     ewald   stress (kbar)  68097.95     -0.00     -0.00
                               -0.00  68112.28     -0.00
                               -0.00     -0.00 -79103.05

     hubbard stress (kbar)      0.00      0.00      0.00
                                0.00      0.00      0.00
                                0.00      0.00      0.00

     DFT-D   stress (kbar)      0.00      0.00      0.00
                                0.00      0.00      0.00
                                0.00      0.00      0.00

     XDM     stress (kbar)      0.00      0.00      0.00
                                0.00      0.00      0.00
                                0.00      0.00      0.00

     dft-nl  stress (kbar)      0.00      0.00      0.00
                                0.00      0.00      0.00
                                0.00      0.00      0.00

     TS-vdW  stress (kbar)      0.00      0.00      0.00
                                0.00      0.00      0.00
                                0.00      0.00      0.00

     MDB     stress (kbar)      0.00      0.00      0.00
                                0.00      0.00      0.00
                                0.00      0.00      0.00

     3D-RISM stress (kbar)      0.00      0.00      0.00
                                0.00      0.00      0.00
                                0.00      0.00      0.00

     Energy error            =      2.3E-09 Ry
     Gradient error          =      1.7E-05 Ry/Bohr

     number of scf cycles    =   6
     number of bfgs steps    =   5

     energy             old  =    -181.5795923065 Ry
     energy             new  =    -181.5795923088 Ry

     CASE: energy            _new < energy            _old

     Message from routine bfgs :: compute_trust_radius:
     history already reset at previous step: stopping
     small trust_radius: resetting bfgs history

     new trust radius        =       0.0000174270 bohr
     new conv_thr            =            1.0E-14 Ry


ATOMIC_POSITIONS (crystal)
Mo               0.0001871940        0.0003743881        0.5000000000
S                0.6665730696        0.3331461393        0.5673681527
S                0.6665730696        0.3331461393        0.4326318473



     Writing config-only to output data dir ./tmp/mos2.save/ :
     XML data file
     NEW-OLD atomic charge density approx. for the potential

     negative rho (up, down):  3.873E-04 0.000E+00

     total cpu time spent up to now is      676.1 secs

     Self-consistent Calculation

     iteration #  1     ecut=    60.00 Ry     beta= 0.30
     CG style diagonalization

---- Real-time Memory Report at c_bands before calling an iterative solver
           222 MiB given to the printing process from OS
             0 MiB allocation reported by mallinfo(arena+hblkhd)
          2150 MiB available memory on the node where the printing process lives
------------------
     ethr =  1.00E-06,  avg # of iterations =  2.0

     Threshold (ethr) on eigenvalues was too large:
     Diagonalizing with lowered threshold

     CG style diagonalization

---- Real-time Memory Report at c_bands before calling an iterative solver
           222 MiB given to the printing process from OS
             0 MiB allocation reported by mallinfo(arena+hblkhd)
          2434 MiB available memory on the node where the printing process lives
------------------
     ethr =  3.79E-12,  avg # of iterations =  5.2

     negative rho (up, down):  3.873E-04 0.000E+00

     total cpu time spent up to now is      691.0 secs

     total energy              =    -181.57959231 Ry
     estimated scf accuracy    <          1.2E-11 Ry

     iteration #  2     ecut=    60.00 Ry     beta= 0.30
     CG style diagonalization

---- Real-time Memory Report at c_bands before calling an iterative solver
           222 MiB given to the printing process from OS
             0 MiB allocation reported by mallinfo(arena+hblkhd)
          2113 MiB available memory on the node where the printing process lives
------------------
     ethr =  1.00E-13,  avg # of iterations =  5.1

     negative rho (up, down):  3.873E-04 0.000E+00

     total cpu time spent up to now is      700.3 secs

     total energy              =    -181.57959231 Ry
     estimated scf accuracy    <          6.7E-12 Ry

     iteration #  3     ecut=    60.00 Ry     beta= 0.30
     CG style diagonalization

---- Real-time Memory Report at c_bands before calling an iterative solver
           222 MiB given to the printing process from OS
             0 MiB allocation reported by mallinfo(arena+hblkhd)
          1912 MiB available memory on the node where the printing process lives
------------------
     ethr =  1.00E-13,  avg # of iterations =  3.0

     negative rho (up, down):  3.873E-04 0.000E+00

     total cpu time spent up to now is      706.5 secs

     total energy              =    -181.57959231 Ry
     estimated scf accuracy    <          1.2E-12 Ry

     iteration #  4     ecut=    60.00 Ry     beta= 0.30
     CG style diagonalization

---- Real-time Memory Report at c_bands before calling an iterative solver
           222 MiB given to the printing process from OS
             0 MiB allocation reported by mallinfo(arena+hblkhd)
          2178 MiB available memory on the node where the printing process lives
------------------
     ethr =  1.00E-13,  avg # of iterations =  3.0

     negative rho (up, down):  3.873E-04 0.000E+00

     total cpu time spent up to now is      713.2 secs

     total energy              =    -181.57959231 Ry
     estimated scf accuracy    <          1.7E-13 Ry

     iteration #  5     ecut=    60.00 Ry     beta= 0.30
     CG style diagonalization

---- Real-time Memory Report at c_bands before calling an iterative solver
           222 MiB given to the printing process from OS
             0 MiB allocation reported by mallinfo(arena+hblkhd)
          1927 MiB available memory on the node where the printing process lives
------------------
     ethr =  1.00E-13,  avg # of iterations =  3.0

     negative rho (up, down):  3.873E-04 0.000E+00

     total cpu time spent up to now is      719.2 secs

     total energy              =    -181.57959231 Ry
     estimated scf accuracy    <          1.1E-13 Ry

     iteration #  6     ecut=    60.00 Ry     beta= 0.30
     CG style diagonalization

---- Real-time Memory Report at c_bands before calling an iterative solver
           222 MiB given to the printing process from OS
             0 MiB allocation reported by mallinfo(arena+hblkhd)
          1728 MiB available memory on the node where the printing process lives
------------------
     ethr =  1.00E-13,  avg # of iterations =  3.0

     negative rho (up, down):  3.873E-04 0.000E+00

     total cpu time spent up to now is      723.8 secs

     total energy              =    -181.57959231 Ry
     estimated scf accuracy    <          3.5E-14 Ry

     iteration #  7     ecut=    60.00 Ry     beta= 0.30
     CG style diagonalization

---- Real-time Memory Report at c_bands before calling an iterative solver
           222 MiB given to the printing process from OS
             0 MiB allocation reported by mallinfo(arena+hblkhd)
          1525 MiB available memory on the node where the printing process lives
------------------
     ethr =  1.00E-13,  avg # of iterations =  3.0

     negative rho (up, down):  3.873E-04 0.000E+00

     total cpu time spent up to now is      730.4 secs

     End of self-consistent calculation

          k = 0.0000 0.0000 0.0000 ( 10891 PWs)   bands (ev):

   -62.5699 -36.7065 -36.5128 -36.5051 -15.7338 -14.4336  -7.2563  -4.3152
    -4.2628  -3.4256  -3.2033  -3.1719  -1.6620   1.0509   1.0776   1.2896

     occupation numbers 
     1.0000   1.0000   1.0000   1.0000   1.0000   1.0000   1.0000   1.0000
     1.0000   1.0000   1.0000   1.0000   1.0000   0.0000   0.0000   0.0000

          k = 0.0000 0.0967 0.0000 ( 10887 PWs)   bands (ev):

   -62.5675 -36.7016 -36.5301 -36.5185 -15.6321 -14.3914  -7.1400  -4.4925
    -4.2088  -3.9171  -3.3670  -2.8354  -1.7141   0.9403   1.0603   1.1744

     occupation numbers 
     1.0000   1.0000   1.0000   1.0000   1.0000   1.0000   1.0000   1.0000
     1.0000   1.0000   1.0000   1.0000   1.0000   0.0000   0.0000   0.0000

          k = 0.0000 0.1934 0.0000 ( 10879 PWs)   bands (ev):

   -62.5607 -36.6882 -36.5980 -36.5343 -15.3431 -14.2716  -6.8478  -5.0184
    -4.5586  -3.9124  -3.7526  -2.7437  -1.9474   0.6338   0.8803   0.9071

     occupation numbers 
     1.0000   1.0000   1.0000   1.0000   1.0000   1.0000   1.0000   1.0000
     1.0000   1.0000   1.0000   1.0000   1.0000   0.0000   0.0000   0.0000

          k = 0.0000 0.2901 0.0000 ( 10879 PWs)   bands (ev):

   -62.5516 -36.6895 -36.6698 -36.5557 -14.9159 -14.0955  -6.6389  -5.4635
    -5.2128  -4.1848  -3.4974  -2.9837  -2.3746   0.5032   0.6426   1.2009

     occupation numbers 
     1.0000   1.0000   1.0000   1.0000   1.0000   1.0000   1.0000   1.0000
     1.0000   1.0000   1.0000   1.0000   1.0000   0.0000   0.0000   0.0000

          k = 0.0000 0.3868 0.0000 ( 10849 PWs)   bands (ev):

   -62.5423 -36.7798 -36.6514 -36.5771 -14.4377 -13.9019  -6.8813  -5.8200
    -5.5502  -4.5484  -3.2752  -3.0831  -2.6221   0.5032   0.6579   1.6882

     occupation numbers 
     1.0000   1.0000   1.0000   1.0000   1.0000   1.0000   1.0000   1.0000
     1.0000   1.0000   1.0000   1.0000   1.0000   0.0000   0.0000   0.0000

          k = 0.0000 0.4835 0.0000 ( 10801 PWs)   bands (ev):

   -62.5355 -36.8450 -36.6379 -36.5926 -14.0412 -13.7463  -7.2483  -6.2652
    -5.6428  -4.7845  -3.4583  -2.7965  -2.4539   0.5068   0.9116   2.0498

     occupation numbers 
     1.0000   1.0000   1.0000   1.0000   1.0000   1.0000   1.0000   1.0000
     1.0000   1.0000   1.0000   1.0000   1.0000   0.0000   0.0000   0.0000

          k = 0.0000-0.5802 0.0000 ( 10796 PWs)   bands (ev):

   -62.5331 -36.8687 -36.6330 -36.5983 -13.8827 -13.6858  -7.4040  -6.4301
    -5.7171  -4.8658  -3.5165  -2.6991  -2.2882   0.5382   1.0532   2.1674

     occupation numbers 
     1.0000   1.0000   1.0000   1.0000   1.0000   1.0000   1.0000   1.0000
     1.0000   1.0000   1.0000   1.0000   1.0000   0.0000   0.0000   0.0000

          k = 0.0833 0.0484 0.0000 ( 10885 PWs)   bands (ev):

   -62.5675 -36.7016 -36.5359 -36.5122 -15.6330 -14.3923  -7.1409  -4.5279
    -4.1693  -3.9282  -3.3403  -2.8488  -1.7166   0.9276   1.0280   1.2094

     occupation numbers 
     1.0000   1.0000   1.0000   1.0000   1.0000   1.0000   1.0000   1.0000
     1.0000   1.0000   1.0000   1.0000   1.0000   0.0000   0.0000   0.0000

          k = 0.0833 0.1451 0.0000 ( 10871 PWs)   bands (ev):

   -62.5629 -36.6925 -36.5775 -36.5279 -15.4375 -14.3112  -6.9328  -4.8750
    -4.3500  -4.0003  -3.7283  -2.6511  -1.8609   0.7167   0.7900   0.9900

     occupation numbers 
     1.0000   1.0000   1.0000   1.0000   1.0000   1.0000   1.0000   1.0000
     1.0000   1.0000   1.0000   1.0000   1.0000   0.0000   0.0000   0.0000

          k = 0.0833 0.2418 0.0000 ( 10864 PWs)   bands (ev):

   -62.5549 -36.6766 -36.6526 -36.5510 -15.0784 -14.1623  -6.6510  -5.3392
    -4.8857  -4.2741  -3.6982  -2.6782  -2.2053   0.4287   0.7685   0.8650

     occupation numbers 
     1.0000   1.0000   1.0000   1.0000   1.0000   1.0000   1.0000   1.0000
     1.0000   1.0000   1.0000   1.0000   1.0000   0.0000   0.0000   0.0000

          k = 0.0833 0.3385 0.0000 ( 10861 PWs)   bands (ev):

   -62.5458 -36.7391 -36.6583 -36.5768 -14.6223 -13.9746  -6.6776  -5.5356
    -5.5107  -4.6330  -3.4475  -2.9654  -2.5131   0.3554   0.7274   1.2614

     occupation numbers 
     1.0000   1.0000   1.0000   1.0000   1.0000   1.0000   1.0000   1.0000
     1.0000   1.0000   1.0000   1.0000   1.0000   0.0000   0.0000   0.0000

          k = 0.0833 0.4352 0.0000 ( 10822 PWs)   bands (ev):

   -62.5377 -36.8132 -36.6423 -36.5989 -14.1771 -13.7947  -7.0145  -6.1250
    -5.5377  -4.8013  -3.3204  -3.2844  -2.4215   0.4797   0.8352   1.7428

     occupation numbers 
     1.0000   1.0000   1.0000   1.0000   1.0000   1.0000   1.0000   1.0000
     1.0000   1.0000   1.0000   1.0000   1.0000   0.0000   0.0000   0.0000

          k = 0.0833 0.5319 0.0000 ( 10796 PWs)   bands (ev):

   -62.5331 -36.8556 -36.6331 -36.6115 -13.8905 -13.6818  -7.2681  -6.4680
    -5.6599  -4.8609  -3.4784  -3.1985  -2.1780   0.5541   1.0531   2.1363

     occupation numbers 
     1.0000   1.0000   1.0000   1.0000   1.0000   1.0000   1.0000   1.0000
     1.0000   1.0000   1.0000   1.0000   1.0000   0.0000   0.0000   0.0000

          k = 0.1667 0.0967 0.0000 ( 10871 PWs)   bands (ev):

   -62.5609 -36.6885 -36.6026 -36.5277 -15.3465 -14.2751  -6.8503  -5.0443
    -4.5723  -3.8758  -3.7185  -2.7545  -1.9568   0.6104   0.8787   0.9423

     occupation numbers 
     1.0000   1.0000   1.0000   1.0000   1.0000   1.0000   1.0000   1.0000
     1.0000   1.0000   1.0000   1.0000   1.0000   0.0000   0.0000   0.0000

          k = 0.1667 0.1934 0.0000 ( 10859 PWs)   bands (ev):

   -62.5551 -36.6768 -36.6549 -36.5473 -15.0809 -14.1651  -6.6520  -5.3531
    -4.8990  -4.2504  -3.6787  -2.6796  -2.2128   0.4248   0.7835   0.8621

     occupation numbers 
     1.0000   1.0000   1.0000   1.0000   1.0000   1.0000   1.0000   1.0000
     1.0000   1.0000   1.0000   1.0000   1.0000   0.0000   0.0000   0.0000

          k = 0.1667 0.2901 0.0000 ( 10850 PWs)   bands (ev):

   -62.5471 -36.7197 -36.6609 -36.5800 -14.6904 -14.0023  -6.5758  -5.4881
    -5.3265  -4.8407  -3.6446  -2.7152  -2.4612   0.2578   0.7863   0.9680

     occupation numbers 
     1.0000   1.0000   1.0000   1.0000   1.0000   1.0000   1.0000   1.0000
     1.0000   1.0000   1.0000   1.0000   1.0000   0.0000   0.0000   0.0000

          k = 0.1667 0.3868 0.0000 ( 10823 PWs)   bands (ev):

   -62.5391 -36.7807 -36.6450 -36.6158 -14.2583 -13.8216  -6.7623  -6.0133
    -5.3864  -4.9495  -3.9076  -3.0107  -2.4271   0.4028   0.8569   1.2984

     occupation numbers 
     1.0000   1.0000   1.0000   1.0000   1.0000   1.0000   1.0000   1.0000
     1.0000   1.0000   1.0000   1.0000   1.0000   0.0000   0.0000   0.0000

          k = 0.1667 0.4835 0.0000 ( 10793 PWs)   bands (ev):

   -62.5333 -36.8239 -36.6430 -36.6333 -13.9068 -13.6749  -6.9508  -6.5358
    -5.4831  -4.8747  -4.0405  -3.3676  -2.1754   0.5188   1.0921   1.6483

     occupation numbers 
     1.0000   1.0000   1.0000   1.0000   1.0000   1.0000   1.0000   1.0000
     1.0000   1.0000   1.0000   1.0000   1.0000   0.0000   0.0000   0.0000

          k = 0.1667 0.5802 0.0000 ( 10790 PWs)   bands (ev):

   -62.5311 -36.8394 -36.6532 -36.6290 -13.7685 -13.6174  -7.0173  -6.7257
    -5.6024  -4.8090  -4.0413  -3.5366  -1.9948   0.4307   1.3406   1.8071

     occupation numbers 
     1.0000   1.0000   1.0000   1.0000   1.0000   1.0000   1.0000   1.0000
     1.0000   1.0000   1.0000   1.0000   1.0000   0.0000   0.0000   0.0000

          k = 0.1667-0.0000 0.0000 ( 10897 PWs)   bands (ev):

   -62.5631 -36.6927 -36.5810 -36.5229 -15.4401 -14.3137  -6.9350  -4.8954
    -4.3548  -3.9713  -3.7139  -2.6562  -1.8660   0.7027   0.7994   1.0064

     occupation numbers 
     1.0000   1.0000   1.0000   1.0000   1.0000   1.0000   1.0000   1.0000
     1.0000   1.0000   1.0000   1.0000   1.0000   0.0000   0.0000   0.0000

          k = 0.2500 0.1451 0.0000 ( 10862 PWs)   bands (ev):

   -62.5520 -36.6929 -36.6704 -36.5485 -14.9230 -14.1033  -6.6406  -5.4871
    -5.2241  -4.1435  -3.4622  -2.9920  -2.3888   0.4904   0.6742   1.2044

     occupation numbers 
     1.0000   1.0000   1.0000   1.0000   1.0000   1.0000   1.0000   1.0000
     1.0000   1.0000   1.0000   1.0000   1.0000   0.0000   0.0000   0.0000

          k = 0.2500 0.2418 0.0000 ( 10861 PWs)   bands (ev):

   -62.5461 -36.7417 -36.6588 -36.5708 -14.6284 -13.9818  -6.6792  -5.5451
    -5.5315  -4.6022  -3.4176  -2.9655  -2.5246   0.3620   0.7370   1.2588

     occupation numbers 
     1.0000   1.0000   1.0000   1.0000   1.0000   1.0000   1.0000   1.0000
     1.0000   1.0000   1.0000   1.0000   1.0000   0.0000   0.0000   0.0000

          k = 0.2500 0.3385 0.0000 ( 10821 PWs)   bands (ev):

   -62.5393 -36.7822 -36.6453 -36.6125 -14.2620 -13.8262  -6.7646  -6.0134
    -5.3980  -4.9385  -3.8908  -3.0095  -2.4312   0.4041   0.8606   1.2989

     occupation numbers 
     1.0000   1.0000   1.0000   1.0000   1.0000   1.0000   1.0000   1.0000
     1.0000   1.0000   1.0000   1.0000   1.0000   0.0000   0.0000   0.0000

          k = 0.2500 0.4352 0.0000 ( 10817 PWs)   bands (ev):

   -62.5335 -36.8037 -36.6619 -36.6336 -13.9173 -13.6745  -6.7615  -6.5641
    -5.2745  -4.8871  -4.5658  -3.2961  -2.2036   0.4831   1.1210   1.4096

     occupation numbers 
     1.0000   1.0000   1.0000   1.0000   1.0000   1.0000   1.0000   1.0000
     1.0000   1.0000   1.0000   1.0000   1.0000   0.0000   0.0000   0.0000

          k = 0.2500 0.5319 0.0000 ( 10774 PWs)   bands (ev):

   -62.5301 -36.8073 -36.6993 -36.6269 -13.7045 -13.5779  -6.9036  -6.6287
    -5.4709  -4.8828  -4.6979  -3.6207  -1.8887   0.2112   1.4720   1.5870

     occupation numbers 
     1.0000   1.0000   1.0000   1.0000   1.0000   1.0000   1.0000   1.0000
     1.0000   1.0000   1.0000   1.0000   1.0000   0.0000   0.0000   0.0000

          k = 0.2500-0.0484 0.0000 ( 10870 PWs)   bands (ev):

   -62.5553 -36.6772 -36.6555 -36.5448 -15.0848 -14.1688  -6.6540  -5.3540
    -4.8926  -4.2493  -3.6734  -2.6826  -2.2123   0.4264   0.7766   0.8858

     occupation numbers 
     1.0000   1.0000   1.0000   1.0000   1.0000   1.0000   1.0000   1.0000
     1.0000   1.0000   1.0000   1.0000   1.0000   0.0000   0.0000   0.0000

          k = 0.3333 0.1934 0.0000 ( 10828 PWs)   bands (ev):

   -62.5429 -36.7820 -36.6523 -36.5691 -14.4490 -13.9148  -6.8838  -5.8237
    -5.5710  -4.5015  -3.2856  -3.0458  -2.6376   0.5226   0.6511   1.6951

     occupation numbers 
     1.0000   1.0000   1.0000   1.0000   1.0000   1.0000   1.0000   1.0000
     1.0000   1.0000   1.0000   1.0000   1.0000   0.0000   0.0000   0.0000

          k = 0.3333 0.2901 0.0000 ( 10820 PWs)   bands (ev):

   -62.5383 -36.8153 -36.6431 -36.5916 -14.1875 -13.8073  -7.0205  -6.1238
    -5.5531  -4.7675  -3.2889  -3.2883  -2.4326   0.4835   0.8404   1.7444

     occupation numbers 
     1.0000   1.0000   1.0000   1.0000   1.0000   1.0000   1.0000   1.0000
     1.0000   1.0000   1.0000   1.0000   1.0000   0.0000   0.0000   0.0000

          k = 0.3333 0.3868 0.0000 ( 10799 PWs)   bands (ev):

   -62.5337 -36.8256 -36.6376 -36.6339 -13.9147 -13.6846  -6.9567  -6.5288
    -5.4930  -4.8573  -4.0151  -3.3705  -2.1853   0.5166   1.0926   1.6522

     occupation numbers 
     1.0000   1.0000   1.0000   1.0000   1.0000   1.0000   1.0000   1.0000
     1.0000   1.0000   1.0000   1.0000   1.0000   0.0000   0.0000   0.0000

          k = 0.3333 0.4835 0.0000 ( 10768 PWs)   bands (ev):

   -62.5303 -36.8084 -36.6963 -36.6272 -13.7089 -13.5830  -6.8983  -6.6307
    -5.4783  -4.8681  -4.6895  -3.6247  -1.8926   0.2084   1.4738   1.5813

     occupation numbers 
     1.0000   1.0000   1.0000   1.0000   1.0000   1.0000   1.0000   1.0000
     1.0000   1.0000   1.0000   1.0000   1.0000   0.0000   0.0000   0.0000

          k = 0.3333 0.5802 0.0000 ( 10772 PWs)   bands (ev):

   -62.5290 -36.7809 -36.7391 -36.6247 -13.6326 -13.5429  -7.0431  -6.2333
    -5.7198  -5.2230  -4.5328  -3.8109  -1.6962  -0.0372   1.3856   1.8351

     occupation numbers 
     1.0000   1.0000   1.0000   1.0000   1.0000   1.0000   1.0000   1.0000
     1.0000   1.0000   1.0000   1.0000   1.0000   0.0000   0.0000   0.0000

          k = 0.3333-0.0967 0.0000 ( 10862 PWs)   bands (ev):

   -62.5464 -36.7408 -36.6591 -36.5699 -14.6329 -13.9857  -6.6760  -5.5377
    -5.5276  -4.5998  -3.4339  -2.9716  -2.5092   0.3675   0.7160   1.2853

     occupation numbers 
     1.0000   1.0000   1.0000   1.0000   1.0000   1.0000   1.0000   1.0000
     1.0000   1.0000   1.0000   1.0000   1.0000   0.0000   0.0000   0.0000

          k = 0.3333-0.0000 0.0000 ( 10853 PWs)   bands (ev):

   -62.5476 -36.7197 -36.6615 -36.5763 -14.6986 -14.0102  -6.5732  -5.4890
    -5.3176  -4.8319  -3.6527  -2.7206  -2.4483   0.2629   0.7674   0.9974

     occupation numbers 
     1.0000   1.0000   1.0000   1.0000   1.0000   1.0000   1.0000   1.0000
     1.0000   1.0000   1.0000   1.0000   1.0000   0.0000   0.0000   0.0000

          k = 0.4167 0.2418 0.0000 ( 10800 PWs)   bands (ev):

   -62.5363 -36.8464 -36.6390 -36.5842 -14.0560 -13.7637  -7.2546  -6.2605
    -5.6536  -4.7342  -3.4734  -2.7537  -2.4750   0.5104   0.9048   2.0614

     occupation numbers 
     1.0000   1.0000   1.0000   1.0000   1.0000   1.0000   1.0000   1.0000
     1.0000   1.0000   1.0000   1.0000   1.0000   0.0000   0.0000   0.0000

          k = 0.4167 0.3385 0.0000 ( 10785 PWs)   bands (ev):

   -62.5338 -36.8570 -36.6341 -36.6036 -13.9044 -13.6986  -7.2762  -6.4590
    -5.6664  -4.8214  -3.4900  -3.1665  -2.1916   0.5501   1.0490   2.1430

     occupation numbers 
     1.0000   1.0000   1.0000   1.0000   1.0000   1.0000   1.0000   1.0000
     1.0000   1.0000   1.0000   1.0000   1.0000   0.0000   0.0000   0.0000

          k = 0.4167 0.4352 0.0000 ( 10790 PWs)   bands (ev):

   -62.5317 -36.8405 -36.6470 -36.6299 -13.7803 -13.6311  -7.0207  -6.7135
    -5.6080  -4.7838  -4.0196  -3.5473  -2.0012   0.4223   1.3262   1.8147

     occupation numbers 
     1.0000   1.0000   1.0000   1.0000   1.0000   1.0000   1.0000   1.0000
     1.0000   1.0000   1.0000   1.0000   1.0000   0.0000   0.0000   0.0000

          k = 0.4167 0.5319 0.0000 ( 10780 PWs)   bands (ev):

   -62.5304 -36.8076 -36.6958 -36.6274 -13.7128 -13.5866  -6.8938  -6.6213
    -5.4785  -4.8770  -4.6830  -3.6304  -1.8819   0.1964   1.4762   1.5671

     occupation numbers 
     1.0000   1.0000   1.0000   1.0000   1.0000   1.0000   1.0000   1.0000
     1.0000   1.0000   1.0000   1.0000   1.0000   0.0000   0.0000   0.0000

          k = 0.4167-0.1451 0.0000 ( 10817 PWs)   bands (ev):

   -62.5385 -36.8142 -36.6433 -36.5914 -14.1913 -13.8103  -7.0135  -6.1192
    -5.5525  -4.7618  -3.3079  -3.2961  -2.4119   0.4888   0.8120   1.7680

     occupation numbers 
     1.0000   1.0000   1.0000   1.0000   1.0000   1.0000   1.0000   1.0000
     1.0000   1.0000   1.0000   1.0000   1.0000   0.0000   0.0000   0.0000

          k = 0.4167-0.0484 0.0000 ( 10831 PWs)   bands (ev):

   -62.5397 -36.7805 -36.6458 -36.6110 -14.2703 -13.8335  -6.7529  -6.0028
    -5.3944  -4.9310  -3.9159  -3.0184  -2.4072   0.4079   0.8229   1.3233

     occupation numbers 
     1.0000   1.0000   1.0000   1.0000   1.0000   1.0000   1.0000   1.0000
     1.0000   1.0000   1.0000   1.0000   1.0000   0.0000   0.0000   0.0000

          k =-0.5000-0.2901 0.0000 ( 10784 PWs)   bands (ev):

   -62.5339 -36.8699 -36.6342 -36.5897 -13.8988 -13.7051  -7.4122  -6.4218
    -5.7226  -4.8144  -3.5339  -2.6530  -2.3128   0.5338   1.0446   2.1817

     occupation numbers 
     1.0000   1.0000   1.0000   1.0000   1.0000   1.0000   1.0000   1.0000
     1.0000   1.0000   1.0000   1.0000   1.0000   0.0000   0.0000   0.0000

          k =-0.5000-0.1934 0.0000 ( 10771 PWs)   bands (ev):

   -62.5338 -36.8565 -36.6342 -36.6036 -13.9060 -13.6998  -7.2727  -6.4575
    -5.6669  -4.8182  -3.4938  -3.1741  -2.1811   0.5482   1.0371   2.1607

     occupation numbers 
     1.0000   1.0000   1.0000   1.0000   1.0000   1.0000   1.0000   1.0000
     1.0000   1.0000   1.0000   1.0000   1.0000   0.0000   0.0000   0.0000

          k =-0.5000-0.0967 0.0000 ( 10788 PWs)   bands (ev):

   -62.5339 -36.8241 -36.6373 -36.6342 -13.9202 -13.6892  -6.9451  -6.5227
    -5.4926  -4.8498  -4.0319  -3.3789  -2.1652   0.5088   1.0640   1.6647

     occupation numbers 
     1.0000   1.0000   1.0000   1.0000   1.0000   1.0000   1.0000   1.0000
     1.0000   1.0000   1.0000   1.0000   1.0000   0.0000   0.0000   0.0000

          k =-0.5000 0.0000 0.0000 ( 10815 PWs)   bands (ev):

   -62.5339 -36.8024 -36.6596 -36.6342 -13.9272 -13.6838  -6.7468  -6.5528
    -5.2721  -4.8746  -4.5846  -3.3055  -2.1834   0.4705   1.0880   1.4220

     occupation numbers 
     1.0000   1.0000   1.0000   1.0000   1.0000   1.0000   1.0000   1.0000
     1.0000   1.0000   1.0000   1.0000   1.0000   0.0000   0.0000   0.0000

     highest occupied, lowest unoccupied level (ev):    -1.6620   -0.0372

!    total energy              =    -181.57959231 Ry
     estimated scf accuracy    <          1.1E-15 Ry

     The total energy is the sum of the following terms:
     one-electron contribution =   -1374.11696124 Ry
     hartree contribution      =     686.59815983 Ry
     xc contribution           =     -29.68013365 Ry
     ewald contribution        =     535.61934275 Ry

     convergence has been achieved in   7 iterations

     negative rho (up, down):  3.873E-04 0.000E+00

     Forces acting on atoms (cartesian axes, Ry/au):

     atom    1 type  1   force =     0.00000000   -0.00000678    0.00000000
     atom    2 type  2   force =     0.00000000    0.00000339   -0.00000131
     atom    3 type  2   force =     0.00000000    0.00000339    0.00000131
     The non-local contrib.  to forces
     atom    1 type  1   force =     0.00000000    0.00010272    0.00000000
     atom    2 type  2   force =     0.00000000    0.00019172   -0.27418759
     atom    3 type  2   force =     0.00000000    0.00019172    0.27418759
     The ionic contribution  to forces
     atom    1 type  1   force =     0.00000000    0.04590702    0.00000000
     atom    2 type  2   force =    -0.00000000   -0.02295351   37.02916057
     atom    3 type  2   force =    -0.00000000   -0.02295351  -37.02916057
     The local contribution  to forces
     atom    1 type  1   force =    -0.00000000   -0.04604521    0.00000000
     atom    2 type  2   force =    -0.00000000    0.02274410  -36.75752284
     atom    3 type  2   force =    -0.00000000    0.02274410   36.75752284
     The core correction contribution to forces
     atom    1 type  1   force =    -0.00000000    0.00002847    0.00000000
     atom    2 type  2   force =     0.00000000    0.00002089    0.00254855
     atom    3 type  2   force =     0.00000000    0.00002089   -0.00254855
     The Hubbard contrib.    to forces
     atom    1 type  1   force =     0.00000000    0.00000000    0.00000000
     atom    2 type  2   force =     0.00000000    0.00000000    0.00000000
     atom    3 type  2   force =     0.00000000    0.00000000    0.00000000
     The SCF correction term to forces
     atom    1 type  1   force =     0.00000000    0.00000002   -0.00000000
     atom    2 type  2   force =     0.00000000   -0.00000000   -0.00000000
     atom    3 type  2   force =     0.00000000   -0.00000000    0.00000000

     Total force =     0.000009     Total SCF correction =     0.000000


     Computing stress (Cartesian axis) and pressure


     negative rho (up, down):  3.873E-04 0.000E+00
          total   stress  (Ry/bohr**3)                   (kbar)     P=       -1.42
  -0.00001900   0.00000000   0.00000000           -2.80        0.00        0.00
   0.00000000  -0.00000473   0.00000000            0.00       -0.70        0.00
   0.00000000   0.00000000  -0.00000528            0.00        0.00       -0.78

     kinetic stress (kbar)   4839.84     -0.00      0.00
                               -0.00   4843.88      0.00
                                0.00      0.00   4891.67

     local   stress (kbar)-145611.94      0.00      0.00
                                0.00-145635.57     -0.00
                                0.00     -0.00 142587.31

     nonloc. stress (kbar)   2216.94     -0.00      0.00
                               -0.00   2216.39      0.00
                                0.00      0.00   2205.97

     hartree stress (kbar)  71410.74      0.00      0.00
                                0.00  71418.54      0.00
                                0.00      0.00 -69624.87

     exc-cor stress (kbar)   -411.21     -0.00      0.00
                               -0.00   -411.16     -0.00
                                0.00     -0.00   -412.26

     corecor stress (kbar)   -545.09      0.00      0.00
                                0.00   -545.10      0.00
                                0.00      0.00   -545.52

     ewald   stress (kbar)  68097.93     -0.00     -0.00
                               -0.00  68112.33      0.00
                               -0.00      0.00 -79103.07

     hubbard stress (kbar)      0.00      0.00      0.00
                                0.00      0.00      0.00
                                0.00      0.00      0.00

     DFT-D   stress (kbar)      0.00      0.00      0.00
                                0.00      0.00      0.00
                                0.00      0.00      0.00

     XDM     stress (kbar)      0.00      0.00      0.00
                                0.00      0.00      0.00
                                0.00      0.00      0.00

     dft-nl  stress (kbar)      0.00      0.00      0.00
                                0.00      0.00      0.00
                                0.00      0.00      0.00

     TS-vdW  stress (kbar)      0.00      0.00      0.00
                                0.00      0.00      0.00
                                0.00      0.00      0.00

     MDB     stress (kbar)      0.00      0.00      0.00
                                0.00      0.00      0.00
                                0.00      0.00      0.00

     3D-RISM stress (kbar)      0.00      0.00      0.00
                                0.00      0.00      0.00
                                0.00      0.00      0.00

     Energy error            =      2.5E-10 Ry
     Gradient error          =      6.8E-06 Ry/Bohr

     bfgs converged in   7 scf cycles and   6 bfgs steps
     (criteria: energy <  1.0E-08 Ry, force <  1.0E-05 Ry/Bohr)

     End of BFGS Geometry Optimization

     Final energy             =    -181.5795923091 Ry

     File ./tmp/mos2.bfgs deleted, as requested
Begin final coordinates

ATOMIC_POSITIONS (crystal)
Mo               0.0001871940        0.0003743881        0.5000000000
S                0.6665730696        0.3331461393        0.5673681527
S                0.6665730696        0.3331461393        0.4326318473
End final coordinates



     Writing all to output data dir ./tmp/mos2.save/ :
     XML data file, charge density, pseudopotentials, collected wavefunctions
 
     init_run     :      1.21s CPU      1.43s WALL (       1 calls)
     electrons    :    625.65s CPU    681.43s WALL (       7 calls)
     update_pot   :      0.76s CPU      0.93s WALL (       6 calls)
     forces       :      9.76s CPU     12.15s WALL (       7 calls)
     stress       :     29.65s CPU     36.66s WALL (       7 calls)

     Called by init_run:
     wfcinit      :      0.75s CPU      0.77s WALL (       1 calls)
     wfcinit:atom :      0.01s CPU      0.01s WALL (      43 calls)
     wfcinit:wfcr :      0.67s CPU      0.70s WALL (      43 calls)
     potinit      :      0.07s CPU      0.09s WALL (       1 calls)
     hinit0       :      0.09s CPU      0.10s WALL (       1 calls)

     Called by electrons:
     c_bands      :    506.30s CPU    516.80s WALL (      82 calls)
     sum_band     :     77.65s CPU    100.66s WALL (      82 calls)
     v_of_rho     :      9.50s CPU     10.02s WALL (      83 calls)
     v_h          :      0.82s CPU      0.86s WALL (      83 calls)
     v_xc         :     10.07s CPU     10.76s WALL (      97 calls)
     newd         :     32.55s CPU     56.11s WALL (      83 calls)
     mix_rho      :      1.53s CPU      1.55s WALL (      82 calls)

     Called by c_bands:
     init_us_2    :     11.54s CPU     11.78s WALL (    7697 calls)
     ccgdiagg     :    433.33s CPU    442.45s WALL (    3526 calls)
     wfcrot       :     65.66s CPU     66.60s WALL (    3010 calls)

     Called by sum_band:
     sum_band:wei :      0.00s CPU      0.00s WALL (      82 calls)
     sum_band:loo :     38.02s CPU     38.60s WALL (      82 calls)
     sum_band:buf :      1.47s CPU      1.51s WALL (    3526 calls)
     sum_band:ini :      6.91s CPU      7.01s WALL (    3526 calls)
     sum_band:cal :      6.70s CPU      6.76s WALL (    3526 calls)
     sum_band:bec :      0.14s CPU      0.15s WALL (    3526 calls)
     addusdens    :     37.89s CPU     60.31s WALL (      82 calls)
                                        0.00s GPU  (      82 calls)
     addusd:skk   :      0.12s CPU      0.13s WALL (     164 calls)
                                        0.00s GPU  (     164 calls)

     Called by *cgdiagg:
     h_psi        :    343.13s CPU    349.94s WALL (  186788 calls)
     s_psi        :     60.40s CPU     61.74s WALL (  370566 calls)

     Called by h_psi:
     h_psi:calbec :     72.47s CPU     73.68s WALL (  186788 calls)
     vloc_psi     :    217.49s CPU    222.35s WALL (  186788 calls)
                                        0.00s GPU  (  186788 calls)
     add_vuspsi   :     48.46s CPU     49.19s WALL (  186788 calls)
     hs_1psi      :    322.93s CPU    329.52s WALL (  183778 calls)
     s_1psi       :     59.45s CPU     60.76s WALL (  183778 calls)

     General routines
     calbec       :    116.30s CPU    118.34s WALL (  379209 calls)
     fft          :      5.95s CPU      6.16s WALL (    1252 calls)
     ffts         :      0.16s CPU      0.16s WALL (     165 calls)
     fftw         :    179.25s CPU    183.19s WALL (  520464 calls)
     interpolate  :      0.63s CPU      0.63s WALL (      83 calls)
 
     Parallel routines
 
     PWSCF        :  11m 9.70s CPU  12m17.12s WALL

 
   This run was terminated on:   0: 6:52  23Sep2026            

=------------------------------------------------------------------------------=
   JOB DONE.
=------------------------------------------------------------------------------=
