
     Program PWSCF v.7.5 starts on 23Sep2026 at  0: 6:53 

     This program is part of the open-source Quantum ESPRESSO suite
     for quantum simulation of materials; please cite
         "P. Giannozzi et al., J. Phys.:Condens. Matter 21 395502 (2009);
         "P. Giannozzi et al., J. Phys.:Condens. Matter 29 465901 (2017);
         "P. Giannozzi et al., J. Chem. Phys. 152 154105 (2020);
          URL http://www.quantum-espresso.org", 
     in publications or presentations arising from this work. More details at
     http://www.quantum-espresso.org/quote

     Parallel version (MPI), running on     8 processors

     MPI processes distributed on     1 nodes
     2633 MiB available memory on the printing compute node when the environment starts
 
     Reading input from mos2.scf.in

     Current dimensions of program PWSCF are:
     Max number of different atomic species (ntypx) = 10
     Max number of k-points (npk) =  40000
     Max angular momentum in pseudopotentials (lmaxx) =  4
     file Mo.pbe-spn-rrkjus_psl.1.0.0.UPF: wavefunction(s)  4S renormalized
     Message from routine setup:
     using ibrav=0 with symmetry is DISCOURAGED, use correct ibrav instead
 
     R & G space division:  proc/nbgrp/npool/nimage =       8
     Subspace diagonalization in iterative solution of the eigenvalue problem:
     a serial algorithm will be used

 
     Parallelization info
     --------------------
     sticks:   dense  smooth     PW     G-vecs:    dense   smooth      PW
     Min         149      74     22                30595    10816    1748
     Max         150      75     24                30618    10837    1750
     Sum        1197     595    187               244813    86579   13991
 
     Using Slab Decomposition
 


     bravais-lattice index     =            0
     lattice parameter (alat)  =       6.0446  a.u.
     unit-cell volume          =    1379.7267 (a.u.)^3
     number of atoms/cell      =            3
     number of atomic types    =            2
     number of electrons       =        26.00
     number of Kohn-Sham states=           16
     kinetic-energy cutoff     =      60.0000  Ry
     charge density cutoff     =     480.0000  Ry
     scf convergence threshold =      1.0E-12
     mixing beta               =       0.3000
     number of iterations used =            8  plain     mixing
     Exchange-correlation= PBE
                           (   1   4   3   4   0   0   0)

     celldm(1)=   6.044557  celldm(2)=   0.000000  celldm(3)=   0.000000
     celldm(4)=   0.000000  celldm(5)=   0.000000  celldm(6)=   0.000000

     crystal axes: (cart. coord. in units of alat)
               a(1) = (   1.000000   0.000000   0.000000 )  
               a(2) = (  -0.500000   0.861717   0.000000 )  
               a(3) = (   0.000000   0.000000   7.249953 )  

     reciprocal axes: (cart. coord. in units 2 pi/alat)
               b(1) = (  1.000000  0.580237  0.000000 )  
               b(2) = (  0.000000  1.160474  0.000000 )  
               b(3) = (  0.000000  0.000000  0.137932 )  


     PseudoPot. # 1 for Mo read from file:
     ../pseudo/Mo.pbe-spn-rrkjus_psl.1.0.0.UPF
     MD5 check sum: 03f09b12e49601d1a456a78ce8b2d514
     Pseudo is Ultrasoft + core correction, Zval = 14.0
     Generated using &quot;atomic&quot; code by A. Dal Corso  v.6.3
     Using radial grid of 1229 points,  6 beta functions with: 
                l(1) =   0
                l(2) =   0
                l(3) =   1
                l(4) =   1
                l(5) =   2
                l(6) =   2
     Q(r) pseudized with 0 coefficients 


     PseudoPot. # 2 for S  read from file:
     ../pseudo/S.pbe-n-rrkjus_psl.1.0.0.UPF
     MD5 check sum: 9d0fe39aa2a799ea84730884c9b010f4
     Pseudo is Ultrasoft + core correction, Zval =  6.0
     Generated using &quot;atomic&quot; code by A. Dal Corso  v.6.3
     Using radial grid of 1151 points,  6 beta functions with: 
                l(1) =   0
                l(2) =   0
                l(3) =   1
                l(4) =   1
                l(5) =   2
                l(6) =   2
     Q(r) pseudized with 0 coefficients 


     atomic species   valence    mass     pseudopotential
     Mo               14.00    95.95000     Mo( 1.00)
     S                 6.00    32.06000     S ( 1.00)

      4 Sym. Ops. (no inversion) found


                                    s                        frac. trans.

      isym =  1     identity                                     

 cryst.   s( 1) = (     1          0          0      )
                  (     0          1          0      )
                  (     0          0          1      )

 cart.    s( 1) = (  1.0000000  0.0000000  0.0000000 )
                  (  0.0000000  1.0000000  0.0000000 )
                  (  0.0000000  0.0000000  1.0000000 )


      isym =  2     180 deg rotation - cart. axis [0,1,0]        

 cryst.   s( 2) = (    -1          0          0      )
                  (     1          1          0      )
                  (     0          0         -1      )

 cart.    s( 2) = ( -1.0000000  0.0000000  0.0000000 )
                  (  0.0000000  1.0000000  0.0000000 )
                  (  0.0000000  0.0000000 -1.0000000 )


      isym =  3     inv. 180 deg rotation - cart. axis [0,0,1]   

 cryst.   s( 3) = (     1          0          0      )
                  (     0          1          0      )
                  (     0          0         -1      )

 cart.    s( 3) = (  1.0000000  0.0000000  0.0000000 )
                  (  0.0000000  1.0000000  0.0000000 )
                  (  0.0000000  0.0000000 -1.0000000 )


      isym =  4     inv. 180 deg rotation - cart. axis [1,0,0]   

 cryst.   s( 4) = (    -1          0          0      )
                  (     1          1          0      )
                  (     0          0          1      )

 cart.    s( 4) = ( -1.0000000  0.0000000  0.0000000 )
                  (  0.0000000  1.0000000  0.0000000 )
                  (  0.0000000  0.0000000  1.0000000 )


   Cartesian axes

     site n.     atom                  positions (alat units)
         1        Mo     tau(   1) = (   0.0000000   0.0003226   3.6249763  )
         2        S      tau(   2) = (   0.5000000   0.2870776   4.1133922  )
         3        S      tau(   3) = (   0.5000000   0.2870776   3.1365604  )

   Crystallographic axes

     site n.     atom                  positions (cryst. coord.)
         1        Mo     tau(   1) = (  0.0001872  0.0003744  0.5000000  )
         2        S      tau(   2) = (  0.6665731  0.3331461  0.5673682  )
         3        S      tau(   3) = (  0.6665731  0.3331461  0.4326318  )

     number of k points=    43
                       cart. coord. in units 2pi/alat
        k(    1) = (   0.0000000   0.0000000   0.0000000), wk =   0.0138889
        k(    2) = (   0.0000000   0.0967062   0.0000000), wk =   0.0277778
        k(    3) = (   0.0000000   0.1934123   0.0000000), wk =   0.0277778
        k(    4) = (   0.0000000   0.2901185   0.0000000), wk =   0.0277778
        k(    5) = (   0.0000000   0.3868247   0.0000000), wk =   0.0277778
        k(    6) = (   0.0000000   0.4835309   0.0000000), wk =   0.0277778
        k(    7) = (   0.0000000  -0.5802370   0.0000000), wk =   0.0138889
        k(    8) = (   0.0833333   0.0483531   0.0000000), wk =   0.0555556
        k(    9) = (   0.0833333   0.1450593   0.0000000), wk =   0.0555556
        k(   10) = (   0.0833333   0.2417654   0.0000000), wk =   0.0555556
        k(   11) = (   0.0833333   0.3384716   0.0000000), wk =   0.0555556
        k(   12) = (   0.0833333   0.4351778   0.0000000), wk =   0.0555556
        k(   13) = (   0.0833333   0.5318839   0.0000000), wk =   0.0555556
        k(   14) = (   0.1666667   0.0967062   0.0000000), wk =   0.0555556
        k(   15) = (   0.1666667   0.1934123   0.0000000), wk =   0.0555556
        k(   16) = (   0.1666667   0.2901185   0.0000000), wk =   0.0555556
        k(   17) = (   0.1666667   0.3868247   0.0000000), wk =   0.0555556
        k(   18) = (   0.1666667   0.4835309   0.0000000), wk =   0.0555556
        k(   19) = (   0.1666667   0.5802370   0.0000000), wk =   0.0277778
        k(   20) = (   0.1666667  -0.0000000   0.0000000), wk =   0.0277778
        k(   21) = (   0.2500000   0.1450593   0.0000000), wk =   0.0555556
        k(   22) = (   0.2500000   0.2417654   0.0000000), wk =   0.0555556
        k(   23) = (   0.2500000   0.3384716   0.0000000), wk =   0.0555556
        k(   24) = (   0.2500000   0.4351778   0.0000000), wk =   0.0555556
        k(   25) = (   0.2500000   0.5318839   0.0000000), wk =   0.0555556
        k(   26) = (   0.2500000  -0.0483531   0.0000000), wk =   0.0555556
        k(   27) = (   0.3333333   0.1934123   0.0000000), wk =   0.0555556
        k(   28) = (   0.3333333   0.2901185   0.0000000), wk =   0.0555556
        k(   29) = (   0.3333333   0.3868247   0.0000000), wk =   0.0555556
        k(   30) = (   0.3333333   0.4835309   0.0000000), wk =   0.0555556
        k(   31) = (   0.3333333   0.5802370   0.0000000), wk =   0.0277778
        k(   32) = (   0.3333333  -0.0967062   0.0000000), wk =   0.0555556
        k(   33) = (   0.3333333  -0.0000000   0.0000000), wk =   0.0277778
        k(   34) = (   0.4166667   0.2417654   0.0000000), wk =   0.0555556
        k(   35) = (   0.4166667   0.3384716   0.0000000), wk =   0.0555556
        k(   36) = (   0.4166667   0.4351778   0.0000000), wk =   0.0555556
        k(   37) = (   0.4166667   0.5318839   0.0000000), wk =   0.0555556
        k(   38) = (   0.4166667  -0.1450593   0.0000000), wk =   0.0555556
        k(   39) = (   0.4166667  -0.0483531   0.0000000), wk =   0.0555556
        k(   40) = (  -0.5000000  -0.2901185   0.0000000), wk =   0.0277778
        k(   41) = (  -0.5000000  -0.1934123   0.0000000), wk =   0.0555556
        k(   42) = (  -0.5000000  -0.0967062   0.0000000), wk =   0.0555556
        k(   43) = (  -0.5000000   0.0000000   0.0000000), wk =   0.0277778

                       cryst. coord.
        k(    1) = (   0.0000000   0.0000000   0.0000000), wk =   0.0138889
        k(    2) = (   0.0000000   0.0833333   0.0000000), wk =   0.0277778
        k(    3) = (   0.0000000   0.1666667   0.0000000), wk =   0.0277778
        k(    4) = (   0.0000000   0.2500000   0.0000000), wk =   0.0277778
        k(    5) = (   0.0000000   0.3333333   0.0000000), wk =   0.0277778
        k(    6) = (   0.0000000   0.4166667   0.0000000), wk =   0.0277778
        k(    7) = (   0.0000000  -0.5000000   0.0000000), wk =   0.0138889
        k(    8) = (   0.0833333   0.0000000   0.0000000), wk =   0.0555556
        k(    9) = (   0.0833333   0.0833333   0.0000000), wk =   0.0555556
        k(   10) = (   0.0833333   0.1666667   0.0000000), wk =   0.0555556
        k(   11) = (   0.0833333   0.2500000   0.0000000), wk =   0.0555556
        k(   12) = (   0.0833333   0.3333333   0.0000000), wk =   0.0555556
        k(   13) = (   0.0833333   0.4166667   0.0000000), wk =   0.0555556
        k(   14) = (   0.1666667   0.0000000   0.0000000), wk =   0.0555556
        k(   15) = (   0.1666667   0.0833333   0.0000000), wk =   0.0555556
        k(   16) = (   0.1666667   0.1666667   0.0000000), wk =   0.0555556
        k(   17) = (   0.1666667   0.2500000   0.0000000), wk =   0.0555556
        k(   18) = (   0.1666667   0.3333333   0.0000000), wk =   0.0555556
        k(   19) = (   0.1666667   0.4166667   0.0000000), wk =   0.0277778
        k(   20) = (   0.1666667  -0.0833333   0.0000000), wk =   0.0277778
        k(   21) = (   0.2500000   0.0000000   0.0000000), wk =   0.0555556
        k(   22) = (   0.2500000   0.0833333   0.0000000), wk =   0.0555556
        k(   23) = (   0.2500000   0.1666667   0.0000000), wk =   0.0555556
        k(   24) = (   0.2500000   0.2500000   0.0000000), wk =   0.0555556
        k(   25) = (   0.2500000   0.3333333   0.0000000), wk =   0.0555556
        k(   26) = (   0.2500000  -0.1666667   0.0000000), wk =   0.0555556
        k(   27) = (   0.3333333   0.0000000   0.0000000), wk =   0.0555556
        k(   28) = (   0.3333333   0.0833333   0.0000000), wk =   0.0555556
        k(   29) = (   0.3333333   0.1666667   0.0000000), wk =   0.0555556
        k(   30) = (   0.3333333   0.2500000   0.0000000), wk =   0.0555556
        k(   31) = (   0.3333333   0.3333333   0.0000000), wk =   0.0277778
        k(   32) = (   0.3333333  -0.2500000   0.0000000), wk =   0.0555556
        k(   33) = (   0.3333333  -0.1666667   0.0000000), wk =   0.0277778
        k(   34) = (   0.4166667   0.0000000   0.0000000), wk =   0.0555556
        k(   35) = (   0.4166667   0.0833333   0.0000000), wk =   0.0555556
        k(   36) = (   0.4166667   0.1666667   0.0000000), wk =   0.0555556
        k(   37) = (   0.4166667   0.2500000   0.0000000), wk =   0.0555556
        k(   38) = (   0.4166667  -0.3333333   0.0000000), wk =   0.0555556
        k(   39) = (   0.4166667  -0.2500000   0.0000000), wk =   0.0555556
        k(   40) = (  -0.5000000   0.0000000   0.0000000), wk =   0.0277778
        k(   41) = (  -0.5000000   0.0833333   0.0000000), wk =   0.0555556
        k(   42) = (  -0.5000000   0.1666667   0.0000000), wk =   0.0555556
        k(   43) = (  -0.5000000   0.2500000   0.0000000), wk =   0.0277778

     Dense  grid:   244813 G-vectors     FFT dimensions: (  45,  45, 320)

     Smooth grid:    86579 G-vectors     FFT dimensions: (  30,  30, 225)

     Dynamical RAM for                 wfc:       0.33 MB

     Dynamical RAM for     wfc (w. buffer):      14.53 MB

     Dynamical RAM for           str. fact:       0.93 MB

     Dynamical RAM for           local pot:       0.00 MB

     Dynamical RAM for          nlocal pot:       1.11 MB

     Dynamical RAM for                qrad:       3.52 MB

     Dynamical RAM for          rho,v,vnew:       3.25 MB

     Dynamical RAM for               rhoin:       1.08 MB

     Dynamical RAM for            rho*nmix:       7.47 MB

     Dynamical RAM for           G-vectors:       1.83 MB

     Dynamical RAM for          h,s,v(r/c):       0.01 MB

     Dynamical RAM for          <psi|beta>:       0.01 MB

     Dynamical RAM for      wfcinit/wfcrot:       0.67 MB

     Dynamical RAM for           addusdens:      87.77 MB

     Dynamical RAM for          addusforce:      88.95 MB

     Dynamical RAM for         addusstress:      93.84 MB

     Estimated static dynamical RAM per process >      30.76 MB

     Estimated max dynamical RAM per process >     132.07 MB

     Estimated total dynamical RAM >       1.03 GB

     The initial density is read from file :
     ./tmp/mos2.save/charge-density


     negative rho (up, down):  3.873E-04 0.000E+00
     Starting wfcs from file

     total cpu time spent up to now is        1.3 secs

     Self-consistent Calculation

     iteration #  1     ecut=    60.00 Ry     beta= 0.30
     CG style diagonalization

---- Real-time Memory Report at c_bands before calling an iterative solver
           163 MiB given to the printing process from OS
             0 MiB allocation reported by mallinfo(arena+hblkhd)
          2187 MiB available memory on the node where the printing process lives
------------------
     ethr =  1.00E-10,  avg # of iterations =  2.0

     Threshold (ethr) on eigenvalues was too large:
     Diagonalizing with lowered threshold

     CG style diagonalization

---- Real-time Memory Report at c_bands before calling an iterative solver
           184 MiB given to the printing process from OS
             0 MiB allocation reported by mallinfo(arena+hblkhd)
          2456 MiB available memory on the node where the printing process lives
------------------
     ethr =  1.00E-13,  avg # of iterations =  2.0

     negative rho (up, down):  3.873E-04 0.000E+00

     total cpu time spent up to now is       11.8 secs

     End of self-consistent calculation

          k = 0.0000 0.0000 0.0000 ( 10891 PWs)   bands (ev):

   -62.5699 -36.7065 -36.5128 -36.5051 -15.7338 -14.4336  -7.2563  -4.3152
    -4.2628  -3.4256  -3.2033  -3.1719  -1.6620   1.0509   1.0776   1.2896

     occupation numbers 
     1.0000   1.0000   1.0000   1.0000   1.0000   1.0000   1.0000   1.0000
     1.0000   1.0000   1.0000   1.0000   1.0000   0.0000   0.0000   0.0000

          k = 0.0000 0.0967 0.0000 ( 10887 PWs)   bands (ev):

   -62.5675 -36.7016 -36.5301 -36.5185 -15.6321 -14.3914  -7.1400  -4.4925
    -4.2088  -3.9171  -3.3670  -2.8354  -1.7141   0.9403   1.0603   1.1744

     occupation numbers 
     1.0000   1.0000   1.0000   1.0000   1.0000   1.0000   1.0000   1.0000
     1.0000   1.0000   1.0000   1.0000   1.0000   0.0000   0.0000   0.0000

          k = 0.0000 0.1934 0.0000 ( 10879 PWs)   bands (ev):

   -62.5607 -36.6882 -36.5980 -36.5343 -15.3431 -14.2716  -6.8478  -5.0184
    -4.5586  -3.9124  -3.7526  -2.7437  -1.9474   0.6338   0.8803   0.9071

     occupation numbers 
     1.0000   1.0000   1.0000   1.0000   1.0000   1.0000   1.0000   1.0000
     1.0000   1.0000   1.0000   1.0000   1.0000   0.0000   0.0000   0.0000

          k = 0.0000 0.2901 0.0000 ( 10879 PWs)   bands (ev):

   -62.5516 -36.6895 -36.6698 -36.5557 -14.9159 -14.0955  -6.6389  -5.4635
    -5.2128  -4.1848  -3.4974  -2.9837  -2.3746   0.5032   0.6426   1.2009

     occupation numbers 
     1.0000   1.0000   1.0000   1.0000   1.0000   1.0000   1.0000   1.0000
     1.0000   1.0000   1.0000   1.0000   1.0000   0.0000   0.0000   0.0000

          k = 0.0000 0.3868 0.0000 ( 10849 PWs)   bands (ev):

   -62.5423 -36.7798 -36.6514 -36.5771 -14.4377 -13.9019  -6.8813  -5.8200
    -5.5502  -4.5484  -3.2752  -3.0831  -2.6221   0.5032   0.6579   1.6882

     occupation numbers 
     1.0000   1.0000   1.0000   1.0000   1.0000   1.0000   1.0000   1.0000
     1.0000   1.0000   1.0000   1.0000   1.0000   0.0000   0.0000   0.0000

          k = 0.0000 0.4835 0.0000 ( 10801 PWs)   bands (ev):

   -62.5355 -36.8450 -36.6379 -36.5926 -14.0412 -13.7463  -7.2483  -6.2652
    -5.6428  -4.7845  -3.4583  -2.7965  -2.4539   0.5068   0.9116   2.0498

     occupation numbers 
     1.0000   1.0000   1.0000   1.0000   1.0000   1.0000   1.0000   1.0000
     1.0000   1.0000   1.0000   1.0000   1.0000   0.0000   0.0000   0.0000

          k = 0.0000-0.5802 0.0000 ( 10796 PWs)   bands (ev):

   -62.5331 -36.8687 -36.6330 -36.5983 -13.8827 -13.6858  -7.4040  -6.4301
    -5.7171  -4.8658  -3.5165  -2.6991  -2.2882   0.5382   1.0532   2.1674

     occupation numbers 
     1.0000   1.0000   1.0000   1.0000   1.0000   1.0000   1.0000   1.0000
     1.0000   1.0000   1.0000   1.0000   1.0000   0.0000   0.0000   0.0000

          k = 0.0833 0.0484 0.0000 ( 10885 PWs)   bands (ev):

   -62.5675 -36.7016 -36.5359 -36.5122 -15.6330 -14.3923  -7.1409  -4.5279
    -4.1693  -3.9282  -3.3403  -2.8488  -1.7166   0.9276   1.0280   1.2094

     occupation numbers 
     1.0000   1.0000   1.0000   1.0000   1.0000   1.0000   1.0000   1.0000
     1.0000   1.0000   1.0000   1.0000   1.0000   0.0000   0.0000   0.0000

          k = 0.0833 0.1451 0.0000 ( 10871 PWs)   bands (ev):

   -62.5629 -36.6925 -36.5775 -36.5279 -15.4375 -14.3112  -6.9328  -4.8750
    -4.3500  -4.0003  -3.7283  -2.6511  -1.8609   0.7167   0.7900   0.9900

     occupation numbers 
     1.0000   1.0000   1.0000   1.0000   1.0000   1.0000   1.0000   1.0000
     1.0000   1.0000   1.0000   1.0000   1.0000   0.0000   0.0000   0.0000

          k = 0.0833 0.2418 0.0000 ( 10864 PWs)   bands (ev):

   -62.5549 -36.6766 -36.6526 -36.5510 -15.0784 -14.1623  -6.6510  -5.3392
    -4.8857  -4.2741  -3.6982  -2.6782  -2.2053   0.4287   0.7685   0.8650

     occupation numbers 
     1.0000   1.0000   1.0000   1.0000   1.0000   1.0000   1.0000   1.0000
     1.0000   1.0000   1.0000   1.0000   1.0000   0.0000   0.0000   0.0000

          k = 0.0833 0.3385 0.0000 ( 10861 PWs)   bands (ev):

   -62.5458 -36.7391 -36.6583 -36.5768 -14.6223 -13.9746  -6.6776  -5.5356
    -5.5107  -4.6330  -3.4475  -2.9654  -2.5131   0.3554   0.7274   1.2614

     occupation numbers 
     1.0000   1.0000   1.0000   1.0000   1.0000   1.0000   1.0000   1.0000
     1.0000   1.0000   1.0000   1.0000   1.0000   0.0000   0.0000   0.0000

          k = 0.0833 0.4352 0.0000 ( 10822 PWs)   bands (ev):

   -62.5377 -36.8132 -36.6423 -36.5989 -14.1771 -13.7947  -7.0145  -6.1250
    -5.5377  -4.8013  -3.3204  -3.2844  -2.4215   0.4797   0.8352   1.7428

     occupation numbers 
     1.0000   1.0000   1.0000   1.0000   1.0000   1.0000   1.0000   1.0000
     1.0000   1.0000   1.0000   1.0000   1.0000   0.0000   0.0000   0.0000

          k = 0.0833 0.5319 0.0000 ( 10796 PWs)   bands (ev):

   -62.5331 -36.8556 -36.6331 -36.6115 -13.8905 -13.6818  -7.2681  -6.4680
    -5.6599  -4.8609  -3.4784  -3.1985  -2.1780   0.5541   1.0531   2.1363

     occupation numbers 
     1.0000   1.0000   1.0000   1.0000   1.0000   1.0000   1.0000   1.0000
     1.0000   1.0000   1.0000   1.0000   1.0000   0.0000   0.0000   0.0000

          k = 0.1667 0.0967 0.0000 ( 10871 PWs)   bands (ev):

   -62.5609 -36.6885 -36.6026 -36.5277 -15.3465 -14.2751  -6.8503  -5.0443
    -4.5723  -3.8758  -3.7185  -2.7545  -1.9568   0.6104   0.8787   0.9423

     occupation numbers 
     1.0000   1.0000   1.0000   1.0000   1.0000   1.0000   1.0000   1.0000
     1.0000   1.0000   1.0000   1.0000   1.0000   0.0000   0.0000   0.0000

          k = 0.1667 0.1934 0.0000 ( 10859 PWs)   bands (ev):

   -62.5551 -36.6768 -36.6549 -36.5473 -15.0809 -14.1651  -6.6520  -5.3531
    -4.8990  -4.2504  -3.6787  -2.6796  -2.2128   0.4248   0.7835   0.8621

     occupation numbers 
     1.0000   1.0000   1.0000   1.0000   1.0000   1.0000   1.0000   1.0000
     1.0000   1.0000   1.0000   1.0000   1.0000   0.0000   0.0000   0.0000

          k = 0.1667 0.2901 0.0000 ( 10850 PWs)   bands (ev):

   -62.5471 -36.7197 -36.6609 -36.5800 -14.6904 -14.0023  -6.5758  -5.4881
    -5.3265  -4.8407  -3.6446  -2.7152  -2.4612   0.2578   0.7863   0.9680

     occupation numbers 
     1.0000   1.0000   1.0000   1.0000   1.0000   1.0000   1.0000   1.0000
     1.0000   1.0000   1.0000   1.0000   1.0000   0.0000   0.0000   0.0000

          k = 0.1667 0.3868 0.0000 ( 10823 PWs)   bands (ev):

   -62.5391 -36.7807 -36.6450 -36.6158 -14.2583 -13.8216  -6.7623  -6.0133
    -5.3864  -4.9495  -3.9076  -3.0107  -2.4271   0.4028   0.8569   1.2984

     occupation numbers 
     1.0000   1.0000   1.0000   1.0000   1.0000   1.0000   1.0000   1.0000
     1.0000   1.0000   1.0000   1.0000   1.0000   0.0000   0.0000   0.0000

          k = 0.1667 0.4835 0.0000 ( 10793 PWs)   bands (ev):

   -62.5333 -36.8239 -36.6430 -36.6333 -13.9068 -13.6749  -6.9508  -6.5358
    -5.4831  -4.8747  -4.0405  -3.3676  -2.1754   0.5188   1.0921   1.6483

     occupation numbers 
     1.0000   1.0000   1.0000   1.0000   1.0000   1.0000   1.0000   1.0000
     1.0000   1.0000   1.0000   1.0000   1.0000   0.0000   0.0000   0.0000

          k = 0.1667 0.5802 0.0000 ( 10790 PWs)   bands (ev):

   -62.5311 -36.8394 -36.6532 -36.6290 -13.7685 -13.6174  -7.0173  -6.7257
    -5.6024  -4.8090  -4.0413  -3.5366  -1.9948   0.4307   1.3406   1.8071

     occupation numbers 
     1.0000   1.0000   1.0000   1.0000   1.0000   1.0000   1.0000   1.0000
     1.0000   1.0000   1.0000   1.0000   1.0000   0.0000   0.0000   0.0000

          k = 0.1667-0.0000 0.0000 ( 10897 PWs)   bands (ev):

   -62.5631 -36.6927 -36.5810 -36.5229 -15.4401 -14.3137  -6.9350  -4.8954
    -4.3548  -3.9713  -3.7139  -2.6562  -1.8660   0.7027   0.7994   1.0064

     occupation numbers 
     1.0000   1.0000   1.0000   1.0000   1.0000   1.0000   1.0000   1.0000
     1.0000   1.0000   1.0000   1.0000   1.0000   0.0000   0.0000   0.0000

          k = 0.2500 0.1451 0.0000 ( 10862 PWs)   bands (ev):

   -62.5520 -36.6929 -36.6704 -36.5485 -14.9230 -14.1033  -6.6406  -5.4871
    -5.2241  -4.1435  -3.4622  -2.9920  -2.3888   0.4904   0.6742   1.2044

     occupation numbers 
     1.0000   1.0000   1.0000   1.0000   1.0000   1.0000   1.0000   1.0000
     1.0000   1.0000   1.0000   1.0000   1.0000   0.0000   0.0000   0.0000

          k = 0.2500 0.2418 0.0000 ( 10861 PWs)   bands (ev):

   -62.5461 -36.7417 -36.6588 -36.5708 -14.6284 -13.9818  -6.6792  -5.5451
    -5.5315  -4.6022  -3.4176  -2.9655  -2.5246   0.3620   0.7370   1.2588

     occupation numbers 
     1.0000   1.0000   1.0000   1.0000   1.0000   1.0000   1.0000   1.0000
     1.0000   1.0000   1.0000   1.0000   1.0000   0.0000   0.0000   0.0000

          k = 0.2500 0.3385 0.0000 ( 10821 PWs)   bands (ev):

   -62.5393 -36.7822 -36.6453 -36.6125 -14.2620 -13.8262  -6.7646  -6.0134
    -5.3980  -4.9385  -3.8908  -3.0095  -2.4312   0.4041   0.8606   1.2989

     occupation numbers 
     1.0000   1.0000   1.0000   1.0000   1.0000   1.0000   1.0000   1.0000
     1.0000   1.0000   1.0000   1.0000   1.0000   0.0000   0.0000   0.0000

          k = 0.2500 0.4352 0.0000 ( 10817 PWs)   bands (ev):

   -62.5335 -36.8037 -36.6619 -36.6336 -13.9173 -13.6745  -6.7615  -6.5641
    -5.2745  -4.8871  -4.5658  -3.2961  -2.2036   0.4831   1.1210   1.4096

     occupation numbers 
     1.0000   1.0000   1.0000   1.0000   1.0000   1.0000   1.0000   1.0000
     1.0000   1.0000   1.0000   1.0000   1.0000   0.0000   0.0000   0.0000

          k = 0.2500 0.5319 0.0000 ( 10774 PWs)   bands (ev):

   -62.5301 -36.8073 -36.6993 -36.6269 -13.7045 -13.5779  -6.9036  -6.6287
    -5.4709  -4.8828  -4.6979  -3.6207  -1.8887   0.2112   1.4720   1.5870

     occupation numbers 
     1.0000   1.0000   1.0000   1.0000   1.0000   1.0000   1.0000   1.0000
     1.0000   1.0000   1.0000   1.0000   1.0000   0.0000   0.0000   0.0000

          k = 0.2500-0.0484 0.0000 ( 10870 PWs)   bands (ev):

   -62.5553 -36.6772 -36.6555 -36.5448 -15.0848 -14.1688  -6.6540  -5.3540
    -4.8926  -4.2493  -3.6734  -2.6826  -2.2123   0.4264   0.7766   0.8858

     occupation numbers 
     1.0000   1.0000   1.0000   1.0000   1.0000   1.0000   1.0000   1.0000
     1.0000   1.0000   1.0000   1.0000   1.0000   0.0000   0.0000   0.0000

          k = 0.3333 0.1934 0.0000 ( 10828 PWs)   bands (ev):

   -62.5429 -36.7820 -36.6523 -36.5691 -14.4490 -13.9148  -6.8838  -5.8237
    -5.5710  -4.5015  -3.2856  -3.0458  -2.6376   0.5226   0.6511   1.6951

     occupation numbers 
     1.0000   1.0000   1.0000   1.0000   1.0000   1.0000   1.0000   1.0000
     1.0000   1.0000   1.0000   1.0000   1.0000   0.0000   0.0000   0.0000

          k = 0.3333 0.2901 0.0000 ( 10820 PWs)   bands (ev):

   -62.5383 -36.8153 -36.6431 -36.5916 -14.1875 -13.8073  -7.0205  -6.1238
    -5.5531  -4.7675  -3.2889  -3.2883  -2.4326   0.4835   0.8404   1.7444

     occupation numbers 
     1.0000   1.0000   1.0000   1.0000   1.0000   1.0000   1.0000   1.0000
     1.0000   1.0000   1.0000   1.0000   1.0000   0.0000   0.0000   0.0000

          k = 0.3333 0.3868 0.0000 ( 10799 PWs)   bands (ev):

   -62.5337 -36.8256 -36.6376 -36.6339 -13.9147 -13.6846  -6.9567  -6.5288
    -5.4930  -4.8573  -4.0151  -3.3705  -2.1853   0.5166   1.0926   1.6522

     occupation numbers 
     1.0000   1.0000   1.0000   1.0000   1.0000   1.0000   1.0000   1.0000
     1.0000   1.0000   1.0000   1.0000   1.0000   0.0000   0.0000   0.0000

          k = 0.3333 0.4835 0.0000 ( 10768 PWs)   bands (ev):

   -62.5303 -36.8084 -36.6963 -36.6272 -13.7089 -13.5830  -6.8983  -6.6307
    -5.4783  -4.8681  -4.6895  -3.6247  -1.8926   0.2084   1.4738   1.5813

     occupation numbers 
     1.0000   1.0000   1.0000   1.0000   1.0000   1.0000   1.0000   1.0000
     1.0000   1.0000   1.0000   1.0000   1.0000   0.0000   0.0000   0.0000

          k = 0.3333 0.5802 0.0000 ( 10772 PWs)   bands (ev):

   -62.5290 -36.7809 -36.7391 -36.6247 -13.6326 -13.5429  -7.0431  -6.2333
    -5.7198  -5.2230  -4.5328  -3.8109  -1.6962  -0.0372   1.3856   1.8351

     occupation numbers 
     1.0000   1.0000   1.0000   1.0000   1.0000   1.0000   1.0000   1.0000
     1.0000   1.0000   1.0000   1.0000   1.0000   0.0000   0.0000   0.0000

          k = 0.3333-0.0967 0.0000 ( 10862 PWs)   bands (ev):

   -62.5464 -36.7408 -36.6591 -36.5699 -14.6329 -13.9857  -6.6760  -5.5377
    -5.5276  -4.5998  -3.4339  -2.9716  -2.5092   0.3675   0.7160   1.2853

     occupation numbers 
     1.0000   1.0000   1.0000   1.0000   1.0000   1.0000   1.0000   1.0000
     1.0000   1.0000   1.0000   1.0000   1.0000   0.0000   0.0000   0.0000

          k = 0.3333-0.0000 0.0000 ( 10853 PWs)   bands (ev):

   -62.5476 -36.7197 -36.6615 -36.5763 -14.6986 -14.0102  -6.5732  -5.4890
    -5.3176  -4.8319  -3.6527  -2.7206  -2.4483   0.2629   0.7674   0.9974

     occupation numbers 
     1.0000   1.0000   1.0000   1.0000   1.0000   1.0000   1.0000   1.0000
     1.0000   1.0000   1.0000   1.0000   1.0000   0.0000   0.0000   0.0000

          k = 0.4167 0.2418 0.0000 ( 10800 PWs)   bands (ev):

   -62.5363 -36.8464 -36.6390 -36.5842 -14.0560 -13.7637  -7.2546  -6.2605
    -5.6536  -4.7342  -3.4734  -2.7537  -2.4750   0.5104   0.9048   2.0614

     occupation numbers 
     1.0000   1.0000   1.0000   1.0000   1.0000   1.0000   1.0000   1.0000
     1.0000   1.0000   1.0000   1.0000   1.0000   0.0000   0.0000   0.0000

          k = 0.4167 0.3385 0.0000 ( 10785 PWs)   bands (ev):

   -62.5338 -36.8570 -36.6341 -36.6036 -13.9044 -13.6986  -7.2762  -6.4590
    -5.6664  -4.8214  -3.4900  -3.1665  -2.1916   0.5501   1.0490   2.1430

     occupation numbers 
     1.0000   1.0000   1.0000   1.0000   1.0000   1.0000   1.0000   1.0000
     1.0000   1.0000   1.0000   1.0000   1.0000   0.0000   0.0000   0.0000

          k = 0.4167 0.4352 0.0000 ( 10790 PWs)   bands (ev):

   -62.5317 -36.8405 -36.6470 -36.6299 -13.7803 -13.6311  -7.0207  -6.7135
    -5.6080  -4.7838  -4.0196  -3.5473  -2.0012   0.4223   1.3262   1.8147

     occupation numbers 
     1.0000   1.0000   1.0000   1.0000   1.0000   1.0000   1.0000   1.0000
     1.0000   1.0000   1.0000   1.0000   1.0000   0.0000   0.0000   0.0000

          k = 0.4167 0.5319 0.0000 ( 10780 PWs)   bands (ev):

   -62.5304 -36.8076 -36.6958 -36.6274 -13.7128 -13.5866  -6.8938  -6.6213
    -5.4785  -4.8770  -4.6830  -3.6304  -1.8819   0.1964   1.4762   1.5671

     occupation numbers 
     1.0000   1.0000   1.0000   1.0000   1.0000   1.0000   1.0000   1.0000
     1.0000   1.0000   1.0000   1.0000   1.0000   0.0000   0.0000   0.0000

          k = 0.4167-0.1451 0.0000 ( 10817 PWs)   bands (ev):

   -62.5385 -36.8142 -36.6433 -36.5914 -14.1913 -13.8103  -7.0135  -6.1192
    -5.5525  -4.7618  -3.3079  -3.2961  -2.4119   0.4888   0.8120   1.7680

     occupation numbers 
     1.0000   1.0000   1.0000   1.0000   1.0000   1.0000   1.0000   1.0000
     1.0000   1.0000   1.0000   1.0000   1.0000   0.0000   0.0000   0.0000

          k = 0.4167-0.0484 0.0000 ( 10831 PWs)   bands (ev):

   -62.5397 -36.7805 -36.6458 -36.6110 -14.2703 -13.8335  -6.7529  -6.0028
    -5.3944  -4.9310  -3.9159  -3.0184  -2.4072   0.4079   0.8229   1.3233

     occupation numbers 
     1.0000   1.0000   1.0000   1.0000   1.0000   1.0000   1.0000   1.0000
     1.0000   1.0000   1.0000   1.0000   1.0000   0.0000   0.0000   0.0000

          k =-0.5000-0.2901 0.0000 ( 10784 PWs)   bands (ev):

   -62.5339 -36.8699 -36.6342 -36.5897 -13.8988 -13.7051  -7.4122  -6.4218
    -5.7226  -4.8144  -3.5339  -2.6530  -2.3128   0.5338   1.0446   2.1817

     occupation numbers 
     1.0000   1.0000   1.0000   1.0000   1.0000   1.0000   1.0000   1.0000
     1.0000   1.0000   1.0000   1.0000   1.0000   0.0000   0.0000   0.0000

          k =-0.5000-0.1934 0.0000 ( 10771 PWs)   bands (ev):

   -62.5338 -36.8565 -36.6342 -36.6036 -13.9060 -13.6998  -7.2727  -6.4575
    -5.6669  -4.8182  -3.4938  -3.1741  -2.1811   0.5482   1.0371   2.1607

     occupation numbers 
     1.0000   1.0000   1.0000   1.0000   1.0000   1.0000   1.0000   1.0000
     1.0000   1.0000   1.0000   1.0000   1.0000   0.0000   0.0000   0.0000

          k =-0.5000-0.0967 0.0000 ( 10788 PWs)   bands (ev):

   -62.5339 -36.8241 -36.6373 -36.6342 -13.9202 -13.6892  -6.9451  -6.5227
    -5.4926  -4.8498  -4.0319  -3.3789  -2.1652   0.5088   1.0640   1.6647

     occupation numbers 
     1.0000   1.0000   1.0000   1.0000   1.0000   1.0000   1.0000   1.0000
     1.0000   1.0000   1.0000   1.0000   1.0000   0.0000   0.0000   0.0000

          k =-0.5000 0.0000 0.0000 ( 10815 PWs)   bands (ev):

   -62.5339 -36.8024 -36.6596 -36.6342 -13.9272 -13.6838  -6.7468  -6.5528
    -5.2721  -4.8746  -4.5846  -3.3055  -2.1834   0.4705   1.0880   1.4220

     occupation numbers 
     1.0000   1.0000   1.0000   1.0000   1.0000   1.0000   1.0000   1.0000
     1.0000   1.0000   1.0000   1.0000   1.0000   0.0000   0.0000   0.0000

     highest occupied, lowest unoccupied level (ev):    -1.6620   -0.0372

!    total energy              =    -181.57959231 Ry
     estimated scf accuracy    <          7.9E-16 Ry

     The total energy is the sum of the following terms:
     one-electron contribution =   -1374.11696100 Ry
     hartree contribution      =     686.59815959 Ry
     xc contribution           =     -29.68013364 Ry
     ewald contribution        =     535.61934275 Ry

     convergence has been achieved in   1 iterations

     negative rho (up, down):  3.873E-04 0.000E+00

     Forces acting on atoms (cartesian axes, Ry/au):

     atom    1 type  1   force =     0.00000000   -0.00000678    0.00000000
     atom    2 type  2   force =     0.00000000    0.00000339   -0.00000132
     atom    3 type  2   force =     0.00000000    0.00000339    0.00000132
     The non-local contrib.  to forces
     atom    1 type  1   force =     0.00000000    0.00010271    0.00000000
     atom    2 type  2   force =     0.00000000    0.00019175   -0.27418759
     atom    3 type  2   force =     0.00000000    0.00019175    0.27418759
     The ionic contribution  to forces
     atom    1 type  1   force =     0.00000000    0.04590702    0.00000000
     atom    2 type  2   force =    -0.00000000   -0.02295351   37.02916057
     atom    3 type  2   force =    -0.00000000   -0.02295351  -37.02916057
     The local contribution  to forces
     atom    1 type  1   force =    -0.00000000   -0.04604518    0.00000000
     atom    2 type  2   force =    -0.00000000    0.02274401  -36.75752284
     atom    3 type  2   force =    -0.00000000    0.02274401   36.75752284
     The core correction contribution to forces
     atom    1 type  1   force =    -0.00000000    0.00002847   -0.00000000
     atom    2 type  2   force =     0.00000000    0.00002089    0.00254855
     atom    3 type  2   force =     0.00000000    0.00002089   -0.00254855
     The Hubbard contrib.    to forces
     atom    1 type  1   force =     0.00000000    0.00000000    0.00000000
     atom    2 type  2   force =     0.00000000    0.00000000    0.00000000
     atom    3 type  2   force =     0.00000000    0.00000000    0.00000000
     The SCF correction term to forces
     atom    1 type  1   force =    -0.00000000   -0.00000002    0.00000000
     atom    2 type  2   force =    -0.00000000    0.00000002   -0.00000001
     atom    3 type  2   force =    -0.00000000    0.00000002    0.00000001

     Total force =     0.000009     Total SCF correction =     0.000000


     Computing stress (Cartesian axis) and pressure


     negative rho (up, down):  3.873E-04 0.000E+00
          total   stress  (Ry/bohr**3)                   (kbar)     P=       -1.42
  -0.00001900   0.00000000   0.00000000           -2.80        0.00        0.00
   0.00000000  -0.00000473   0.00000000            0.00       -0.70        0.00
   0.00000000   0.00000000  -0.00000528            0.00        0.00       -0.78

     kinetic stress (kbar)   4839.84     -0.00      0.00
                               -0.00   4843.88      0.00
                                0.00      0.00   4891.67

     local   stress (kbar)-145611.94      0.00     -0.00
                                0.00-145635.57     -0.00
                               -0.00     -0.00 142587.31

     nonloc. stress (kbar)   2216.94     -0.00      0.00
                               -0.00   2216.39      0.00
                                0.00      0.00   2205.97

     hartree stress (kbar)  71410.74      0.00     -0.00
                                0.00  71418.54      0.00
                               -0.00      0.00 -69624.87

     exc-cor stress (kbar)   -411.21     -0.00      0.00
                               -0.00   -411.16     -0.00
                                0.00     -0.00   -412.26

     corecor stress (kbar)   -545.09      0.00     -0.00
                                0.00   -545.10     -0.00
                               -0.00     -0.00   -545.52

     ewald   stress (kbar)  68097.93     -0.00      0.00
                               -0.00  68112.33     -0.00
                                0.00     -0.00 -79103.07

     hubbard stress (kbar)      0.00      0.00      0.00
                                0.00      0.00      0.00
                                0.00      0.00      0.00

     DFT-D   stress (kbar)      0.00      0.00      0.00
                                0.00      0.00      0.00
                                0.00      0.00      0.00

     XDM     stress (kbar)      0.00      0.00      0.00
                                0.00      0.00      0.00
                                0.00      0.00      0.00

     dft-nl  stress (kbar)      0.00      0.00      0.00
                                0.00      0.00      0.00
                                0.00      0.00      0.00

     TS-vdW  stress (kbar)      0.00      0.00      0.00
                                0.00      0.00      0.00
                                0.00      0.00      0.00

     MDB     stress (kbar)      0.00      0.00      0.00
                                0.00      0.00      0.00
                                0.00      0.00      0.00

     3D-RISM stress (kbar)      0.00      0.00      0.00
                                0.00      0.00      0.00
                                0.00      0.00      0.00


     Writing all to output data dir ./tmp/mos2.save/ :
     XML data file, charge density, pseudopotentials, collected wavefunctions
 
     init_run     :      0.75s CPU      1.12s WALL (       1 calls)
     electrons    :      9.56s CPU     10.55s WALL (       1 calls)
     forces       :      1.14s CPU      1.39s WALL (       1 calls)
     stress       :      3.32s CPU      4.01s WALL (       1 calls)

     Called by init_run:
     wfcinit      :      0.06s CPU      0.09s WALL (       1 calls)
     potinit      :      0.14s CPU      0.17s WALL (       1 calls)
     hinit0       :      0.10s CPU      0.12s WALL (       1 calls)

     Called by electrons:
     c_bands      :      7.11s CPU      7.26s WALL (       2 calls)
     sum_band     :      1.92s CPU      2.43s WALL (       2 calls)
     v_of_rho     :      0.22s CPU      0.25s WALL (       2 calls)
     v_h          :      0.02s CPU      0.02s WALL (       2 calls)
     v_xc         :      0.32s CPU      0.36s WALL (       4 calls)
     newd         :      0.77s CPU      1.35s WALL (       2 calls)
     mix_rho      :      0.00s CPU      0.00s WALL (       2 calls)

     Called by c_bands:
     init_us_2    :      0.45s CPU      0.45s WALL (     258 calls)
     ccgdiagg     :      6.92s CPU      7.05s WALL (      86 calls)

     Called by sum_band:
     sum_band:wei :      0.00s CPU      0.00s WALL (       2 calls)
     sum_band:loo :      0.93s CPU      0.94s WALL (       2 calls)
     sum_band:buf :      0.04s CPU      0.04s WALL (      86 calls)
     sum_band:ini :      0.19s CPU      0.19s WALL (      86 calls)
     sum_band:cal :      0.16s CPU      0.16s WALL (      86 calls)
     sum_band:bec :      0.00s CPU      0.00s WALL (      86 calls)
     addusdens    :      0.94s CPU      1.44s WALL (       2 calls)
                                        0.00s GPU  (       2 calls)
     addusd:skk   :      0.00s CPU      0.00s WALL (       4 calls)
                                        0.00s GPU  (       4 calls)

     Called by *cgdiagg:
     h_psi        :      4.83s CPU      4.92s WALL (    2752 calls)
     s_psi        :      0.79s CPU      0.80s WALL (    5504 calls)

     Called by h_psi:
     h_psi:calbec :      1.20s CPU      1.20s WALL (    2752 calls)
     vloc_psi     :      2.93s CPU      3.00s WALL (    2752 calls)
                                        0.00s GPU  (    2752 calls)
     add_vuspsi   :      0.63s CPU      0.64s WALL (    2752 calls)
     hs_1psi      :      5.31s CPU      5.40s WALL (    2752 calls)
     s_1psi       :      0.86s CPU      0.87s WALL (    2752 calls)

     General routines
     calbec       :      2.62s CPU      2.64s WALL (    6321 calls)
     fft          :      0.22s CPU      0.24s WALL (      50 calls)
     ffts         :      0.01s CPU      0.02s WALL (       4 calls)
     fftw         :      2.49s CPU      2.54s WALL (    6880 calls)
     interpolate  :      0.03s CPU      0.03s WALL (       2 calls)
 
     Parallel routines
 
     PWSCF        :     14.95s CPU     17.38s WALL

 
   This run was terminated on:   0: 7:10  23Sep2026            

=------------------------------------------------------------------------------=
   JOB DONE.
=------------------------------------------------------------------------------=
