
     Program PWSCF v.7.5 starts on 22Sep2026 at 21:35:40 

     This program is part of the open-source Quantum ESPRESSO suite
     for quantum simulation of materials; please cite
         "P. Giannozzi et al., J. Phys.:Condens. Matter 21 395502 (2009);
         "P. Giannozzi et al., J. Phys.:Condens. Matter 29 465901 (2017);
         "P. Giannozzi et al., J. Chem. Phys. 152 154105 (2020);
          URL http://www.quantum-espresso.org", 
     in publications or presentations arising from this work. More details at
     http://www.quantum-espresso.org/quote

     Parallel version (MPI), running on     4 processors

     MPI processes distributed on     1 nodes
     7463 MiB available memory on the printing compute node when the environment starts

     Reading input from relax.in

     Current dimensions of program PWSCF are:
     Max number of different atomic species (ntypx) = 10
     Max number of k-points (npk) =  40000
     Max angular momentum in pseudopotentials (lmaxx) =  4

     R & G space division:  proc/nbgrp/npool/nimage =       4
     Subspace diagonalization in iterative solution of the eigenvalue problem:
     a serial algorithm will be used


     Parallelization info
     --------------------
     sticks:   dense  smooth     PW     G-vecs:    dense   smooth      PW
     Min         571     214     63                18093     4156     682
     Max         572     217     64                18095     4157     686
     Sum        2287     859    253                72377    16625    2733

     Using Slab Decomposition



     bravais-lattice index     =            2
     lattice parameter (alat)  =      10.2000  a.u.
     unit-cell volume          =     265.3020 (a.u.)^3
     number of atoms/cell      =            2
     number of atomic types    =            1
     number of electrons       =         8.00
     number of Kohn-Sham states=            4
     kinetic-energy cutoff     =      60.0000  Ry
     charge density cutoff     =     640.0000  Ry
     scf convergence threshold =      1.0E-10
     mixing beta               =       0.7000
     number of iterations used =            8  plain     mixing
     energy convergence thresh.=      1.0E-07
     force convergence thresh. =      1.0E-04
     Exchange-correlation= PBE
                           (   1   4   3   4   0   0   0)
     nstep                     =           40


     celldm(1)=  10.200000  celldm(2)=   0.000000  celldm(3)=   0.000000
     celldm(4)=   0.000000  celldm(5)=   0.000000  celldm(6)=   0.000000

     crystal axes: (cart. coord. in units of alat)
               a(1) = (  -0.500000   0.000000   0.500000 )  
               a(2) = (   0.000000   0.500000   0.500000 )  
               a(3) = (  -0.500000   0.500000   0.000000 )  

     reciprocal axes: (cart. coord. in units 2 pi/alat)
               b(1) = ( -1.000000 -1.000000  1.000000 )  
               b(2) = (  1.000000  1.000000  1.000000 )  
               b(3) = ( -1.000000  1.000000 -1.000000 )  


     PseudoPot. # 1 for Si read from file:
     ../pseudo/Si.pbe-n-rrkjus_psl.1.0.0.UPF
     MD5 check sum: fa25574f73a70a4139f2adfbefec430c
     Pseudo is Ultrasoft + core correction, Zval =  4.0
     Generated using &quot;atomic&quot; code by A. Dal Corso  v.6.3
     Using radial grid of 1141 points,  6 beta functions with: 
                l(1) =   0
                l(2) =   0
                l(3) =   1
                l(4) =   1
                l(5) =   2
                l(6) =   2
     Q(r) pseudized with 0 coefficients 


     atomic species   valence    mass     pseudopotential
     Si                4.00    28.08500     Si( 1.00)

      4 Sym. Ops. (no inversion) found



   Cartesian axes

     site n.     atom                  positions (alat units)
         1        Si     tau(   1) = (   0.0000000   0.0000000   0.0000000  )
         2        Si     tau(   2) = (   0.2700000   0.2500000   0.2500000  )

     number of k points=    95
                       cart. coord. in units 2pi/alat
        k(    1) = (   0.0000000   0.0000000   0.0000000), wk =   0.0039062
        k(    2) = (  -0.1250000   0.1250000  -0.1250000), wk =   0.0156250
        k(    3) = (  -0.2500000   0.2500000  -0.2500000), wk =   0.0156250
        k(    4) = (  -0.3750000   0.3750000  -0.3750000), wk =   0.0156250
        k(    5) = (   0.5000000  -0.5000000   0.5000000), wk =   0.0078125
        k(    6) = (   0.0000000   0.2500000   0.0000000), wk =   0.0156250
        k(    7) = (  -0.1250000   0.3750000  -0.1250000), wk =   0.0312500
        k(    8) = (  -0.2500000   0.5000000  -0.2500000), wk =   0.0312500
        k(    9) = (   0.6250000  -0.3750000   0.6250000), wk =   0.0312500
        k(   10) = (   0.5000000  -0.2500000   0.5000000), wk =   0.0312500
        k(   11) = (   0.3750000  -0.1250000   0.3750000), wk =   0.0312500
        k(   12) = (   0.2500000   0.0000000   0.2500000), wk =   0.0312500
        k(   13) = (   0.0000000   0.5000000   0.0000000), wk =   0.0156250
        k(   14) = (  -0.1250000   0.6250000  -0.1250000), wk =   0.0312500
        k(   15) = (   0.7500000  -0.2500000   0.7500000), wk =   0.0312500
        k(   16) = (   0.6250000  -0.1250000   0.6250000), wk =   0.0312500
        k(   17) = (   0.5000000   0.0000000   0.5000000), wk =   0.0312500
        k(   18) = (   0.0000000   0.7500000   0.0000000), wk =   0.0156250
        k(   19) = (   0.8750000  -0.1250000   0.8750000), wk =   0.0312500
        k(   20) = (   0.7500000   0.0000000   0.7500000), wk =   0.0312500
        k(   21) = (   0.0000000  -1.0000000   0.0000000), wk =   0.0078125
        k(   22) = (  -0.2500000   0.5000000   0.0000000), wk =   0.0312500
        k(   23) = (   0.6250000  -0.3750000   0.8750000), wk =   0.0312500
        k(   24) = (   0.5000000  -0.2500000   0.7500000), wk =   0.0156250
        k(   25) = (   0.7500000  -0.2500000   1.0000000), wk =   0.0312500
        k(   26) = (   0.6250000  -0.1250000   0.8750000), wk =   0.0312500
        k(   27) = (   0.5000000   0.0000000   0.7500000), wk =   0.0312500
        k(   28) = (  -0.2500000  -1.0000000   0.0000000), wk =   0.0156250
        k(   29) = (  -0.5000000  -1.0000000   0.0000000), wk =   0.0078125
        k(   30) = (  -0.1250000   0.1250000   0.1250000), wk =   0.0156250
        k(   31) = (  -0.2500000   0.2500000   0.2500000), wk =   0.0156250
        k(   32) = (  -0.3750000   0.3750000   0.3750000), wk =   0.0156250
        k(   33) = (   0.5000000  -0.5000000  -0.5000000), wk =   0.0078125
        k(   34) = (   0.2500000   0.0000000   0.0000000), wk =   0.0078125
        k(   35) = (   0.3750000  -0.1250000   0.1250000), wk =   0.0156250
        k(   36) = (  -0.3750000   0.1250000   0.1250000), wk =   0.0156250
        k(   37) = (  -0.1250000  -0.3750000  -0.1250000), wk =   0.0312500
        k(   38) = (   0.5000000  -0.2500000   0.2500000), wk =   0.0156250
        k(   39) = (  -0.5000000   0.2500000   0.2500000), wk =   0.0156250
        k(   40) = (  -0.2500000  -0.5000000  -0.2500000), wk =   0.0312500
        k(   41) = (  -0.3750000   0.6250000  -0.6250000), wk =   0.0156250
        k(   42) = (   0.3750000  -0.6250000  -0.6250000), wk =   0.0156250
        k(   43) = (   0.6250000   0.3750000   0.6250000), wk =   0.0312500
        k(   44) = (  -0.2500000   0.5000000  -0.5000000), wk =   0.0156250
        k(   45) = (   0.2500000  -0.5000000  -0.5000000), wk =   0.0156250
        k(   46) = (   0.5000000   0.2500000   0.5000000), wk =   0.0312500
        k(   47) = (  -0.1250000   0.3750000  -0.3750000), wk =   0.0156250
        k(   48) = (   0.1250000  -0.3750000  -0.3750000), wk =   0.0156250
        k(   49) = (   0.3750000   0.1250000   0.3750000), wk =   0.0312500
        k(   50) = (   0.0000000   0.2500000  -0.2500000), wk =   0.0078125
        k(   51) = (   0.0000000  -0.2500000  -0.2500000), wk =   0.0078125
        k(   52) = (   0.5000000   0.0000000   0.0000000), wk =   0.0078125
        k(   53) = (   0.6250000  -0.1250000   0.1250000), wk =   0.0156250
        k(   54) = (  -0.6250000   0.1250000   0.1250000), wk =   0.0156250
        k(   55) = (  -0.1250000  -0.6250000  -0.1250000), wk =   0.0312500
        k(   56) = (  -0.2500000   0.7500000  -0.7500000), wk =   0.0156250
        k(   57) = (   0.2500000  -0.7500000  -0.7500000), wk =   0.0156250
        k(   58) = (   0.7500000   0.2500000   0.7500000), wk =   0.0312500
        k(   59) = (  -0.1250000   0.6250000  -0.6250000), wk =   0.0156250
        k(   60) = (   0.1250000  -0.6250000  -0.6250000), wk =   0.0156250
        k(   61) = (   0.6250000   0.1250000   0.6250000), wk =   0.0312500
        k(   62) = (   0.0000000   0.5000000  -0.5000000), wk =   0.0078125
        k(   63) = (   0.0000000  -0.5000000  -0.5000000), wk =   0.0078125
        k(   64) = (   0.7500000   0.0000000   0.0000000), wk =   0.0078125
        k(   65) = (  -0.1250000   0.8750000  -0.8750000), wk =   0.0156250
        k(   66) = (   0.1250000  -0.8750000  -0.8750000), wk =   0.0156250
        k(   67) = (   0.8750000   0.1250000   0.8750000), wk =   0.0312500
        k(   68) = (   0.0000000   0.7500000  -0.7500000), wk =   0.0078125
        k(   69) = (   0.0000000  -0.7500000  -0.7500000), wk =   0.0078125
        k(   70) = (  -1.0000000   0.0000000   0.0000000), wk =   0.0039062
        k(   71) = (   0.5000000  -0.2500000   0.0000000), wk =   0.0312500
        k(   72) = (   0.0000000  -0.5000000  -0.2500000), wk =   0.0156250
        k(   73) = (   0.0000000  -0.5000000   0.2500000), wk =   0.0156250
        k(   74) = (  -0.3750000   0.6250000  -0.8750000), wk =   0.0312500
        k(   75) = (   0.3750000  -0.6250000  -0.8750000), wk =   0.0312500
        k(   76) = (   0.8750000   0.3750000   0.6250000), wk =   0.0312500
        k(   77) = (  -0.8750000   0.3750000  -0.6250000), wk =   0.0312500
        k(   78) = (   0.6250000   0.8750000   0.3750000), wk =   0.0312500
        k(   79) = (  -0.2500000   0.5000000  -0.7500000), wk =   0.0312500
        k(   80) = (   0.2500000  -0.5000000  -0.7500000), wk =   0.0312500
        k(   81) = (   0.5000000   0.7500000   0.2500000), wk =   0.0156250
        k(   82) = (  -0.2500000   0.7500000  -1.0000000), wk =   0.0312500
        k(   83) = (   1.0000000   0.2500000   0.7500000), wk =   0.0156250
        k(   84) = (  -1.0000000   0.2500000  -0.7500000), wk =   0.0156250
        k(   85) = (  -0.1250000   0.6250000  -0.8750000), wk =   0.0312500
        k(   86) = (   0.1250000  -0.6250000  -0.8750000), wk =   0.0312500
        k(   87) = (   0.8750000   0.1250000   0.6250000), wk =   0.0312500
        k(   88) = (  -0.8750000   0.1250000  -0.6250000), wk =   0.0312500
        k(   89) = (   0.6250000   0.8750000   0.1250000), wk =   0.0312500
        k(   90) = (   0.0000000   0.5000000  -0.7500000), wk =   0.0156250
        k(   91) = (   0.0000000  -0.5000000  -0.7500000), wk =   0.0156250
        k(   92) = (   0.7500000   0.0000000   0.5000000), wk =   0.0312500
        k(   93) = (  -1.0000000  -0.2500000   0.0000000), wk =   0.0156250
        k(   94) = (   0.0000000   1.0000000  -0.2500000), wk =   0.0156250
        k(   95) = (  -1.0000000  -0.5000000   0.0000000), wk =   0.0156250

     Dense  grid:    72377 G-vectors     FFT dimensions: (  60,  60,  60)

     Smooth grid:    16625 G-vectors     FFT dimensions: (  36,  36,  36)

     Estimated max dynamical RAM per process >      71.98 MB

     Estimated total dynamical RAM >     287.94 MB

     Initial potential from superposition of free atoms

     starting charge       7.9989, renormalised to       8.0000
     Starting wfcs are    8 randomized atomic wfcs

     total cpu time spent up to now is       36.3 secs

     per-process dynamical memory:    25.8 Mb

     Self-consistent Calculation

     iteration #  1     ecut=    60.00 Ry     beta= 0.70
     Davidson diagonalization with overlap
     ethr =  1.00E-02,  avg # of iterations =  2.0

     Threshold (ethr) on eigenvalues was too large:
     Diagonalizing with lowered threshold

     Davidson diagonalization with overlap
     ethr =  6.41E-04,  avg # of iterations =  1.4

     total cpu time spent up to now is       64.1 secs

     total energy              =     -22.82972402 Ry
     estimated scf accuracy    <       0.05558584 Ry

     iteration #  2     ecut=    60.00 Ry     beta= 0.70
     Davidson diagonalization with overlap
     ethr =  6.95E-04,  avg # of iterations =  1.0

     total cpu time spent up to now is       65.0 secs

     total energy              =     -22.83163369 Ry
     estimated scf accuracy    <       0.00288426 Ry

     iteration #  3     ecut=    60.00 Ry     beta= 0.70
     Davidson diagonalization with overlap
     ethr =  3.61E-05,  avg # of iterations =  2.8

     total cpu time spent up to now is       66.0 secs

     total energy              =     -22.83248086 Ry
     estimated scf accuracy    <       0.00011721 Ry

     iteration #  4     ecut=    60.00 Ry     beta= 0.70
     Davidson diagonalization with overlap
     ethr =  1.47E-06,  avg # of iterations =  3.9

     total cpu time spent up to now is       67.5 secs

     total energy              =     -22.83254949 Ry
     estimated scf accuracy    <       0.00001707 Ry

     iteration #  5     ecut=    60.00 Ry     beta= 0.70
     Davidson diagonalization with overlap
     ethr =  2.13E-07,  avg # of iterations =  3.4

     total cpu time spent up to now is       68.9 secs

     total energy              =     -22.83255627 Ry
     estimated scf accuracy    <       0.00000068 Ry

     iteration #  6     ecut=    60.00 Ry     beta= 0.70
     Davidson diagonalization with overlap
     ethr =  8.55E-09,  avg # of iterations =  4.5

     total cpu time spent up to now is       70.5 secs

     total energy              =     -22.83255659 Ry
     estimated scf accuracy    <       0.00000068 Ry

     iteration #  7     ecut=    60.00 Ry     beta= 0.70
     Davidson diagonalization with overlap
     ethr =  8.46E-09,  avg # of iterations =  1.9

     total cpu time spent up to now is       71.6 secs

     total energy              =     -22.83255666 Ry
     estimated scf accuracy    <          6.5E-10 Ry

     iteration #  8     ecut=    60.00 Ry     beta= 0.70
     Davidson diagonalization with overlap
     c_bands:  3 eigenvalues not converged
     c_bands:  3 eigenvalues not converged
     c_bands:  3 eigenvalues not converged
     ethr =  8.18E-12,  avg # of iterations = 10.1

     total cpu time spent up to now is       73.7 secs

     total energy              =     -22.83255668 Ry
     estimated scf accuracy    <          7.8E-10 Ry

     iteration #  9     ecut=    60.00 Ry     beta= 0.70
     Davidson diagonalization with overlap
     ethr =  8.18E-12,  avg # of iterations =  2.1

     total cpu time spent up to now is       74.4 secs

     total energy              =     -22.83255668 Ry
     estimated scf accuracy    <          1.1E-09 Ry

     iteration # 10     ecut=    60.00 Ry     beta= 0.70
     Davidson diagonalization with overlap
     ethr =  8.18E-12,  avg # of iterations =  2.0

     total cpu time spent up to now is       75.1 secs

     End of self-consistent calculation

          k = 0.0000 0.0000 0.0000 (  2085 PWs)   bands (ev):

    -5.7058   5.8721   6.4261   6.9247

          k =-0.1250 0.1250-0.1250 (  2079 PWs)   bands (ev):

    -5.4954   4.5272   5.9762   6.5270

          k =-0.2500 0.2500-0.2500 (  2067 PWs)   bands (ev):

    -4.8780   2.2389   5.4589   5.9763

          k =-0.3750 0.3750-0.3750 (  2072 PWs)   bands (ev):

    -3.9307   0.1770   5.1093   5.6233

          k = 0.5000-0.5000 0.5000 (  2060 PWs)   bands (ev):

    -3.2063  -0.9302   4.9897   5.5063

          k = 0.0000 0.2500 0.0000 (  2077 PWs)   bands (ev):

    -5.4291   4.8238   5.5884   5.8130

          k =-0.1250 0.3750-0.1250 (  2065 PWs)   bands (ev):

    -4.9423   2.8988   4.9946   5.4938

          k =-0.2500 0.5000-0.2500 (  2072 PWs)   bands (ev):

    -4.0859   0.8356   4.5829   4.9432

          k = 0.6250-0.3750 0.6250 (  2080 PWs)   bands (ev):

    -3.1351  -0.6975   4.2060   4.8377

          k = 0.5000-0.2500 0.5000 (  2083 PWs)   bands (ev):

    -3.4290  -0.2621   4.0163   5.1135

          k = 0.3750-0.1250 0.3750 (  2078 PWs)   bands (ev):

    -4.4224   1.5826   4.1445   5.6240

          k = 0.2500 0.0000 0.2500 (  2067 PWs)   bands (ev):

    -5.1583   3.6642   4.6949   6.1710

          k = 0.0000 0.5000 0.0000 (  2045 PWs)   bands (ev):

    -4.6088   2.7916   4.4829   4.5515

          k =-0.1250 0.6250-0.1250 (  2079 PWs)   bands (ev):

    -3.8650   1.2208   3.8609   4.1900

          k = 0.7500-0.2500 0.7500 (  2081 PWs)   bands (ev):

    -2.8655  -0.2914   2.9723   4.1659

          k = 0.6250-0.1250 0.6250 (  2088 PWs)   bands (ev):

    -2.6670  -0.5016   2.4468   4.4892

          k = 0.5000 0.0000 0.5000 (  2085 PWs)   bands (ev):

    -3.6350   0.8668   2.5566   5.0773

          k = 0.0000 0.7500 0.0000 (  2084 PWs)   bands (ev):

    -3.2785   0.5806   3.7573   3.7802

          k = 0.8750-0.1250 0.8750 (  2089 PWs)   bands (ev):

    -2.3223  -0.6027   2.9716   3.6855

          k = 0.7500 0.0000 0.7500 (  2085 PWs)   bands (ev):

    -1.9320  -0.8941   2.0136   3.9515

          k = 0.0000-1.0000 0.0000 (  2100 PWs)   bands (ev):

    -1.5072  -1.5072   3.5148   3.5148

          k =-0.2500 0.5000 0.0000 (  2074 PWs)   bands (ev):

    -4.3580   2.0465   3.6185   5.0012

          k = 0.6250-0.3750 0.8750 (  2080 PWs)   bands (ev):

    -3.4206   0.3250   3.2210   4.3633

          k = 0.5000-0.2500 0.7500 (  2092 PWs)   bands (ev):

    -2.6802  -0.7248   3.1666   4.0585

          k = 0.7500-0.2500 1.0000 (  2085 PWs)   bands (ev):

    -3.0767   0.3636   2.9724   3.6204

          k = 0.6250-0.1250 0.8750 (  2092 PWs)   bands (ev):

    -2.1182  -0.7498   2.4116   3.3179

          k = 0.5000 0.0000 0.7500 (  2091 PWs)   bands (ev):

    -2.5451  -0.2407   2.0886   3.7887

          k =-0.2500-1.0000 0.0000 (  2098 PWs)   bands (ev):

    -1.4268  -1.4268   2.9307   2.9307

          k =-0.5000-1.0000 0.0000 (  2120 PWs)   bands (ev):

    -1.3380  -1.3380   2.4824   2.4824

          k =-0.1250 0.1250 0.1250 (  2079 PWs)   bands (ev):

    -5.5024   4.9760   5.6439   6.3302

          k =-0.2500 0.2500 0.2500 (  2067 PWs)   bands (ev):

    -4.9122   2.5989   5.2345   5.8466

          k =-0.3750 0.3750 0.3750 (  2072 PWs)   bands (ev):

    -4.0430   0.5738   4.9322   5.5281

          k = 0.5000-0.5000-0.5000 (  2060 PWs)   bands (ev):

    -3.4532  -0.4098   4.8262   5.4211

          k = 0.2500 0.0000 0.0000 (  2077 PWs)   bands (ev):

    -5.4296   5.0986   5.2111   5.8781

          k = 0.3750-0.1250 0.1250 (  2065 PWs)   bands (ev):

    -4.9503   3.0551   4.9425   5.3094

          k =-0.3750 0.1250 0.1250 (  2065 PWs)   bands (ev):

    -4.9598   3.2428   4.7455   5.3492

          k =-0.1250-0.3750-0.1250 (  2065 PWs)   bands (ev):

    -4.9654   3.3558   4.7478   5.2008

          k = 0.5000-0.2500 0.2500 (  2072 PWs)   bands (ev):

    -4.1008   0.9213   4.3753   5.0314

          k =-0.5000 0.2500 0.2500 (  2072 PWs)   bands (ev):

    -4.1574   1.1959   4.4888   4.7270

          k =-0.2500-0.5000-0.2500 (  2072 PWs)   bands (ev):

    -4.1674   1.2660   4.2314   4.9063

          k =-0.3750 0.6250-0.6250 (  2080 PWs)   bands (ev):

    -3.1425  -0.6690   3.9509   5.0758

          k = 0.3750-0.6250-0.6250 (  2080 PWs)   bands (ev):

    -3.3538  -0.1990   4.2487   4.5033

          k = 0.6250 0.3750 0.6250 (  2080 PWs)   bands (ev):

    -3.3548  -0.1792   3.8452   4.9158

          k =-0.2500 0.5000-0.5000 (  2083 PWs)   bands (ev):

    -3.4004  -0.3173   3.8042   5.4181

          k = 0.2500-0.5000-0.5000 (  2083 PWs)   bands (ev):

    -3.5926   0.1970   4.0256   4.7715

          k = 0.5000 0.2500 0.5000 (  2083 PWs)   bands (ev):

    -3.5694   0.1509   3.6938   5.2098

          k =-0.1250 0.3750-0.3750 (  2078 PWs)   bands (ev):

    -4.3987   1.4514   4.0222   5.9844

          k = 0.1250-0.3750-0.3750 (  2078 PWs)   bands (ev):

    -4.4761   1.9823   4.1146   5.2132

          k = 0.3750 0.1250 0.3750 (  2078 PWs)   bands (ev):

    -4.4551   1.8628   3.8659   5.6971

          k = 0.0000 0.2500-0.2500 (  2067 PWs)   bands (ev):

    -5.1434   3.3182   4.8104   6.5635

          k = 0.0000-0.2500-0.2500 (  2067 PWs)   bands (ev):

    -5.1722   4.0787   4.6791   5.6285

          k = 0.5000 0.0000 0.0000 (  2045 PWs)   bands (ev):

    -4.6116   2.8998   4.2147   4.6811

          k = 0.6250-0.1250 0.1250 (  2079 PWs)   bands (ev):

    -3.8855   1.4114   3.4670   4.3453

          k =-0.6250 0.1250 0.1250 (  2079 PWs)   bands (ev):

    -3.9037   1.4855   3.8688   3.9095

          k =-0.1250-0.6250-0.1250 (  2079 PWs)   bands (ev):

    -3.9124   1.5806   3.4730   4.1982

          k =-0.2500 0.7500-0.7500 (  2081 PWs)   bands (ev):

    -2.8892  -0.1761   2.6529   4.3579

          k = 0.2500-0.7500-0.7500 (  2081 PWs)   bands (ev):

    -3.0274   0.1293   2.9519   3.9078

          k = 0.7500 0.2500 0.7500 (  2081 PWs)   bands (ev):

    -3.0264   0.1911   2.5951   4.2006

          k =-0.1250 0.6250-0.6250 (  2088 PWs)   bands (ev):

    -2.5785  -0.6268   2.2687   4.7117

          k = 0.1250-0.6250-0.6250 (  2088 PWs)   bands (ev):

    -2.8894   0.0098   2.4125   4.2049

          k = 0.6250 0.1250 0.6250 (  2088 PWs)   bands (ev):

    -2.8142  -0.1159   2.1840   4.5208

          k = 0.0000 0.5000-0.5000 (  2085 PWs)   bands (ev):

    -3.5520   0.5279   2.6068   5.3382

          k = 0.0000-0.5000-0.5000 (  2085 PWs)   bands (ev):

    -3.7106   1.2286   2.5502   4.7199

          k = 0.7500 0.0000 0.0000 (  2084 PWs)   bands (ev):

    -3.2917   0.6533   3.5280   3.9197

          k =-0.1250 0.8750-0.8750 (  2089 PWs)   bands (ev):

    -2.3747  -0.4655   2.6857   3.8421

          k = 0.1250-0.8750-0.8750 (  2089 PWs)   bands (ev):

    -2.4386  -0.3781   3.0725   3.4529

          k = 0.8750 0.1250 0.8750 (  2089 PWs)   bands (ev):

    -2.4145  -0.4138   2.8441   3.6929

          k = 0.0000 0.7500-0.7500 (  2085 PWs)   bands (ev):

    -1.6367  -1.2296   1.8601   4.1217

          k = 0.0000-0.7500-0.7500 (  2085 PWs)   bands (ev):

    -2.1719  -0.5429   2.1450   3.6979

          k =-1.0000 0.0000 0.0000 (  2100 PWs)   bands (ev):

    -1.8248  -1.1404   3.2899   3.6614

          k = 0.5000-0.2500 0.0000 (  2074 PWs)   bands (ev):

    -4.3604   2.0889   3.5814   4.9779

          k = 0.0000-0.5000-0.2500 (  2074 PWs)   bands (ev):

    -4.3909   2.4137   3.5832   4.5953

          k = 0.0000-0.5000 0.2500 (  2074 PWs)   bands (ev):

    -4.3239   1.7443   3.6956   5.2882

          k =-0.3750 0.6250-0.8750 (  2080 PWs)   bands (ev):

    -3.4283   0.3918   3.0010   4.5246

          k = 0.3750-0.6250-0.8750 (  2080 PWs)   bands (ev):

    -3.4940   0.6325   2.9704   4.3866

          k = 0.8750 0.3750 0.6250 (  2080 PWs)   bands (ev):

    -3.5347   0.7910   3.0330   4.1524

          k =-0.8750 0.3750-0.6250 (  2080 PWs)   bands (ev):

    -3.3743   0.2077   3.0167   4.7025

          k = 0.6250 0.8750 0.3750 (  2080 PWs)   bands (ev):

    -3.4920   0.6662   2.7842   4.5642

          k =-0.2500 0.5000-0.7500 (  2092 PWs)   bands (ev):

    -2.6553  -0.7374   2.8603   4.3828

          k = 0.2500-0.5000-0.7500 (  2092 PWs)   bands (ev):

    -2.9202  -0.1890   2.8941   4.0320

          k = 0.5000 0.7500 0.2500 (  2092 PWs)   bands (ev):

    -2.8911  -0.2134   2.6057   4.3666

          k =-0.2500 0.7500-1.0000 (  2085 PWs)   bands (ev):

    -3.0898   0.4272   2.8932   3.6318

          k = 1.0000 0.2500 0.7500 (  2085 PWs)   bands (ev):

    -3.1410   0.6120   2.9609   3.3983

          k =-1.0000 0.2500-0.7500 (  2085 PWs)   bands (ev):

    -3.0103   0.1451   2.9989   3.7884

          k =-0.1250 0.6250-0.8750 (  2092 PWs)   bands (ev):

    -2.0985  -0.7314   2.1211   3.5652

          k = 0.1250-0.6250-0.8750 (  2092 PWs)   bands (ev):

    -2.3243  -0.3696   2.3708   3.1766

          k = 0.8750 0.1250 0.6250 (  2092 PWs)   bands (ev):

    -2.3206  -0.3505   2.2074   3.3094

          k =-0.8750 0.1250-0.6250 (  2092 PWs)   bands (ev):

    -2.0489  -0.8421   2.2846   3.4844

          k = 0.6250 0.8750 0.1250 (  2092 PWs)   bands (ev):

    -2.2516  -0.4734   2.1247   3.4725

          k = 0.0000 0.5000-0.7500 (  2091 PWs)   bands (ev):

    -2.3834  -0.5522   2.0474   3.9921

          k = 0.0000-0.5000-0.7500 (  2091 PWs)   bands (ev):

    -2.6931   0.1125   2.1352   3.5042

          k = 0.7500 0.0000 0.5000 (  2091 PWs)   bands (ev):

    -2.5568  -0.2060   2.0649   3.7820

          k =-1.0000-0.2500 0.0000 (  2098 PWs)   bands (ev):

    -1.7336  -1.0703   2.7013   3.0947

          k = 0.0000 1.0000-0.2500 (  2098 PWs)   bands (ev):

    -1.5498  -1.2968   2.8677   2.9843

          k =-1.0000-0.5000 0.0000 (  2120 PWs)   bands (ev):

    -1.5834  -1.0593   2.3060   2.6184

     highest occupied level (ev):     6.9247

!    total energy              =     -22.83255668 Ry
     estimated scf accuracy    <          7.7E-11 Ry

     The total energy is the sum of the following terms:
     one-electron contribution =       5.30316290 Ry
     hartree contribution      =       1.08610909 Ry
     xc contribution           =     -12.33253328 Ry
     ewald contribution        =     -16.88929538 Ry

     convergence has been achieved in  10 iterations

     Forces acting on atoms (cartesian axes, Ry/au):

     atom    1 type  1   force =     0.05886092    0.00000000    0.00000000
     atom    2 type  1   force =    -0.05886092    0.00000000    0.00000000

     Total force =     0.058861     Total SCF correction =     0.000001


     Computing stress (Cartesian axis) and pressure

          total   stress  (Ry/bohr**3)                   (kbar)     P=       42.80
   0.00025253   0.00000000   0.00000000           37.15        0.00        0.00
   0.00000000   0.00031018  -0.00032466            0.00       45.63      -47.76
   0.00000000  -0.00032466   0.00031018            0.00      -47.76       45.63


     BFGS Geometry Optimization
     Energy error            =      2.4E-03 Ry
     Gradient error          =      5.9E-02 Ry/Bohr

     number of scf cycles    =   1
     number of bfgs steps    =   0

     energy             new  =     -22.8325566779 Ry

     new trust radius        =       0.0588609160 bohr
     new conv_thr            =            1.0E-10 Ry


ATOMIC_POSITIONS (alat)
Si               0.0000000000        0.0000000000        0.0000000000    0   0   0
Si               0.2642293220        0.2500000000        0.2500000000



     Writing config-only to output data dir ./tmp/si.save/ :
     XML data file
     NEW-OLD atomic charge density approx. for the potential

     total cpu time spent up to now is       76.3 secs

     per-process dynamical memory:    31.0 Mb

     Self-consistent Calculation

     iteration #  1     ecut=    60.00 Ry     beta= 0.70
     Davidson diagonalization with overlap
     ethr =  1.00E-06,  avg # of iterations =  8.3

     total cpu time spent up to now is       77.7 secs

     total energy              =     -22.83552398 Ry
     estimated scf accuracy    <       0.00007735 Ry

     iteration #  2     ecut=    60.00 Ry     beta= 0.70
     Davidson diagonalization with overlap
     ethr =  9.67E-07,  avg # of iterations =  1.1

     total cpu time spent up to now is       78.3 secs

     total energy              =     -22.83552834 Ry
     estimated scf accuracy    <       0.00000509 Ry

     iteration #  3     ecut=    60.00 Ry     beta= 0.70
     Davidson diagonalization with overlap
     ethr =  6.36E-08,  avg # of iterations =  2.5

     total cpu time spent up to now is       78.9 secs

     total energy              =     -22.83552911 Ry
     estimated scf accuracy    <       0.00000016 Ry

     iteration #  4     ecut=    60.00 Ry     beta= 0.70
     Davidson diagonalization with overlap
     ethr =  1.97E-09,  avg # of iterations =  4.7

     total cpu time spent up to now is       79.8 secs

     total energy              =     -22.83552923 Ry
     estimated scf accuracy    <       0.00000001 Ry

     iteration #  5     ecut=    60.00 Ry     beta= 0.70
     Davidson diagonalization with overlap
     ethr =  1.40E-10,  avg # of iterations =  3.3

     total cpu time spent up to now is       80.6 secs

     total energy              =     -22.83552923 Ry
     estimated scf accuracy    <          3.3E-09 Ry

     iteration #  6     ecut=    60.00 Ry     beta= 0.70
     Davidson diagonalization with overlap
     ethr =  4.17E-11,  avg # of iterations =  2.2

     total cpu time spent up to now is       81.4 secs

     End of self-consistent calculation

          k = 0.0000 0.0000 0.0000 (  2085 PWs)   bands (ev):

    -5.6993   6.0228   6.4118   6.7727

          k =-0.1250 0.1250-0.1250 (  2079 PWs)   bands (ev):

    -5.4897   4.6110   6.0013   6.4097

          k =-0.2500 0.2500-0.2500 (  2067 PWs)   bands (ev):

    -4.8754   2.2980   5.5003   5.8798

          k =-0.3750 0.3750-0.3750 (  2072 PWs)   bands (ev):

    -3.9381   0.2373   5.1570   5.5323

          k = 0.5000-0.5000 0.5000 (  2060 PWs)   bands (ev):

    -3.2342  -0.8516   5.0396   5.4160

          k = 0.0000 0.2500 0.0000 (  2077 PWs)   bands (ev):

    -5.4223   4.9290   5.5806   5.7150

          k =-0.1250 0.3750-0.1250 (  2065 PWs)   bands (ev):

    -4.9384   2.9777   5.0078   5.3912

          k =-0.2500 0.5000-0.2500 (  2072 PWs)   bands (ev):

    -4.0893   0.9026   4.5987   4.8673

          k = 0.6250-0.3750 0.6250 (  2080 PWs)   bands (ev):

    -3.1584  -0.6196   4.1872   4.8131

          k = 0.5000-0.2500 0.5000 (  2083 PWs)   bands (ev):

    -3.4394  -0.2011   3.9927   5.1023

          k = 0.3750-0.1250 0.3750 (  2078 PWs)   bands (ev):

    -4.4187   1.6277   4.1253   5.6110

          k = 0.2500 0.0000 0.2500 (  2067 PWs)   bands (ev):

    -5.1511   3.6841   4.7131   6.1379

          k = 0.0000 0.5000 0.0000 (  2045 PWs)   bands (ev):

    -4.6013   2.8345   4.4771   4.5131

          k =-0.1250 0.6250-0.1250 (  2079 PWs)   bands (ev):

    -3.8635   1.2873   3.8153   4.1654

          k = 0.7500-0.2500 0.7500 (  2081 PWs)   bands (ev):

    -2.8793  -0.2166   2.9272   4.1557

          k = 0.6250-0.1250 0.6250 (  2088 PWs)   bands (ev):

    -2.6760  -0.4443   2.4176   4.4803

          k = 0.5000 0.0000 0.5000 (  2085 PWs)   bands (ev):

    -3.6247   0.8737   2.5641   5.0626

          k = 0.0000 0.7500 0.0000 (  2084 PWs)   bands (ev):

    -3.2695   0.6012   3.7506   3.7624

          k = 0.8750-0.1250 0.8750 (  2089 PWs)   bands (ev):

    -2.3250  -0.5615   2.9470   3.6754

          k = 0.7500 0.0000 0.7500 (  2085 PWs)   bands (ev):

    -1.9136  -0.8896   2.0104   3.9405

          k = 0.0000-1.0000 0.0000 (  2100 PWs)   bands (ev):

    -1.4948  -1.4948   3.5048   3.5048

          k =-0.2500 0.5000 0.0000 (  2074 PWs)   bands (ev):

    -4.3500   2.0671   3.6245   4.9743

          k = 0.6250-0.3750 0.8750 (  2080 PWs)   bands (ev):

    -3.4212   0.3798   3.1682   4.3754

          k = 0.5000-0.2500 0.7500 (  2092 PWs)   bands (ev):

    -2.7018  -0.6470   3.0901   4.0944

          k = 0.7500-0.2500 1.0000 (  2085 PWs)   bands (ev):

    -3.0670   0.3817   2.9714   3.6022

          k = 0.6250-0.1250 0.8750 (  2092 PWs)   bands (ev):

    -2.1266  -0.6976   2.3656   3.3314

          k = 0.5000 0.0000 0.7500 (  2091 PWs)   bands (ev):

    -2.5329  -0.2288   2.0871   3.7758

          k =-0.2500-1.0000 0.0000 (  2098 PWs)   bands (ev):

    -1.4137  -1.4137   2.9221   2.9221

          k =-0.5000-1.0000 0.0000 (  2120 PWs)   bands (ev):

    -1.3240  -1.3240   2.4737   2.4737

          k =-0.1250 0.1250 0.1250 (  2079 PWs)   bands (ev):

    -5.4947   4.9297   5.7780   6.2557

          k =-0.2500 0.2500 0.2500 (  2067 PWs)   bands (ev):

    -4.8998   2.5542   5.3499   5.7775

          k =-0.3750 0.3750 0.3750 (  2072 PWs)   bands (ev):

    -4.0184   0.5202   5.0391   5.4558

          k = 0.5000-0.5000-0.5000 (  2060 PWs)   bands (ev):

    -3.4106  -0.4804   4.9309   5.3471

          k = 0.2500 0.0000 0.0000 (  2077 PWs)   bands (ev):

    -5.4226   5.0889   5.3197   5.7970

          k = 0.3750-0.1250 0.1250 (  2065 PWs)   bands (ev):

    -4.9438   3.0864   4.9968   5.2412

          k =-0.3750 0.1250 0.1250 (  2065 PWs)   bands (ev):

    -4.9507   3.2185   4.8383   5.2893

          k =-0.1250-0.3750-0.1250 (  2065 PWs)   bands (ev):

    -4.9549   3.3051   4.8546   5.1580

          k = 0.5000-0.2500 0.2500 (  2072 PWs)   bands (ev):

    -4.0994   0.9624   4.4205   4.9644

          k =-0.5000 0.2500 0.2500 (  2072 PWs)   bands (ev):

    -4.1399   1.1577   4.5770   4.6722

          k =-0.2500-0.5000-0.2500 (  2072 PWs)   bands (ev):

    -4.1475   1.2095   4.3290   4.8602

          k =-0.3750 0.6250-0.6250 (  2080 PWs)   bands (ev):

    -3.1629  -0.6003   3.9876   5.0032

          k = 0.3750-0.6250-0.6250 (  2080 PWs)   bands (ev):

    -3.3142  -0.2648   4.2006   4.5946

          k = 0.6250 0.3750 0.6250 (  2080 PWs)   bands (ev):

    -3.3154  -0.2499   3.9240   4.8748

          k =-0.2500 0.5000-0.5000 (  2083 PWs)   bands (ev):

    -3.4196  -0.2396   3.8287   5.3337

          k = 0.2500-0.5000-0.5000 (  2083 PWs)   bands (ev):

    -3.5569   0.1273   3.9870   4.8723

          k = 0.5000 0.2500 0.5000 (  2083 PWs)   bands (ev):

    -3.5398   0.0934   3.7615   5.1724

          k =-0.1250 0.3750-0.3750 (  2078 PWs)   bands (ev):

    -4.4021   1.5348   4.0256   5.8806

          k = 0.1250-0.3750-0.3750 (  2078 PWs)   bands (ev):

    -4.4574   1.9139   4.0914   5.3303

          k = 0.3750 0.1250 0.3750 (  2078 PWs)   bands (ev):

    -4.4421   1.8270   3.9267   5.6634

          k = 0.0000 0.2500-0.2500 (  2067 PWs)   bands (ev):

    -5.1405   3.4300   4.7861   6.4321

          k = 0.0000-0.2500-0.2500 (  2067 PWs)   bands (ev):

    -5.1611   3.9725   4.6931   5.7655

          k = 0.5000 0.0000 0.0000 (  2045 PWs)   bands (ev):

    -4.6028   2.8906   4.2929   4.6258

          k = 0.6250-0.1250 0.1250 (  2079 PWs)   bands (ev):

    -3.8769   1.4151   3.5292   4.2933

          k =-0.6250 0.1250 0.1250 (  2079 PWs)   bands (ev):

    -3.8899   1.4674   3.8165   3.9823

          k =-0.1250-0.6250-0.1250 (  2079 PWs)   bands (ev):

    -3.8974   1.5467   3.5301   4.1772

          k =-0.2500 0.7500-0.7500 (  2081 PWs)   bands (ev):

    -2.8933  -0.1396   2.6947   4.3032

          k = 0.2500-0.7500-0.7500 (  2081 PWs)   bands (ev):

    -2.9928   0.0785   2.9088   3.9821

          k = 0.7500 0.2500 0.7500 (  2081 PWs)   bands (ev):

    -2.9943   0.1282   2.6572   4.1811

          k =-0.1250 0.6250-0.6250 (  2088 PWs)   bands (ev):

    -2.6143  -0.5335   2.2852   4.6486

          k = 0.1250-0.6250-0.6250 (  2088 PWs)   bands (ev):

    -2.8366  -0.0793   2.3884   4.2870

          k = 0.6250 0.1250 0.6250 (  2088 PWs)   bands (ev):

    -2.7817  -0.1686   2.2301   4.5029

          k = 0.0000 0.5000-0.5000 (  2085 PWs)   bands (ev):

    -3.5662   0.6296   2.5953   5.2585

          k = 0.0000-0.5000-0.5000 (  2085 PWs)   bands (ev):

    -3.6795   1.1292   2.5554   4.8173

          k = 0.7500 0.0000 0.0000 (  2084 PWs)   bands (ev):

    -3.2763   0.6383   3.5939   3.8733

          k =-0.1250 0.8750-0.8750 (  2089 PWs)   bands (ev):

    -2.3543  -0.4810   2.7484   3.7958

          k = 0.1250-0.8750-0.8750 (  2089 PWs)   bands (ev):

    -2.4013  -0.4174   3.0244   3.5182

          k = 0.8750 0.1250 0.8750 (  2089 PWs)   bands (ev):

    -2.3909  -0.4258   2.8551   3.6809

          k = 0.0000 0.7500-0.7500 (  2085 PWs)   bands (ev):

    -1.7082  -1.1305   1.9027   4.0704

          k = 0.0000-0.7500-0.7500 (  2085 PWs)   bands (ev):

    -2.0906  -0.6409   2.1067   3.7681

          k =-1.0000 0.0000 0.0000 (  2100 PWs)   bands (ev):

    -1.7262  -1.2383   3.3524   3.6173

          k = 0.5000-0.2500 0.0000 (  2074 PWs)   bands (ev):

    -4.3512   2.0888   3.6054   4.9625

          k = 0.0000-0.5000-0.2500 (  2074 PWs)   bands (ev):

    -4.3736   2.3230   3.5956   4.6960

          k = 0.0000-0.5000 0.2500 (  2074 PWs)   bands (ev):

    -4.3258   1.8446   3.6752   5.1913

          k =-0.3750 0.6250-0.8750 (  2080 PWs)   bands (ev):

    -3.4257   0.4245   3.0119   4.4945

          k = 0.3750-0.6250-0.8750 (  2080 PWs)   bands (ev):

    -3.4728   0.5957   2.9933   4.3935

          k = 0.8750 0.3750 0.6250 (  2080 PWs)   bands (ev):

    -3.5032   0.7117   3.0295   4.2323

          k =-0.8750 0.3750-0.6250 (  2080 PWs)   bands (ev):

    -3.3885   0.2954   3.0160   4.6265

          k = 0.6250 0.8750 0.3750 (  2080 PWs)   bands (ev):

    -3.4723   0.6236   2.8544   4.5205

          k =-0.2500 0.5000-0.7500 (  2092 PWs)   bands (ev):

    -2.6834  -0.6573   2.8713   4.3287

          k = 0.2500-0.5000-0.7500 (  2092 PWs)   bands (ev):

    -2.8730  -0.2659   2.8998   4.0746

          k = 0.5000 0.7500 0.2500 (  2092 PWs)   bands (ev):

    -2.8525  -0.2821   2.6897   4.3144

          k =-0.2500 0.7500-1.0000 (  2085 PWs)   bands (ev):

    -3.0737   0.4142   2.9296   3.6093

          k = 1.0000 0.2500 0.7500 (  2085 PWs)   bands (ev):

    -3.1131   0.5569   2.9620   3.4480

          k =-1.0000 0.2500-0.7500 (  2085 PWs)   bands (ev):

    -3.0197   0.2221   2.9886   3.7283

          k =-0.1250 0.6250-0.8750 (  2092 PWs)   bands (ev):

    -2.1050  -0.6982   2.1609   3.5138

          k = 0.1250-0.6250-0.8750 (  2092 PWs)   bands (ev):

    -2.2707  -0.4363   2.3417   3.2346

          k = 0.8750 0.1250 0.6250 (  2092 PWs)   bands (ev):

    -2.2715  -0.4146   2.2242   3.3245

          k =-0.8750 0.1250-0.6250 (  2092 PWs)   bands (ev):

    -2.0769  -0.7665   2.2779   3.4509

          k = 0.6250 0.8750 0.1250 (  2092 PWs)   bands (ev):

    -2.2221  -0.4990   2.1593   3.4422

          k = 0.0000 0.5000-0.7500 (  2091 PWs)   bands (ev):

    -2.4186  -0.4553   2.0568   3.9292

          k = 0.0000-0.5000-0.7500 (  2091 PWs)   bands (ev):

    -2.6401   0.0188   2.1203   3.5809

          k = 0.7500 0.0000 0.5000 (  2091 PWs)   bands (ev):

    -2.5389  -0.2111   2.0750   3.7724

          k =-1.0000-0.2500 0.0000 (  2098 PWs)   bands (ev):

    -1.6375  -1.1645   2.7651   3.0458

          k = 0.0000 1.0000-0.2500 (  2098 PWs)   bands (ev):

    -1.5025  -1.3213   2.8776   2.9618

          k =-1.0000-0.5000 0.0000 (  2120 PWs)   bands (ev):

    -1.5028  -1.1282   2.3515   2.5753

     highest occupied level (ev):     6.7727

!    total energy              =     -22.83552923 Ry
     estimated scf accuracy    <          5.8E-11 Ry

     The total energy is the sum of the following terms:
     one-electron contribution =       5.30545391 Ry
     hartree contribution      =       1.08567699 Ry
     xc contribution           =     -12.33221032 Ry
     ewald contribution        =     -16.89444982 Ry

     convergence has been achieved in   6 iterations

     Forces acting on atoms (cartesian axes, Ry/au):

     atom    1 type  1   force =     0.04209810    0.00000000   -0.00000000
     atom    2 type  1   force =    -0.04209810   -0.00000000    0.00000000

     Total force =     0.042098     Total SCF correction =     0.000003


     Computing stress (Cartesian axis) and pressure

          total   stress  (Ry/bohr**3)                   (kbar)     P=       40.66
   0.00025690   0.00000000   0.00000000           37.79        0.00        0.00
   0.00000000   0.00028616  -0.00023059            0.00       42.10      -33.92
   0.00000000  -0.00023059   0.00028616            0.00      -33.92       42.10

     Energy error            =      3.0E-03 Ry
     Gradient error          =      4.2E-02 Ry/Bohr

     number of scf cycles    =   2
     number of bfgs steps    =   1

     energy             old  =     -22.8325566779 Ry
     energy             new  =     -22.8355292336 Ry

     CASE: energy            _new < energy            _old

     new trust radius        =       0.0647470076 bohr
     new conv_thr            =            1.0E-10 Ry


ATOMIC_POSITIONS (alat)
Si               0.0000000000        0.0000000000        0.0000000000    0   0   0
Si               0.2578815761        0.2500000000        0.2500000000



     Writing config-only to output data dir ./tmp/si.save/ :
     XML data file
     NEW-OLD atomic charge density approx. for the potential

     total cpu time spent up to now is       82.6 secs

     per-process dynamical memory:    31.0 Mb

     Self-consistent Calculation

     iteration #  1     ecut=    60.00 Ry     beta= 0.70
     Davidson diagonalization with overlap
     ethr =  1.00E-06,  avg # of iterations =  8.4

     total cpu time spent up to now is       84.0 secs

     total energy              =     -22.83764457 Ry
     estimated scf accuracy    <       0.00009368 Ry

     iteration #  2     ecut=    60.00 Ry     beta= 0.70
     Davidson diagonalization with overlap
     ethr =  1.17E-06,  avg # of iterations =  1.1

     total cpu time spent up to now is       84.6 secs

     total energy              =     -22.83764982 Ry
     estimated scf accuracy    <       0.00000613 Ry

     iteration #  3     ecut=    60.00 Ry     beta= 0.70
     Davidson diagonalization with overlap
     ethr =  7.67E-08,  avg # of iterations =  2.3

     total cpu time spent up to now is       85.2 secs

     total energy              =     -22.83765065 Ry
     estimated scf accuracy    <       0.00000018 Ry

     iteration #  4     ecut=    60.00 Ry     beta= 0.70
     Davidson diagonalization with overlap
     ethr =  2.26E-09,  avg # of iterations =  4.8

     total cpu time spent up to now is       86.2 secs

     total energy              =     -22.83765081 Ry
     estimated scf accuracy    <       0.00000002 Ry

     iteration #  5     ecut=    60.00 Ry     beta= 0.70
     Davidson diagonalization with overlap
     ethr =  2.34E-10,  avg # of iterations =  2.9

     total cpu time spent up to now is       86.9 secs

     total energy              =     -22.83765081 Ry
     estimated scf accuracy    <          5.6E-09 Ry

     iteration #  6     ecut=    60.00 Ry     beta= 0.70
     Davidson diagonalization with overlap
     ethr =  7.02E-11,  avg # of iterations =  2.3

     total cpu time spent up to now is       87.7 secs

     total energy              =     -22.83765081 Ry
     estimated scf accuracy    <          1.1E-10 Ry

     iteration #  7     ecut=    60.00 Ry     beta= 0.70
     Davidson diagonalization with overlap
     ethr =  1.39E-12,  avg # of iterations =  5.0

     total cpu time spent up to now is       88.6 secs

     End of self-consistent calculation

          k = 0.0000 0.0000 0.0000 (  2085 PWs)   bands (ev):

    -5.6946   6.1894   6.4016   6.6051

          k =-0.1250 0.1250-0.1250 (  2079 PWs)   bands (ev):

    -5.4859   4.6961   6.0394   6.2753

          k =-0.2500 0.2500-0.2500 (  2067 PWs)   bands (ev):

    -4.8755   2.3603   5.5519   5.7687

          k =-0.3750 0.3750-0.3750 (  2072 PWs)   bands (ev):

    -3.9498   0.3027   5.2148   5.4282

          k = 0.5000-0.5000 0.5000 (  2060 PWs)   bands (ev):

    -3.2682  -0.7662   5.0995   5.3132

          k = 0.0000 0.2500 0.0000 (  2077 PWs)   bands (ev):

    -5.4175   5.0250   5.5750   5.6241

          k =-0.1250 0.3750-0.1250 (  2065 PWs)   bands (ev):

    -4.9369   3.0604   5.0275   5.2768

          k =-0.2500 0.5000-0.2500 (  2072 PWs)   bands (ev):

    -4.0964   0.9747   4.5999   4.8015

          k = 0.6250-0.3750 0.6250 (  2080 PWs)   bands (ev):

    -3.1875  -0.5347   4.1524   4.8010

          k = 0.5000-0.2500 0.5000 (  2083 PWs)   bands (ev):

    -3.4548  -0.1343   3.9577   5.0997

          k = 0.3750-0.1250 0.3750 (  2078 PWs)   bands (ev):

    -4.4179   1.6755   4.0965   5.6054

          k = 0.2500 0.0000 0.2500 (  2067 PWs)   bands (ev):

    -5.1459   3.6981   4.7274   6.1131

          k = 0.0000 0.5000 0.0000 (  2045 PWs)   bands (ev):

    -4.5960   2.8665   4.4730   4.4843

          k =-0.1250 0.6250-0.1250 (  2079 PWs)   bands (ev):

    -3.8651   1.3561   3.7573   4.1509

          k = 0.7500-0.2500 0.7500 (  2081 PWs)   bands (ev):

    -2.8982  -0.1358   2.8735   4.1504

          k = 0.6250-0.1250 0.6250 (  2088 PWs)   bands (ev):

    -2.6909  -0.3815   2.3821   4.4757

          k = 0.5000 0.0000 0.5000 (  2085 PWs)   bands (ev):

    -3.6174   0.8785   2.5696   5.0519

          k = 0.0000 0.7500 0.0000 (  2084 PWs)   bands (ev):

    -3.2630   0.6161   3.7458   3.7495

          k = 0.8750-0.1250 0.8750 (  2089 PWs)   bands (ev):

    -2.3321  -0.5210   2.9218   3.6687

          k = 0.7500 0.0000 0.7500 (  2085 PWs)   bands (ev):

    -1.9003  -0.8865   2.0081   3.9326

          k = 0.0000-1.0000 0.0000 (  2100 PWs)   bands (ev):

    -1.4858  -1.4858   3.4977   3.4977

          k =-0.2500 0.5000 0.0000 (  2074 PWs)   bands (ev):

    -4.3443   2.0820   3.6291   4.9546

          k = 0.6250-0.3750 0.8750 (  2080 PWs)   bands (ev):

    -3.4258   0.4383   3.1051   4.3960

          k = 0.5000-0.2500 0.7500 (  2092 PWs)   bands (ev):

    -2.7292  -0.5626   3.0038   4.1375

          k = 0.7500-0.2500 1.0000 (  2085 PWs)   bands (ev):

    -3.0600   0.3948   2.9708   3.5889

          k = 0.6250-0.1250 0.8750 (  2092 PWs)   bands (ev):

    -2.1402  -0.6442   2.3160   3.3499

          k = 0.5000 0.0000 0.7500 (  2091 PWs)   bands (ev):

    -2.5240  -0.2204   2.0861   3.7664

          k =-0.2500-1.0000 0.0000 (  2098 PWs)   bands (ev):

    -1.4042  -1.4042   2.9159   2.9159

          k =-0.5000-1.0000 0.0000 (  2120 PWs)   bands (ev):

    -1.3140  -1.3140   2.4675   2.4675

          k =-0.1250 0.1250 0.1250 (  2079 PWs)   bands (ev):

    -5.4887   4.8723   5.9241   6.1814

          k =-0.2500 0.2500 0.2500 (  2067 PWs)   bands (ev):

    -4.8890   2.5023   5.4743   5.7059

          k =-0.3750 0.3750 0.3750 (  2072 PWs)   bands (ev):

    -3.9944   0.4596   5.1544   5.3806

          k = 0.5000-0.5000-0.5000 (  2060 PWs)   bands (ev):

    -3.3662  -0.5602   5.0440   5.2700

          k = 0.2500 0.0000 0.0000 (  2077 PWs)   bands (ev):

    -5.4176   5.0820   5.4354   5.7009

          k = 0.3750-0.1250 0.1250 (  2065 PWs)   bands (ev):

    -4.9398   3.1186   5.0595   5.1605

          k =-0.3750 0.1250 0.1250 (  2065 PWs)   bands (ev):

    -4.9436   3.1911   4.9367   5.2227

          k =-0.1250-0.3750-0.1250 (  2065 PWs)   bands (ev):

    -4.9461   3.2426   4.9703   5.1191

          k = 0.5000-0.2500 0.2500 (  2072 PWs)   bands (ev):

    -4.1017   1.0070   4.4730   4.8859

          k =-0.5000 0.2500 0.2500 (  2072 PWs)   bands (ev):

    -4.1242   1.1152   4.6130   4.6708

          k =-0.2500-0.5000-0.2500 (  2072 PWs)   bands (ev):

    -4.1287   1.1450   4.4314   4.8165

          k =-0.3750 0.6250-0.6250 (  2080 PWs)   bands (ev):

    -3.1896  -0.5246   4.0307   4.9190

          k = 0.3750-0.6250-0.6250 (  2080 PWs)   bands (ev):

    -3.2737  -0.3384   4.1491   4.6922

          k = 0.6250 0.3750 0.6250 (  2080 PWs)   bands (ev):

    -3.2748  -0.3296   4.0035   4.8382

          k =-0.2500 0.5000-0.5000 (  2083 PWs)   bands (ev):

    -3.4441  -0.1551   3.8588   5.2369

          k = 0.2500-0.5000-0.5000 (  2083 PWs)   bands (ev):

    -3.5204   0.0485   3.9468   4.9809

          k = 0.5000 0.2500 0.5000 (  2083 PWs)   bands (ev):

    -3.5106   0.0291   3.8288   5.1393

          k =-0.1250 0.3750-0.3750 (  2078 PWs)   bands (ev):

    -4.4089   1.6244   4.0332   5.7629

          k = 0.1250-0.3750-0.3750 (  2078 PWs)   bands (ev):

    -4.4396   1.8350   4.0697   5.4575

          k = 0.3750 0.1250 0.3750 (  2078 PWs)   bands (ev):

    -4.4309   1.7859   3.9863   5.6347

          k = 0.0000 0.2500-0.2500 (  2067 PWs)   bands (ev):

    -5.1401   3.5528   4.7615   6.2857

          k = 0.0000-0.2500-0.2500 (  2067 PWs)   bands (ev):

    -5.1516   3.8538   4.7102   5.9160

          k = 0.5000 0.0000 0.0000 (  2045 PWs)   bands (ev):

    -4.5964   2.8841   4.3751   4.5599

          k = 0.6250-0.1250 0.1250 (  2079 PWs)   bands (ev):

    -3.8718   1.4216   3.5966   4.2315

          k =-0.6250 0.1250 0.1250 (  2079 PWs)   bands (ev):

    -3.8790   1.4504   3.7563   4.0589

          k =-0.1250-0.6250-0.1250 (  2079 PWs)   bands (ev):

    -3.8839   1.5011   3.5956   4.1600

          k =-0.2500 0.7500-0.7500 (  2081 PWs)   bands (ev):

    -2.9043  -0.0963   2.7418   4.2388

          k = 0.2500-0.7500-0.7500 (  2081 PWs)   bands (ev):

    -2.9599   0.0248   2.8609   4.0606

          k = 0.7500 0.2500 0.7500 (  2081 PWs)   bands (ev):

    -2.9621   0.0558   2.7233   4.1648

          k =-0.1250 0.6250-0.6250 (  2088 PWs)   bands (ev):

    -2.6575  -0.4309   2.3053   4.5749

          k = 0.1250-0.6250-0.6250 (  2088 PWs)   bands (ev):

    -2.7811  -0.1788   2.3628   4.3743

          k = 0.6250 0.1250 0.6250 (  2088 PWs)   bands (ev):

    -2.7498  -0.2282   2.2780   4.4883

          k = 0.0000 0.5000-0.5000 (  2085 PWs)   bands (ev):

    -3.5853   0.7416   2.5841   5.1667

          k = 0.0000-0.5000-0.5000 (  2085 PWs)   bands (ev):

    -3.6483   1.0188   2.5622   4.9218

          k = 0.7500 0.0000 0.0000 (  2084 PWs)   bands (ev):

    -3.2651   0.6276   3.6631   3.8181

          k =-0.1250 0.8750-0.8750 (  2089 PWs)   bands (ev):

    -2.3433  -0.4873   2.8151   3.7407

          k = 0.1250-0.8750-0.8750 (  2089 PWs)   bands (ev):

    -2.3700  -0.4514   2.9683   3.5867

          k = 0.8750 0.1250 0.8750 (  2089 PWs)   bands (ev):

    -2.3688  -0.4453   2.8705   3.6718

          k = 0.0000 0.7500-0.7500 (  2085 PWs)   bands (ev):

    -1.7897  -1.0211   1.9496   4.0099

          k = 0.0000-0.7500-0.7500 (  2085 PWs)   bands (ev):

    -2.0021  -0.7495   2.0631   3.8422

          k =-1.0000 0.0000 0.0000 (  2100 PWs)   bands (ev):

    -1.6173  -1.3466   3.4180   3.5650

          k = 0.5000-0.2500 0.0000 (  2074 PWs)   bands (ev):

    -4.3446   2.0887   3.6232   4.9510

          k = 0.0000-0.5000-0.2500 (  2074 PWs)   bands (ev):

    -4.3575   2.2200   3.6106   4.8075

          k = 0.0000-0.5000 0.2500 (  2074 PWs)   bands (ev):

    -4.3309   1.9542   3.6545   5.0827

          k =-0.3750 0.6250-0.8750 (  2080 PWs)   bands (ev):

    -3.4276   0.4612   3.0193   4.4640

          k = 0.3750-0.6250-0.8750 (  2080 PWs)   bands (ev):

    -3.4538   0.5560   3.0104   4.4069

          k = 0.8750 0.3750 0.6250 (  2080 PWs)   bands (ev):

    -3.4715   0.6221   3.0253   4.3212

          k =-0.8750 0.3750-0.6250 (  2080 PWs)   bands (ev):

    -3.4078   0.3910   3.0170   4.5406

          k = 0.6250 0.8750 0.3750 (  2080 PWs)   bands (ev):

    -3.4542   0.5737   2.9300   4.4773

          k =-0.2500 0.5000-0.7500 (  2092 PWs)   bands (ev):

    -2.7186  -0.5690   2.8826   4.2690

          k = 0.2500-0.5000-0.7500 (  2092 PWs)   bands (ev):

    -2.8241  -0.3517   2.9001   4.1264

          k = 0.5000 0.7500 0.2500 (  2092 PWs)   bands (ev):

    -2.8130  -0.3600   2.7815   4.2597

          k =-0.2500 0.7500-1.0000 (  2085 PWs)   bands (ev):

    -3.0621   0.4049   2.9576   3.5914

          k = 1.0000 0.2500 0.7500 (  2085 PWs)   bands (ev):

    -3.0858   0.4905   2.9648   3.5063

          k =-1.0000 0.2500-0.7500 (  2085 PWs)   bands (ev):

    -3.0339   0.3040   2.9793   3.6627

          k =-0.1250 0.6250-0.8750 (  2092 PWs)   bands (ev):

    -2.1239  -0.6527   2.2043   3.4546

          k = 0.1250-0.6250-0.8750 (  2092 PWs)   bands (ev):

    -2.2178  -0.5057   2.3056   3.2990

          k = 0.8750 0.1250 0.6250 (  2092 PWs)   bands (ev):

    -2.2209  -0.4885   2.2402   3.3456

          k =-0.8750 0.1250-0.6250 (  2092 PWs)   bands (ev):

    -2.1125  -0.6843   2.2695   3.4165

          k = 0.6250 0.8750 0.1250 (  2092 PWs)   bands (ev):

    -2.1933  -0.5334   2.2008   3.4116

          k = 0.0000 0.5000-0.7500 (  2091 PWs)   bands (ev):

    -2.4614  -0.3486   2.0688   3.8567

          k = 0.0000-0.5000-0.7500 (  2091 PWs)   bands (ev):

    -2.5845  -0.0856   2.1044   3.6634

          k = 0.7500 0.0000 0.5000 (  2091 PWs)   bands (ev):

    -2.5259  -0.2149   2.0824   3.7654

          k =-1.0000-0.2500 0.0000 (  2098 PWs)   bands (ev):

    -1.5315  -1.2691   2.8329   2.9887

          k = 0.0000 1.0000-0.2500 (  2098 PWs)   bands (ev):

    -1.4541  -1.3533   2.8916   2.9388

          k =-1.0000-0.5000 0.0000 (  2120 PWs)   bands (ev):

    -1.4154  -1.2073   2.4021   2.5266

     highest occupied level (ev):     6.6051

!    total energy              =     -22.83765081 Ry
     estimated scf accuracy    <          6.9E-12 Ry

     The total energy is the sum of the following terms:
     one-electron contribution =       5.30708615 Ry
     hartree contribution      =       1.08536978 Ry
     xc contribution           =     -12.33197962 Ry
     ewald contribution        =     -16.89812712 Ry

     convergence has been achieved in   7 iterations

     Forces acting on atoms (cartesian axes, Ry/au):

     atom    1 type  1   force =     0.02340315    0.00000000   -0.00000000
     atom    2 type  1   force =    -0.02340315   -0.00000000    0.00000000

     Total force =     0.023403     Total SCF correction =     0.000001


     Computing stress (Cartesian axis) and pressure

          total   stress  (Ry/bohr**3)                   (kbar)     P=       39.13
   0.00026001   0.00000000   0.00000000           38.25        0.00        0.00
   0.00000000   0.00026900  -0.00012756            0.00       39.57      -18.77
   0.00000000  -0.00012756   0.00026900            0.00      -18.77       39.57

     Energy error            =      2.1E-03 Ry
     Gradient error          =      2.3E-02 Ry/Bohr

     number of scf cycles    =   3
     number of bfgs steps    =   2

     energy             old  =     -22.8355292336 Ry
     energy             new  =     -22.8376508119 Ry

     CASE: energy            _new < energy            _old

     new trust radius        =       0.0810531298 bohr
     new conv_thr            =            1.0E-10 Ry


ATOMIC_POSITIONS (alat)
Si               0.0000000000        0.0000000000        0.0000000000    0   0   0
Si               0.2499351909        0.2500000000        0.2500000000



     Writing config-only to output data dir ./tmp/si.save/ :
     XML data file
     NEW-OLD atomic charge density approx. for the potential

     total cpu time spent up to now is       89.8 secs

     per-process dynamical memory:    31.0 Mb

     Self-consistent Calculation

     iteration #  1     ecut=    60.00 Ry     beta= 0.70
     Davidson diagonalization with overlap
     ethr =  1.00E-06,  avg # of iterations =  9.1

     total cpu time spent up to now is       91.3 secs

     total energy              =     -22.83858253 Ry
     estimated scf accuracy    <       0.00014832 Ry

     iteration #  2     ecut=    60.00 Ry     beta= 0.70
     Davidson diagonalization with overlap
     ethr =  1.85E-06,  avg # of iterations =  1.1

     total cpu time spent up to now is       91.9 secs

     total energy              =     -22.83859084 Ry
     estimated scf accuracy    <       0.00000958 Ry

     iteration #  3     ecut=    60.00 Ry     beta= 0.70
     Davidson diagonalization with overlap
     ethr =  1.20E-07,  avg # of iterations =  2.2

     total cpu time spent up to now is       92.5 secs

     total energy              =     -22.83859200 Ry
     estimated scf accuracy    <       0.00000028 Ry

     iteration #  4     ecut=    60.00 Ry     beta= 0.70
     Davidson diagonalization with overlap
     ethr =  3.54E-09,  avg # of iterations =  4.9

     total cpu time spent up to now is       93.4 secs

     total energy              =     -22.83859222 Ry
     estimated scf accuracy    <       0.00000004 Ry

     iteration #  5     ecut=    60.00 Ry     beta= 0.70
     Davidson diagonalization with overlap
     ethr =  5.26E-10,  avg # of iterations =  2.6

     total cpu time spent up to now is       94.2 secs

     total energy              =     -22.83859223 Ry
     estimated scf accuracy    <       0.00000001 Ry

     iteration #  6     ecut=    60.00 Ry     beta= 0.70
     Davidson diagonalization with overlap
     ethr =  1.80E-10,  avg # of iterations =  2.2

     total cpu time spent up to now is       94.9 secs

     total energy              =     -22.83859223 Ry
     estimated scf accuracy    <          5.0E-10 Ry

     iteration #  7     ecut=    60.00 Ry     beta= 0.70
     Davidson diagonalization with overlap
     ethr =  6.29E-12,  avg # of iterations =  3.6

     total cpu time spent up to now is       95.7 secs

     End of self-consistent calculation

          k = 0.0000 0.0000 0.0000 (  2085 PWs)   bands (ev):

    -5.6925   6.3953   6.3970   6.3987

          k =-0.1250 0.1250-0.1250 (  2079 PWs)   bands (ev):

    -5.4852   4.7912   6.1008   6.1029

          k =-0.2500 0.2500-0.2500 (  2067 PWs)   bands (ev):

    -4.8799   2.4342   5.6233   5.6252

          k =-0.3750 0.3750-0.3750 (  2072 PWs)   bands (ev):

    -3.9695   0.3829   5.2927   5.2945

          k = 0.5000-0.5000 0.5000 (  2060 PWs)   bands (ev):

    -3.3153  -0.6611   5.1798   5.1816

          k = 0.0000 0.2500 0.0000 (  2077 PWs)   bands (ev):

    -5.4153   5.0789   5.5725   5.5725

          k =-0.1250 0.3750-0.1250 (  2065 PWs)   bands (ev):

    -4.9392   3.1567   5.0526   5.1393

          k =-0.2500 0.5000-0.2500 (  2072 PWs)   bands (ev):

    -4.1101   1.0622   4.5407   4.7819

          k = 0.6250-0.3750 0.6250 (  2080 PWs)   bands (ev):

    -3.2290  -0.4302   4.0875   4.8087

          k = 0.5000-0.2500 0.5000 (  2083 PWs)   bands (ev):

    -3.4799  -0.0513   3.9000   5.1117

          k = 0.3750-0.1250 0.3750 (  2078 PWs)   bands (ev):

    -4.4218   1.7326   4.0479   5.6124

          k = 0.2500 0.0000 0.2500 (  2067 PWs)   bands (ev):

    -5.1436   3.7042   4.7342   6.1018

          k = 0.0000 0.5000 0.0000 (  2045 PWs)   bands (ev):

    -4.5936   2.8812   4.4712   4.4712

          k =-0.1250 0.6250-0.1250 (  2079 PWs)   bands (ev):

    -3.8719   1.4343   3.6773   4.1486

          k = 0.7500-0.2500 0.7500 (  2081 PWs)   bands (ev):

    -2.9275  -0.0373   2.8006   4.1529

          k = 0.6250-0.1250 0.6250 (  2088 PWs)   bands (ev):

    -2.7168  -0.3035   2.3324   4.4777

          k = 0.5000 0.0000 0.5000 (  2085 PWs)   bands (ev):

    -3.6141   0.8806   2.5721   5.0471

          k = 0.0000 0.7500 0.0000 (  2084 PWs)   bands (ev):

    -3.2601   0.6228   3.7437   3.7437

          k = 0.8750-0.1250 0.8750 (  2089 PWs)   bands (ev):

    -2.3472  -0.4781   2.8938   3.6668

          k = 0.7500 0.0000 0.7500 (  2085 PWs)   bands (ev):

    -1.8944  -0.8852   2.0071   3.9291

          k = 0.0000-1.0000 0.0000 (  2100 PWs)   bands (ev):

    -1.4818  -1.4818   3.4945   3.4945

          k =-0.2500 0.5000 0.0000 (  2074 PWs)   bands (ev):

    -4.3417   2.0886   3.6313   4.9458

          k = 0.6250-0.3750 0.8750 (  2080 PWs)   bands (ev):

    -3.4370   0.5085   3.0196   4.4320

          k = 0.5000-0.2500 0.7500 (  2092 PWs)   bands (ev):

    -2.7687  -0.4590   2.8930   4.1965

          k = 0.7500-0.2500 1.0000 (  2085 PWs)   bands (ev):

    -3.0569   0.4007   2.9705   3.5829

          k = 0.6250-0.1250 0.8750 (  2092 PWs)   bands (ev):

    -2.1636  -0.5841   2.2561   3.3783

          k = 0.5000 0.0000 0.7500 (  2091 PWs)   bands (ev):

    -2.5201  -0.2166   2.0857   3.7623

          k =-0.2500-1.0000 0.0000 (  2098 PWs)   bands (ev):

    -1.4000  -1.4000   2.9132   2.9132

          k =-0.5000-1.0000 0.0000 (  2120 PWs)   bands (ev):

    -1.3095  -1.3095   2.4648   2.4648

          k =-0.1250 0.1250 0.1250 (  2079 PWs)   bands (ev):

    -5.4851   4.7898   6.1017   6.1037

          k =-0.2500 0.2500 0.2500 (  2067 PWs)   bands (ev):

    -4.8798   2.4330   5.6239   5.6257

          k =-0.3750 0.3750 0.3750 (  2072 PWs)   bands (ev):

    -3.9691   0.3816   5.2931   5.2950

          k = 0.5000-0.5000-0.5000 (  2060 PWs)   bands (ev):

    -3.3144  -0.6628   5.1802   5.1820

          k = 0.2500 0.0000 0.0000 (  2077 PWs)   bands (ev):

    -5.4153   5.0789   5.5714   5.5736

          k = 0.3750-0.1250 0.1250 (  2065 PWs)   bands (ev):

    -4.9392   3.1562   5.0516   5.1409

          k =-0.3750 0.1250 0.1250 (  2065 PWs)   bands (ev):

    -4.9392   3.1556   5.0534   5.1396

          k =-0.1250-0.3750-0.1250 (  2065 PWs)   bands (ev):

    -4.9391   3.1552   5.0524   5.1412

          k = 0.5000-0.2500 0.2500 (  2072 PWs)   bands (ev):

    -4.1100   1.0620   4.5421   4.7808

          k =-0.5000 0.2500 0.2500 (  2072 PWs)   bands (ev):

    -4.1098   1.0611   4.5409   4.7826

          k =-0.2500-0.5000-0.2500 (  2072 PWs)   bands (ev):

    -4.1098   1.0608   4.5422   4.7816

          k =-0.3750 0.6250-0.6250 (  2080 PWs)   bands (ev):

    -3.2289  -0.4303   4.0886   4.8076

          k = 0.3750-0.6250-0.6250 (  2080 PWs)   bands (ev):

    -3.2283  -0.4318   4.0876   4.8095

          k = 0.6250 0.3750 0.6250 (  2080 PWs)   bands (ev):

    -3.2282  -0.4319   4.0887   4.8084

          k =-0.2500 0.5000-0.5000 (  2083 PWs)   bands (ev):

    -3.4800  -0.0512   3.9009   5.1105

          k = 0.2500-0.5000-0.5000 (  2083 PWs)   bands (ev):

    -3.4793  -0.0528   3.9002   5.1126

          k = 0.5000 0.2500 0.5000 (  2083 PWs)   bands (ev):

    -3.4794  -0.0527   3.9011   5.1113

          k =-0.1250 0.3750-0.3750 (  2078 PWs)   bands (ev):

    -4.4219   1.7330   4.0485   5.6110

          k = 0.1250-0.3750-0.3750 (  2078 PWs)   bands (ev):

    -4.4216   1.7313   4.0482   5.6136

          k = 0.3750 0.1250 0.3750 (  2078 PWs)   bands (ev):

    -4.4217   1.7317   4.0488   5.6122

          k = 0.0000 0.2500-0.2500 (  2067 PWs)   bands (ev):

    -5.1437   3.7054   4.7340   6.1002

          k = 0.0000-0.2500-0.2500 (  2067 PWs)   bands (ev):

    -5.1436   3.7029   4.7345   6.1033

          k = 0.5000 0.0000 0.0000 (  2045 PWs)   bands (ev):

    -4.5936   2.8812   4.4704   4.4719

          k = 0.6250-0.1250 0.1250 (  2079 PWs)   bands (ev):

    -3.8719   1.4338   3.6787   4.1479

          k =-0.6250 0.1250 0.1250 (  2079 PWs)   bands (ev):

    -3.8718   1.4336   3.6774   4.1493

          k =-0.1250-0.6250-0.1250 (  2079 PWs)   bands (ev):

    -3.8717   1.4331   3.6787   4.1485

          k =-0.2500 0.7500-0.7500 (  2081 PWs)   bands (ev):

    -2.9275  -0.0376   2.8017   4.1521

          k = 0.2500-0.7500-0.7500 (  2081 PWs)   bands (ev):

    -2.9270  -0.0386   2.8007   4.1536

          k = 0.7500 0.2500 0.7500 (  2081 PWs)   bands (ev):

    -2.9270  -0.0389   2.8018   4.1528

          k =-0.1250 0.6250-0.6250 (  2088 PWs)   bands (ev):

    -2.7171  -0.3031   2.3331   4.4768

          k = 0.1250-0.6250-0.6250 (  2088 PWs)   bands (ev):

    -2.7161  -0.3052   2.3326   4.4785

          k = 0.6250 0.1250 0.6250 (  2088 PWs)   bands (ev):

    -2.7164  -0.3048   2.3333   4.4776

          k = 0.0000 0.5000-0.5000 (  2085 PWs)   bands (ev):

    -3.6143   0.8817   2.5720   5.0461

          k = 0.0000-0.5000-0.5000 (  2085 PWs)   bands (ev):

    -3.6138   0.8795   2.5722   5.0481

          k = 0.7500 0.0000 0.0000 (  2084 PWs)   bands (ev):

    -3.2601   0.6228   3.7431   3.7444

          k =-0.1250 0.8750-0.8750 (  2089 PWs)   bands (ev):

    -2.3472  -0.4783   2.8946   3.6661

          k = 0.1250-0.8750-0.8750 (  2089 PWs)   bands (ev):

    -2.3470  -0.4786   2.8934   3.6674

          k = 0.8750 0.1250 0.8750 (  2089 PWs)   bands (ev):

    -2.3469  -0.4787   2.8942   3.6667

          k = 0.0000 0.7500-0.7500 (  2085 PWs)   bands (ev):

    -1.8953  -0.8840   2.0075   3.9284

          k = 0.0000-0.7500-0.7500 (  2085 PWs)   bands (ev):

    -1.8935  -0.8863   2.0066   3.9298

          k =-1.0000 0.0000 0.0000 (  2100 PWs)   bands (ev):

    -1.4830  -1.4807   3.4939   3.4951

          k = 0.5000-0.2500 0.0000 (  2074 PWs)   bands (ev):

    -4.3417   2.0886   3.6313   4.9458

          k = 0.0000-0.5000-0.2500 (  2074 PWs)   bands (ev):

    -4.3416   2.0875   3.6315   4.9469

          k = 0.0000-0.5000 0.2500 (  2074 PWs)   bands (ev):

    -4.3418   2.0897   3.6311   4.9446

          k =-0.3750 0.6250-0.8750 (  2080 PWs)   bands (ev):

    -3.4370   0.5083   3.0203   4.4314

          k = 0.3750-0.6250-0.8750 (  2080 PWs)   bands (ev):

    -3.4368   0.5075   3.0204   4.4319

          k = 0.8750 0.3750 0.6250 (  2080 PWs)   bands (ev):

    -3.4367   0.5070   3.0203   4.4326

          k =-0.8750 0.3750-0.6250 (  2080 PWs)   bands (ev):

    -3.4372   0.5089   3.0204   4.4308

          k = 0.6250 0.8750 0.3750 (  2080 PWs)   bands (ev):

    -3.4368   0.5074   3.0211   4.4313

          k =-0.2500 0.5000-0.7500 (  2092 PWs)   bands (ev):

    -2.7688  -0.4590   2.8940   4.1954

          k = 0.2500-0.5000-0.7500 (  2092 PWs)   bands (ev):

    -2.7679  -0.4607   2.8938   4.1966

          k = 0.5000 0.7500 0.2500 (  2092 PWs)   bands (ev):

    -2.7680  -0.4607   2.8948   4.1955

          k =-0.2500 0.7500-1.0000 (  2085 PWs)   bands (ev):

    -3.0569   0.4007   2.9705   3.5829

          k = 1.0000 0.2500 0.7500 (  2085 PWs)   bands (ev):

    -3.0567   0.3999   2.9706   3.5835

          k =-1.0000 0.2500-0.7500 (  2085 PWs)   bands (ev):

    -3.0571   0.4015   2.9705   3.5823

          k =-0.1250 0.6250-0.8750 (  2092 PWs)   bands (ev):

    -2.1637  -0.5840   2.2570   3.3774

          k = 0.1250-0.6250-0.8750 (  2092 PWs)   bands (ev):

    -2.1630  -0.5852   2.2561   3.3787

          k = 0.8750 0.1250 0.6250 (  2092 PWs)   bands (ev):

    -2.1629  -0.5854   2.2567   3.3783

          k =-0.8750 0.1250-0.6250 (  2092 PWs)   bands (ev):

    -2.1638  -0.5838   2.2564   3.3777

          k = 0.6250 0.8750 0.1250 (  2092 PWs)   bands (ev):

    -2.1631  -0.5850   2.2570   3.3778

          k = 0.0000 0.5000-0.7500 (  2091 PWs)   bands (ev):

    -2.5206  -0.2155   2.0859   3.7615

          k = 0.0000-0.5000-0.7500 (  2091 PWs)   bands (ev):

    -2.5196  -0.2177   2.0856   3.7631

          k = 0.7500 0.0000 0.5000 (  2091 PWs)   bands (ev):

    -2.5201  -0.2166   2.0857   3.7623

          k =-1.0000-0.2500 0.0000 (  2098 PWs)   bands (ev):

    -1.4011  -1.3990   2.9125   2.9138

          k = 0.0000 1.0000-0.2500 (  2098 PWs)   bands (ev):

    -1.4005  -1.3996   2.9130   2.9134

          k =-1.0000-0.5000 0.0000 (  2120 PWs)   bands (ev):

    -1.3104  -1.3087   2.4642   2.4653

     highest occupied level (ev):     6.3987

!    total energy              =     -22.83859223 Ry
     estimated scf accuracy    <          7.9E-12 Ry

     The total energy is the sum of the following terms:
     one-electron contribution =       5.30780929 Ry
     hartree contribution      =       1.08523460 Ry
     xc contribution           =     -12.33187766 Ry
     ewald contribution        =     -16.89975846 Ry

     convergence has been achieved in   7 iterations

     Forces acting on atoms (cartesian axes, Ry/au):

     atom    1 type  1   force =    -0.00019271    0.00000000    0.00000000
     atom    2 type  1   force =     0.00019271    0.00000000    0.00000000

     Total force =     0.000193     Total SCF correction =     0.000001


     Computing stress (Cartesian axis) and pressure

          total   stress  (Ry/bohr**3)                   (kbar)     P=       38.45
   0.00026139   0.00000000  -0.00000000           38.45        0.00       -0.00
   0.00000000   0.00026139   0.00000104            0.00       38.45        0.15
   0.00000000   0.00000104   0.00026139            0.00        0.15       38.45

     Energy error            =      9.4E-04 Ry
     Gradient error          =      1.9E-04 Ry/Bohr

     number of scf cycles    =   4
     number of bfgs steps    =   3

     energy             old  =     -22.8376508119 Ry
     energy             new  =     -22.8385922327 Ry

     CASE: energy            _new < energy            _old

     new trust radius        =       0.0006619822 bohr
     new conv_thr            =            1.9E-12 Ry


ATOMIC_POSITIONS (alat)
Si               0.0000000000        0.0000000000        0.0000000000    0   0   0
Si               0.2500000911        0.2500000000        0.2500000000



     Writing config-only to output data dir ./tmp/si.save/ :
     XML data file
     NEW-OLD atomic charge density approx. for the potential

     total cpu time spent up to now is       97.0 secs

     per-process dynamical memory:    31.0 Mb

     Self-consistent Calculation

     iteration #  1     ecut=    60.00 Ry     beta= 0.70
     Davidson diagonalization with overlap
     ethr =  1.00E-06,  avg # of iterations =  1.7

     Threshold (ethr) on eigenvalues was too large:
     Diagonalizing with lowered threshold

     Davidson diagonalization with overlap
     ethr =  1.35E-10,  avg # of iterations =  6.6

     total cpu time spent up to now is       98.6 secs

     total energy              =     -22.83859230 Ry
     estimated scf accuracy    <          9.7E-09 Ry

     iteration #  2     ecut=    60.00 Ry     beta= 0.70
     Davidson diagonalization with overlap
     ethr =  1.21E-10,  avg # of iterations =  1.1

     total cpu time spent up to now is       99.2 secs

     total energy              =     -22.83859230 Ry
     estimated scf accuracy    <          6.4E-10 Ry

     iteration #  3     ecut=    60.00 Ry     beta= 0.70
     Davidson diagonalization with overlap
     ethr =  8.05E-12,  avg # of iterations =  2.6

     total cpu time spent up to now is       99.8 secs

     total energy              =     -22.83859230 Ry
     estimated scf accuracy    <          2.0E-11 Ry

     iteration #  4     ecut=    60.00 Ry     beta= 0.70
     Davidson diagonalization with overlap
     ethr =  2.55E-13,  avg # of iterations =  4.6

     total cpu time spent up to now is      100.6 secs

     End of self-consistent calculation

          k = 0.0000 0.0000 0.0000 (  2085 PWs)   bands (ev):

    -5.6925   6.3970   6.3970   6.3970

          k =-0.1250 0.1250-0.1250 (  2079 PWs)   bands (ev):

    -5.4852   4.7905   6.1023   6.1023

          k =-0.2500 0.2500-0.2500 (  2067 PWs)   bands (ev):

    -4.8799   2.4336   5.6245   5.6245

          k =-0.3750 0.3750-0.3750 (  2072 PWs)   bands (ev):

    -3.9693   0.3822   5.2938   5.2938

          k = 0.5000-0.5000 0.5000 (  2060 PWs)   bands (ev):

    -3.3148  -0.6619   5.1809   5.1809

          k = 0.0000 0.2500 0.0000 (  2077 PWs)   bands (ev):

    -5.4153   5.0789   5.5725   5.5725

          k =-0.1250 0.3750-0.1250 (  2065 PWs)   bands (ev):

    -4.9392   3.1559   5.0525   5.1403

          k =-0.2500 0.5000-0.2500 (  2072 PWs)   bands (ev):

    -4.1099   1.0615   4.5415   4.7817

          k = 0.6250-0.3750 0.6250 (  2080 PWs)   bands (ev):

    -3.2286  -0.4310   4.0881   4.8085

          k = 0.5000-0.2500 0.5000 (  2083 PWs)   bands (ev):

    -3.4796  -0.0520   3.9006   5.1115

          k = 0.3750-0.1250 0.3750 (  2078 PWs)   bands (ev):

    -4.4218   1.7321   4.0483   5.6123

          k = 0.2500 0.0000 0.2500 (  2067 PWs)   bands (ev):

    -5.1436   3.7042   4.7342   6.1018

          k = 0.0000 0.5000 0.0000 (  2045 PWs)   bands (ev):

    -4.5936   2.8812   4.4712   4.4712

          k =-0.1250 0.6250-0.1250 (  2079 PWs)   bands (ev):

    -3.8718   1.4337   3.6780   4.1486

          k = 0.7500-0.2500 0.7500 (  2081 PWs)   bands (ev):

    -2.9272  -0.0381   2.8012   4.1528

          k = 0.6250-0.1250 0.6250 (  2088 PWs)   bands (ev):

    -2.7166  -0.3041   2.3329   4.4777

          k = 0.5000 0.0000 0.5000 (  2085 PWs)   bands (ev):

    -3.6141   0.8806   2.5721   5.0471

          k = 0.0000 0.7500 0.0000 (  2084 PWs)   bands (ev):

    -3.2601   0.6228   3.7437   3.7437

          k = 0.8750-0.1250 0.8750 (  2089 PWs)   bands (ev):

    -2.3471  -0.4784   2.8940   3.6668

          k = 0.7500 0.0000 0.7500 (  2085 PWs)   bands (ev):

    -1.8944  -0.8852   2.0071   3.9291

          k = 0.0000-1.0000 0.0000 (  2100 PWs)   bands (ev):

    -1.4818  -1.4818   3.4945   3.4945

          k =-0.2500 0.5000 0.0000 (  2074 PWs)   bands (ev):

    -4.3417   2.0886   3.6313   4.9458

          k = 0.6250-0.3750 0.8750 (  2080 PWs)   bands (ev):

    -3.4369   0.5079   3.0204   4.4317

          k = 0.5000-0.2500 0.7500 (  2092 PWs)   bands (ev):

    -2.7684  -0.4599   2.8939   4.1960

          k = 0.7500-0.2500 1.0000 (  2085 PWs)   bands (ev):

    -3.0569   0.4007   2.9705   3.5829

          k = 0.6250-0.1250 0.8750 (  2092 PWs)   bands (ev):

    -2.1633  -0.5846   2.2566   3.3780

          k = 0.5000 0.0000 0.7500 (  2091 PWs)   bands (ev):

    -2.5201  -0.2166   2.0857   3.7623

          k =-0.2500-1.0000 0.0000 (  2098 PWs)   bands (ev):

    -1.4000  -1.4000   2.9132   2.9132

          k =-0.5000-1.0000 0.0000 (  2120 PWs)   bands (ev):

    -1.3095  -1.3095   2.4648   2.4648

          k =-0.1250 0.1250 0.1250 (  2079 PWs)   bands (ev):

    -5.4852   4.7905   6.1023   6.1023

          k =-0.2500 0.2500 0.2500 (  2067 PWs)   bands (ev):

    -4.8799   2.4336   5.6245   5.6245

          k =-0.3750 0.3750 0.3750 (  2072 PWs)   bands (ev):

    -3.9693   0.3822   5.2938   5.2938

          k = 0.5000-0.5000-0.5000 (  2060 PWs)   bands (ev):

    -3.3148  -0.6619   5.1809   5.1809

          k = 0.2500 0.0000 0.0000 (  2077 PWs)   bands (ev):

    -5.4153   5.0789   5.5725   5.5725

          k = 0.3750-0.1250 0.1250 (  2065 PWs)   bands (ev):

    -4.9392   3.1559   5.0525   5.1403

          k =-0.3750 0.1250 0.1250 (  2065 PWs)   bands (ev):

    -4.9392   3.1559   5.0525   5.1403

          k =-0.1250-0.3750-0.1250 (  2065 PWs)   bands (ev):

    -4.9392   3.1559   5.0525   5.1403

          k = 0.5000-0.2500 0.2500 (  2072 PWs)   bands (ev):

    -4.1099   1.0615   4.5415   4.7817

          k =-0.5000 0.2500 0.2500 (  2072 PWs)   bands (ev):

    -4.1099   1.0615   4.5415   4.7817

          k =-0.2500-0.5000-0.2500 (  2072 PWs)   bands (ev):

    -4.1099   1.0615   4.5415   4.7817

          k =-0.3750 0.6250-0.6250 (  2080 PWs)   bands (ev):

    -3.2286  -0.4310   4.0881   4.8085

          k = 0.3750-0.6250-0.6250 (  2080 PWs)   bands (ev):

    -3.2286  -0.4310   4.0881   4.8085

          k = 0.6250 0.3750 0.6250 (  2080 PWs)   bands (ev):

    -3.2286  -0.4310   4.0881   4.8085

          k =-0.2500 0.5000-0.5000 (  2083 PWs)   bands (ev):

    -3.4796  -0.0520   3.9006   5.1115

          k = 0.2500-0.5000-0.5000 (  2083 PWs)   bands (ev):

    -3.4796  -0.0520   3.9006   5.1115

          k = 0.5000 0.2500 0.5000 (  2083 PWs)   bands (ev):

    -3.4796  -0.0520   3.9006   5.1115

          k =-0.1250 0.3750-0.3750 (  2078 PWs)   bands (ev):

    -4.4218   1.7321   4.0483   5.6123

          k = 0.1250-0.3750-0.3750 (  2078 PWs)   bands (ev):

    -4.4218   1.7321   4.0483   5.6123

          k = 0.3750 0.1250 0.3750 (  2078 PWs)   bands (ev):

    -4.4218   1.7321   4.0483   5.6123

          k = 0.0000 0.2500-0.2500 (  2067 PWs)   bands (ev):

    -5.1436   3.7042   4.7342   6.1018

          k = 0.0000-0.2500-0.2500 (  2067 PWs)   bands (ev):

    -5.1436   3.7042   4.7342   6.1017

          k = 0.5000 0.0000 0.0000 (  2045 PWs)   bands (ev):

    -4.5936   2.8812   4.4712   4.4712

          k = 0.6250-0.1250 0.1250 (  2079 PWs)   bands (ev):

    -3.8718   1.4337   3.6780   4.1486

          k =-0.6250 0.1250 0.1250 (  2079 PWs)   bands (ev):

    -3.8718   1.4337   3.6780   4.1486

          k =-0.1250-0.6250-0.1250 (  2079 PWs)   bands (ev):

    -3.8718   1.4337   3.6780   4.1486

          k =-0.2500 0.7500-0.7500 (  2081 PWs)   bands (ev):

    -2.9272  -0.0381   2.8012   4.1528

          k = 0.2500-0.7500-0.7500 (  2081 PWs)   bands (ev):

    -2.9272  -0.0381   2.8012   4.1528

          k = 0.7500 0.2500 0.7500 (  2081 PWs)   bands (ev):

    -2.9272  -0.0381   2.8012   4.1528

          k =-0.1250 0.6250-0.6250 (  2088 PWs)   bands (ev):

    -2.7166  -0.3041   2.3329   4.4777

          k = 0.1250-0.6250-0.6250 (  2088 PWs)   bands (ev):

    -2.7166  -0.3041   2.3329   4.4777

          k = 0.6250 0.1250 0.6250 (  2088 PWs)   bands (ev):

    -2.7166  -0.3041   2.3329   4.4777

          k = 0.0000 0.5000-0.5000 (  2085 PWs)   bands (ev):

    -3.6141   0.8806   2.5721   5.0471

          k = 0.0000-0.5000-0.5000 (  2085 PWs)   bands (ev):

    -3.6141   0.8806   2.5721   5.0471

          k = 0.7500 0.0000 0.0000 (  2084 PWs)   bands (ev):

    -3.2601   0.6228   3.7437   3.7437

          k =-0.1250 0.8750-0.8750 (  2089 PWs)   bands (ev):

    -2.3471  -0.4784   2.8940   3.6668

          k = 0.1250-0.8750-0.8750 (  2089 PWs)   bands (ev):

    -2.3471  -0.4784   2.8940   3.6668

          k = 0.8750 0.1250 0.8750 (  2089 PWs)   bands (ev):

    -2.3471  -0.4784   2.8940   3.6668

          k = 0.0000 0.7500-0.7500 (  2085 PWs)   bands (ev):

    -1.8944  -0.8852   2.0071   3.9291

          k = 0.0000-0.7500-0.7500 (  2085 PWs)   bands (ev):

    -1.8944  -0.8852   2.0071   3.9291

          k =-1.0000 0.0000 0.0000 (  2100 PWs)   bands (ev):

    -1.4818  -1.4818   3.4945   3.4945

          k = 0.5000-0.2500 0.0000 (  2074 PWs)   bands (ev):

    -4.3417   2.0886   3.6313   4.9458

          k = 0.0000-0.5000-0.2500 (  2074 PWs)   bands (ev):

    -4.3417   2.0886   3.6313   4.9458

          k = 0.0000-0.5000 0.2500 (  2074 PWs)   bands (ev):

    -4.3417   2.0886   3.6313   4.9458

          k =-0.3750 0.6250-0.8750 (  2080 PWs)   bands (ev):

    -3.4369   0.5079   3.0204   4.4317

          k = 0.3750-0.6250-0.8750 (  2080 PWs)   bands (ev):

    -3.4369   0.5079   3.0204   4.4317

          k = 0.8750 0.3750 0.6250 (  2080 PWs)   bands (ev):

    -3.4369   0.5079   3.0204   4.4317

          k =-0.8750 0.3750-0.6250 (  2080 PWs)   bands (ev):

    -3.4369   0.5079   3.0204   4.4317

          k = 0.6250 0.8750 0.3750 (  2080 PWs)   bands (ev):

    -3.4369   0.5079   3.0204   4.4317

          k =-0.2500 0.5000-0.7500 (  2092 PWs)   bands (ev):

    -2.7684  -0.4599   2.8939   4.1960

          k = 0.2500-0.5000-0.7500 (  2092 PWs)   bands (ev):

    -2.7684  -0.4599   2.8939   4.1960

          k = 0.5000 0.7500 0.2500 (  2092 PWs)   bands (ev):

    -2.7684  -0.4599   2.8939   4.1960

          k =-0.2500 0.7500-1.0000 (  2085 PWs)   bands (ev):

    -3.0569   0.4007   2.9705   3.5829

          k = 1.0000 0.2500 0.7500 (  2085 PWs)   bands (ev):

    -3.0569   0.4007   2.9705   3.5829

          k =-1.0000 0.2500-0.7500 (  2085 PWs)   bands (ev):

    -3.0569   0.4007   2.9705   3.5829

          k =-0.1250 0.6250-0.8750 (  2092 PWs)   bands (ev):

    -2.1633  -0.5846   2.2566   3.3780

          k = 0.1250-0.6250-0.8750 (  2092 PWs)   bands (ev):

    -2.1633  -0.5846   2.2566   3.3780

          k = 0.8750 0.1250 0.6250 (  2092 PWs)   bands (ev):

    -2.1633  -0.5846   2.2566   3.3780

          k =-0.8750 0.1250-0.6250 (  2092 PWs)   bands (ev):

    -2.1633  -0.5846   2.2566   3.3780

          k = 0.6250 0.8750 0.1250 (  2092 PWs)   bands (ev):

    -2.1633  -0.5846   2.2566   3.3780

          k = 0.0000 0.5000-0.7500 (  2091 PWs)   bands (ev):

    -2.5201  -0.2166   2.0857   3.7623

          k = 0.0000-0.5000-0.7500 (  2091 PWs)   bands (ev):

    -2.5201  -0.2166   2.0857   3.7623

          k = 0.7500 0.0000 0.5000 (  2091 PWs)   bands (ev):

    -2.5201  -0.2166   2.0857   3.7623

          k =-1.0000-0.2500 0.0000 (  2098 PWs)   bands (ev):

    -1.4000  -1.4000   2.9132   2.9132

          k = 0.0000 1.0000-0.2500 (  2098 PWs)   bands (ev):

    -1.4000  -1.4000   2.9132   2.9132

          k =-1.0000-0.5000 0.0000 (  2120 PWs)   bands (ev):

    -1.3095  -1.3095   2.4648   2.4648

     highest occupied level (ev):     6.3970

!    total energy              =     -22.83859230 Ry
     estimated scf accuracy    <          7.0E-13 Ry

     The total energy is the sum of the following terms:
     one-electron contribution =       5.30780934 Ry
     hartree contribution      =       1.08523458 Ry
     xc contribution           =     -12.33187765 Ry
     ewald contribution        =     -16.89975857 Ry

     convergence has been achieved in   4 iterations

     Forces acting on atoms (cartesian axes, Ry/au):

     atom    1 type  1   force =     0.00000029    0.00000000    0.00000000
     atom    2 type  1   force =    -0.00000029    0.00000000    0.00000000

     Total force =     0.000000     Total SCF correction =     0.000000
     SCF correction compared to forces is large: reduce conv_thr to get better values


     Computing stress (Cartesian axis) and pressure

          total   stress  (Ry/bohr**3)                   (kbar)     P=       38.45
   0.00026139   0.00000000   0.00000000           38.45        0.00        0.00
   0.00000000   0.00026139  -0.00000000            0.00       38.45       -0.00
   0.00000000  -0.00000000   0.00026139            0.00       -0.00       38.45

     Energy error            =      6.4E-08 Ry
     Gradient error          =      2.9E-07 Ry/Bohr

     bfgs converged in   5 scf cycles and   4 bfgs steps
     (criteria: energy <  1.0E-07 Ry, force <  1.0E-04 Ry/Bohr)

     End of BFGS Geometry Optimization

     Final energy             =     -22.8385922964 Ry

     File ./tmp/si.bfgs deleted, as requested
Begin final coordinates

ATOMIC_POSITIONS (alat)
Si               0.0000000000        0.0000000000        0.0000000000    0   0   0
Si               0.2500000911        0.2500000000        0.2500000000
End final coordinates



     Writing all to output data dir ./tmp/si.save/ :
     XML data file, charge density, pseudopotentials, collected wavefunctions

     init_run     :      7.89s CPU     31.67s WALL (       1 calls)
     electrons    :     37.27s CPU     59.40s WALL (       5 calls)
     update_pot   :      0.09s CPU      0.10s WALL (       4 calls)
     forces       :      0.84s CPU      0.96s WALL (       5 calls)
     stress       :      4.34s CPU      4.63s WALL (       5 calls)

     Called by init_run:
     wfcinit      :      6.79s CPU     27.19s WALL (       1 calls)
     potinit      :      0.23s CPU      0.92s WALL (       1 calls)
     hinit0       :      0.41s CPU      1.66s WALL (       1 calls)

     Called by electrons:
     c_bands      :     29.61s CPU     50.02s WALL (      36 calls)
     sum_band     :      4.95s CPU      5.81s WALL (      36 calls)
     v_of_rho     :      0.86s CPU      1.21s WALL (      39 calls)
     newd         :      2.12s CPU      3.19s WALL (      39 calls)
     mix_rho      :      0.05s CPU      0.06s WALL (      36 calls)

     Called by c_bands:
     init_us_2    :      1.14s CPU      1.19s WALL (    7885 calls)
     cegterg      :     26.94s CPU     46.30s WALL (    3420 calls)

     Called by *egterg:
     cdiaghg      :      0.91s CPU      2.35s WALL (   14817 calls)
     h_psi        :     24.78s CPU     52.68s WALL (   15482 calls)
     s_psi        :      2.03s CPU      2.15s WALL (   15482 calls)
     g_psi        :      0.08s CPU      0.09s WALL (   11967 calls)

     Called by h_psi:
     h_psi:calbec :      3.38s CPU      7.36s WALL (   15482 calls)
     vloc_psi     :     19.30s CPU     43.06s WALL (   15482 calls)
                                        0.00s GPU  (   15482 calls)
     add_vuspsi   :      2.01s CPU      2.16s WALL (   15482 calls)

     General routines
     calbec       :      5.04s CPU      9.07s WALL (   26977 calls)
     fft          :      0.63s CPU      1.41s WALL (     628 calls)
     ffts         :      0.14s CPU      0.50s WALL (      75 calls)
     fftw         :     19.61s CPU     43.39s WALL (  112962 calls)
     interpolate  :      0.17s CPU      0.55s WALL (      39 calls)

     Parallel routines

     PWSCF        :     51.81s CPU   1m41.71s WALL


   This run was terminated on:  21:37:22  22Sep2026            

=------------------------------------------------------------------------------=
   JOB DONE.
=------------------------------------------------------------------------------=
