
     Program PWSCF v.7.5 starts on 22Sep2026 at 22:38: 4 

     This program is part of the open-source Quantum ESPRESSO suite
     for quantum simulation of materials; please cite
         "P. Giannozzi et al., J. Phys.:Condens. Matter 21 395502 (2009);
         "P. Giannozzi et al., J. Phys.:Condens. Matter 29 465901 (2017);
         "P. Giannozzi et al., J. Chem. Phys. 152 154105 (2020);
          URL http://www.quantum-espresso.org", 
     in publications or presentations arising from this work. More details at
     http://www.quantum-espresso.org/quote

     Parallel version (MPI), running on     4 processors

     MPI processes distributed on     1 nodes
     4590 MiB available memory on the printing compute node when the environment starts

     Reading input from scf.in

     Current dimensions of program PWSCF are:
     Max number of different atomic species (ntypx) = 10
     Max number of k-points (npk) =  40000
     Max angular momentum in pseudopotentials (lmaxx) =  4
     Message from routine setup:
     using ibrav=0 with symmetry is DISCOURAGED, use correct ibrav instead

     R & G space division:  proc/nbgrp/npool/nimage =       4
     Subspace diagonalization in iterative solution of the eigenvalue problem:
     a serial algorithm will be used


     Parallelization info
     --------------------
     sticks:   dense  smooth     PW     G-vecs:    dense   smooth      PW
     Min         321     118     40                 7616     1718     322
     Max         322     119     42                 7618     1721     323
     Sum        1285     475    163                30467     6879    1291

     Using Slab Decomposition



     bravais-lattice index     =            0
     lattice parameter (alat)  =       5.4022  a.u.
     unit-cell volume          =     111.4774 (a.u.)^3
     number of atoms/cell      =            1
     number of atomic types    =            1
     number of electrons       =         3.00
     number of Kohn-Sham states=            6
     kinetic-energy cutoff     =      60.0000  Ry
     charge density cutoff     =     640.0000  Ry
     scf convergence threshold =      1.0E-10
     mixing beta               =       0.7000
     number of iterations used =            8  plain     mixing
     Exchange-correlation= PBE
                           (   1   4   3   4   0   0   0)

     celldm(1)=   5.402158  celldm(2)=   0.000000  celldm(3)=   0.000000
     celldm(4)=   0.000000  celldm(5)=   0.000000  celldm(6)=   0.000000

     crystal axes: (cart. coord. in units of alat)
               a(1) = (  -0.707107   0.000000   0.707107 )  
               a(2) = (   0.000000   0.707107   0.707107 )  
               a(3) = (  -0.707107   0.707107   0.000000 )  

     reciprocal axes: (cart. coord. in units 2 pi/alat)
               b(1) = ( -0.707107 -0.707107  0.707107 )  
               b(2) = (  0.707107  0.707107  0.707107 )  
               b(3) = ( -0.707107  0.707107 -0.707107 )  


     PseudoPot. # 1 for Al read from file:
     ../../pseudo/Al.pbe-n-rrkjus_psl.1.0.0.UPF
     MD5 check sum: bbe9f3f15d9b3b5ab9a58e4859ebdbfe
     Pseudo is Ultrasoft + core correction, Zval =  3.0
     Generated using &quot;atomic&quot; code by A. Dal Corso  v.6.3
     Using radial grid of 1135 points,  6 beta functions with: 
                l(1) =   0
                l(2) =   0
                l(3) =   1
                l(4) =   1
                l(5) =   2
                l(6) =   2
     Q(r) pseudized with 0 coefficients 


     atomic species   valence    mass     pseudopotential
     Al                3.00    26.98154     Al( 1.00)

     48 Sym. Ops., with inversion, found



   Cartesian axes

     site n.     atom                  positions (alat units)
         1        Al     tau(   1) = (   0.0000000   0.0000000   0.0000000  )

     number of k points=    72  Marzari-Vanderbilt smearing, width (Ry)=  0.0100
                       cart. coord. in units 2pi/alat
        k(    1) = (   0.0000000   0.0000000   0.0000000), wk =   0.0011574
        k(    2) = (  -0.0589256   0.0589256  -0.0589256), wk =   0.0092593
        k(    3) = (  -0.1178511   0.1178511  -0.1178511), wk =   0.0092593
        k(    4) = (  -0.1767767   0.1767767  -0.1767767), wk =   0.0092593
        k(    5) = (  -0.2357023   0.2357023  -0.2357023), wk =   0.0092593
        k(    6) = (  -0.2946278   0.2946278  -0.2946278), wk =   0.0092593
        k(    7) = (   0.3535534  -0.3535534   0.3535534), wk =   0.0046296
        k(    8) = (   0.0000000   0.1178511   0.0000000), wk =   0.0069444
        k(    9) = (  -0.0589256   0.1767767  -0.0589256), wk =   0.0277778
        k(   10) = (  -0.1178511   0.2357023  -0.1178511), wk =   0.0277778
        k(   11) = (  -0.1767767   0.2946278  -0.1767767), wk =   0.0277778
        k(   12) = (  -0.2357023   0.3535534  -0.2357023), wk =   0.0277778
        k(   13) = (   0.4124790  -0.2946278   0.4124790), wk =   0.0277778
        k(   14) = (   0.3535534  -0.2357023   0.3535534), wk =   0.0277778
        k(   15) = (   0.2946278  -0.1767767   0.2946278), wk =   0.0277778
        k(   16) = (   0.2357023  -0.1178511   0.2357023), wk =   0.0277778
        k(   17) = (   0.1767767  -0.0589256   0.1767767), wk =   0.0277778
        k(   18) = (   0.1178511  -0.0000000   0.1178511), wk =   0.0138889
        k(   19) = (   0.0000000   0.2357023   0.0000000), wk =   0.0069444
        k(   20) = (  -0.0589256   0.2946278  -0.0589256), wk =   0.0277778
        k(   21) = (  -0.1178511   0.3535534  -0.1178511), wk =   0.0277778
        k(   22) = (  -0.1767767   0.4124790  -0.1767767), wk =   0.0277778
        k(   23) = (   0.4714045  -0.2357023   0.4714045), wk =   0.0277778
        k(   24) = (   0.4124790  -0.1767767   0.4124790), wk =   0.0277778
        k(   25) = (   0.3535534  -0.1178511   0.3535534), wk =   0.0277778
        k(   26) = (   0.2946278  -0.0589256   0.2946278), wk =   0.0277778
        k(   27) = (   0.2357023   0.0000000   0.2357023), wk =   0.0138889
        k(   28) = (   0.0000000   0.3535534   0.0000000), wk =   0.0069444
        k(   29) = (  -0.0589256   0.4124790  -0.0589256), wk =   0.0277778
        k(   30) = (  -0.1178511   0.4714045  -0.1178511), wk =   0.0277778
        k(   31) = (   0.5303301  -0.1767767   0.5303301), wk =   0.0277778
        k(   32) = (   0.4714045  -0.1178511   0.4714045), wk =   0.0277778
        k(   33) = (   0.4124790  -0.0589256   0.4124790), wk =   0.0277778
        k(   34) = (   0.3535534   0.0000000   0.3535534), wk =   0.0138889
        k(   35) = (   0.0000000   0.4714045   0.0000000), wk =   0.0069444
        k(   36) = (  -0.0589256   0.5303301  -0.0589256), wk =   0.0277778
        k(   37) = (   0.5892557  -0.1178511   0.5892557), wk =   0.0277778
        k(   38) = (   0.5303301  -0.0589256   0.5303301), wk =   0.0277778
        k(   39) = (   0.4714045  -0.0000000   0.4714045), wk =   0.0138889
        k(   40) = (   0.0000000   0.5892557   0.0000000), wk =   0.0069444
        k(   41) = (   0.6481812  -0.0589256   0.6481812), wk =   0.0277778
        k(   42) = (   0.5892557   0.0000000   0.5892557), wk =   0.0138889
        k(   43) = (   0.0000000  -0.7071068   0.0000000), wk =   0.0034722
        k(   44) = (  -0.1178511   0.2357023  -0.0000000), wk =   0.0277778
        k(   45) = (  -0.1767767   0.2946278  -0.0589256), wk =   0.0555556
        k(   46) = (  -0.2357023   0.3535534  -0.1178511), wk =   0.0555556
        k(   47) = (   0.4124790  -0.2946278   0.5303301), wk =   0.0555556
        k(   48) = (   0.3535534  -0.2357023   0.4714045), wk =   0.0277778
        k(   49) = (  -0.1178511   0.3535534   0.0000000), wk =   0.0277778
        k(   50) = (  -0.1767767   0.4124790  -0.0589256), wk =   0.0555556
        k(   51) = (   0.4714045  -0.2357023   0.5892557), wk =   0.0555556
        k(   52) = (   0.4124790  -0.1767767   0.5303301), wk =   0.0555556
        k(   53) = (   0.3535534  -0.1178511   0.4714045), wk =   0.0555556
        k(   54) = (   0.2946278  -0.0589256   0.4124790), wk =   0.0555556
        k(   55) = (   0.2357023   0.0000000   0.3535534), wk =   0.0277778
        k(   56) = (  -0.1178511   0.4714045   0.0000000), wk =   0.0277778
        k(   57) = (   0.5303301  -0.1767767   0.6481812), wk =   0.0555556
        k(   58) = (   0.4714045  -0.1178511   0.5892557), wk =   0.0555556
        k(   59) = (   0.4124790  -0.0589256   0.5303301), wk =   0.0555556
        k(   60) = (   0.3535534  -0.0000000   0.4714045), wk =   0.0277778
        k(   61) = (   0.5892557  -0.1178511   0.7071068), wk =   0.0277778
        k(   62) = (   0.5303301  -0.0589256   0.6481812), wk =   0.0555556
        k(   63) = (   0.4714045  -0.0000000   0.5892557), wk =   0.0277778
        k(   64) = (  -0.1178511  -0.7071068   0.0000000), wk =   0.0138889
        k(   65) = (   0.4714045  -0.2357023   0.7071068), wk =   0.0277778
        k(   66) = (   0.4124790  -0.1767767   0.6481812), wk =   0.0555556
        k(   67) = (   0.3535534  -0.1178511   0.5892557), wk =   0.0277778
        k(   68) = (   0.4714045  -0.1178511   0.7071068), wk =   0.0277778
        k(   69) = (   0.4124790  -0.0589256   0.6481812), wk =   0.0555556
        k(   70) = (   0.3535534   0.0000000   0.5892557), wk =   0.0277778
        k(   71) = (  -0.2357023  -0.7071068   0.0000000), wk =   0.0138889
        k(   72) = (  -0.3535534  -0.7071068   0.0000000), wk =   0.0069444

     Dense  grid:    30467 G-vectors     FFT dimensions: (  45,  45,  45)

     Smooth grid:     6879 G-vectors     FFT dimensions: (  27,  27,  27)

     Estimated max dynamical RAM per process >      31.70 MB

     Estimated total dynamical RAM >     126.79 MB

     Initial potential from superposition of free atoms

     starting charge       2.9977, renormalised to       3.0000
     Starting wfcs are    4 randomized atomic wfcs +    2 random wfcs

     total cpu time spent up to now is        0.6 secs

     per-process dynamical memory:    21.2 Mb

     Self-consistent Calculation

     iteration #  1     ecut=    60.00 Ry     beta= 0.70
     CG style diagonalization
     ethr =  1.00E-10,  avg # of iterations = 35.4

     total cpu time spent up to now is        6.6 secs

     total energy              =      -5.04025936 Ry
     estimated scf accuracy    <       0.00542298 Ry

     iteration #  2     ecut=    60.00 Ry     beta= 0.70
     CG style diagonalization
     ethr =  1.81E-04,  avg # of iterations =  3.0

     total cpu time spent up to now is        7.2 secs

     total energy              =      -5.04021780 Ry
     estimated scf accuracy    <       0.00039632 Ry

     iteration #  3     ecut=    60.00 Ry     beta= 0.70
     CG style diagonalization
     ethr =  1.32E-05,  avg # of iterations =  3.0

     total cpu time spent up to now is        7.8 secs

     total energy              =      -5.04022731 Ry
     estimated scf accuracy    <       0.00000043 Ry

     iteration #  4     ecut=    60.00 Ry     beta= 0.70
     CG style diagonalization
     ethr =  1.45E-08,  avg # of iterations =  3.7

     total cpu time spent up to now is        8.5 secs

     total energy              =      -5.04023153 Ry
     estimated scf accuracy    <       0.00000062 Ry

     iteration #  5     ecut=    60.00 Ry     beta= 0.70
     CG style diagonalization
     ethr =  1.45E-08,  avg # of iterations =  3.0

     total cpu time spent up to now is        9.1 secs

     total energy              =      -5.04023155 Ry
     estimated scf accuracy    <       0.00000002 Ry

     iteration #  6     ecut=    60.00 Ry     beta= 0.70
     CG style diagonalization
     ethr =  5.40E-10,  avg # of iterations =  3.1

     total cpu time spent up to now is        9.7 secs

     total energy              =      -5.04023155 Ry
     estimated scf accuracy    <       0.00000001 Ry

     iteration #  7     ecut=    60.00 Ry     beta= 0.70
     CG style diagonalization
     ethr =  4.04E-10,  avg # of iterations =  3.0

     total cpu time spent up to now is       10.3 secs

     total energy              =      -5.04023155 Ry
     estimated scf accuracy    <          1.4E-09 Ry

     iteration #  8     ecut=    60.00 Ry     beta= 0.70
     CG style diagonalization
     ethr =  4.78E-11,  avg # of iterations =  3.0

     total cpu time spent up to now is       10.9 secs

     End of self-consistent calculation

          k = 0.0000 0.0000 0.0000 (   893 PWs)   bands (ev):

    -3.2368  20.5014  20.5014  20.5014  21.9827  21.9827

          k =-0.0589 0.0589-0.0589 (   887 PWs)   bands (ev):

    -3.0481  17.8924  19.9322  19.9322  22.6638  22.8385

          k =-0.1179 0.1179-0.1179 (   887 PWs)   bands (ev):

    -2.4837  14.5332  19.2327  19.2327  22.4871  23.8909

          k =-0.1768 0.1768-0.1768 (   890 PWs)   bands (ev):

    -1.5479  11.3315  18.7916  18.7916  22.2568  22.6317

          k =-0.2357 0.2357-0.2357 (   878 PWs)   bands (ev):

    -0.2481   8.3885  18.6530  18.6530  21.2417  21.2417

          k =-0.2946 0.2946-0.2946 (   872 PWs)   bands (ev):

     1.4060   5.7421  18.8270  18.8270  20.1258  20.1258

          k = 0.3536-0.3536 0.3536 (   862 PWs)   bands (ev):

     3.3010   3.5155  19.2906  19.2906  19.3459  19.3459

          k = 0.0000 0.1179 0.0000 (   889 PWs)   bands (ev):

    -2.9853  18.7856  18.7856  19.0892  21.4116  24.0611

          k =-0.0589 0.1768-0.0589 (   894 PWs)   bands (ev):

    -2.5463  15.7380  17.9084  19.1927  21.7669  22.7000

          k =-0.1179 0.2357-0.1179 (   879 PWs)   bands (ev):

    -1.7346  12.5055  17.3383  18.8564  20.6564  23.5676

          k =-0.1768 0.2946-0.1768 (   875 PWs)   bands (ev):

    -0.5565   9.4853  17.0835  18.6533  19.1080  23.5152

          k =-0.2357 0.3536-0.2357 (   878 PWs)   bands (ev):

     0.9788   6.7442  17.1468  17.8269  18.7700  22.3302

          k = 0.4125-0.2946 0.4125 (   871 PWs)   bands (ev):

     2.8561   4.3164  16.8888  17.5297  19.1859  21.4308

          k = 0.3536-0.2357 0.3536 (   873 PWs)   bands (ev):

     2.1948   5.0874  16.2766  18.2325  19.9300  20.8394

          k = 0.2946-0.1768 0.2946 (   874 PWs)   bands (ev):

     0.4281   7.6226  15.9961  19.2482  20.5648  20.9903

          k = 0.2357-0.1179 0.2357 (   878 PWs)   bands (ev):

    -0.9894  10.4562  16.0507  20.4211  20.7429  22.3386

          k = 0.1768-0.0589 0.1768 (   893 PWs)   bands (ev):

    -2.0462  13.5352  16.4533  20.8320  22.1440  23.4005

          k = 0.1179-0.0000 0.1179 (   895 PWs)   bands (ev):

    -2.7342  16.5077  17.4532  20.9918  22.2584  23.2807

          k = 0.0000 0.2357 0.0000 (   877 PWs)   bands (ev):

    -2.2335  16.8992  16.8992  17.0644  20.1619  20.3718

          k =-0.0589 0.2946-0.0589 (   876 PWs)   bands (ev):

    -1.5479  13.9316  16.2103  17.5206  18.3403  20.5758

          k =-0.1179 0.3536-0.1179 (   874 PWs)   bands (ev):

    -0.4950  10.8930  15.8424  16.5730  17.4941  22.3885

          k =-0.1768 0.4125-0.1768 (   876 PWs)   bands (ev):

     0.9170   8.0814  15.1806  15.7953  17.5216  24.6392

          k = 0.4714-0.2357 0.4714 (   874 PWs)   bands (ev):

     2.6755   5.5601  14.1094  16.0694  17.8562  23.8545

          k = 0.4125-0.1768 0.4125 (   868 PWs)   bands (ev):

     3.3353   4.7878  13.3775  16.6653  18.5228  23.1702

          k = 0.3536-0.1179 0.3536 (   874 PWs)   bands (ev):

     1.4664   7.1901  12.9985  17.5823  19.5184  22.7878

          k = 0.2946-0.0589 0.2946 (   878 PWs)   bands (ev):

    -0.0635   9.8581  13.0108  18.8149  20.8202  22.6856

          k = 0.2357 0.0000 0.2357 (   887 PWs)   bands (ev):

    -1.2374  12.3769  13.7905  20.3400  22.3703  22.4558

          k = 0.0000 0.3536 0.0000 (   881 PWs)   bands (ev):

    -0.9895  15.3764  15.4077  15.4077  16.1501  18.8920

          k =-0.0589 0.4125-0.0589 (   867 PWs)   bands (ev):

    -0.0641  12.5500  14.2845  14.9286  16.1821  19.4021

          k =-0.1179 0.4714-0.1179 (   876 PWs)   bands (ev):

     1.2205   9.7260  12.7491  14.7718  16.3462  21.4217

          k = 0.5303-0.1768 0.5303 (   875 PWs)   bands (ev):

     2.8516   7.1378  11.5490  14.9368  16.6233  23.9768

          k = 0.4714-0.1179 0.4714 (   865 PWs)   bands (ev):

     4.6937   4.9611  10.7039  15.4239  17.2030  25.7995

          k = 0.4125-0.0589 0.4125 (   872 PWs)   bands (ev):

     2.8579   7.0574  10.2623  16.2338  18.1123  25.3255

          k = 0.3536 0.0000 0.3536 (   883 PWs)   bands (ev):

     1.2226   9.1311  10.6449  17.3658  19.3364  24.8664

          k = 0.0000 0.4714 0.0000 (   866 PWs)   bands (ev):

     0.7319  12.2712  14.1463  14.3398  14.3398  17.8446

          k =-0.0589 0.5303-0.0589 (   871 PWs)   bands (ev):

     1.8849  10.5800  11.6558  14.0740  15.2407  18.5611

          k = 0.5893-0.1179 0.5893 (   867 PWs)   bands (ev):

     3.3784   8.9228   9.3991  14.1300  15.6360  20.8104

          k = 0.5303-0.0589 0.5303 (   876 PWs)   bands (ev):

     5.1591   6.6517   8.3928  14.5080  16.1554  23.6081

          k = 0.4714-0.0000 0.4714 (   866 PWs)   bands (ev):

     4.5878   6.8158   8.2868  15.2089  16.9762  26.5527

          k = 0.0000 0.5893 0.0000 (   886 PWs)   bands (ev):

     2.8987   8.8001  13.4023  13.6995  13.6995  17.1749

          k = 0.6482-0.0589 0.6482 (   876 PWs)   bands (ev):

     4.2204   7.3873  11.1801  13.6470  14.7661  18.1249

          k = 0.5893 0.0000 0.5893 (   866 PWs)   bands (ev):

     5.4306   6.7673   8.8344  13.9163  15.3959  20.6021

          k = 0.0000-0.7071 0.0000 (   846 PWs)   bands (ev):

     4.9698   6.2932  13.1536  13.4862  13.4862  16.9454

          k =-0.1179 0.2357-0.0000 (   875 PWs)   bands (ev):

    -1.9838  14.4569  15.6290  19.8876  20.4749  21.7395

          k =-0.1768 0.2946-0.0589 (   873 PWs)   bands (ev):

    -1.0514  11.7042  14.7456  18.7175  20.0744  23.0299

          k =-0.2357 0.3536-0.1179 (   873 PWs)   bands (ev):

     0.2438   8.8286  14.5338  17.2324  20.0516  22.7703

          k = 0.4125-0.2946 0.5303 (   876 PWs)   bands (ev):

     1.8914   6.2072  14.6839  16.0710  20.2637  21.6620

          k = 0.3536-0.2357 0.4714 (   864 PWs)   bands (ev):

     3.7664   4.0051  15.0416  15.3764  20.6467  20.9692

          k =-0.1179 0.3536 0.0000 (   870 PWs)   bands (ev):

    -0.7421  12.8433  14.1032  16.4031  18.3847  20.4872

          k =-0.1768 0.4125-0.0589 (   869 PWs)   bands (ev):

     0.4272  10.3135  13.3873  14.7900  18.8402  22.0173

          k = 0.4714-0.2357 0.5893 (   880 PWs)   bands (ev):

     1.9502   7.6550  13.2144  13.6637  19.0642  23.9724

          k = 0.4125-0.1768 0.5303 (   871 PWs)   bands (ev):

     3.8070   5.2634  12.4426  13.8529  19.5174  23.3208

          k = 0.3536-0.1179 0.4714 (   866 PWs)   bands (ev):

     3.1568   6.0112  11.8489  14.5670  20.2680  22.7107

          k = 0.2946-0.0589 0.4125 (   875 PWs)   bands (ev):

     1.4050   8.4599  11.6425  15.6295  21.3024  22.3499

          k = 0.2357 0.0000 0.3536 (   876 PWs)   bands (ev):

    -0.0021  10.7548  12.2321  17.0205  21.7621  22.4988

          k =-0.1179 0.4714 0.0000 (   871 PWs)   bands (ev):

     0.9764  11.6849  12.4063  13.1341  17.2600  19.4998

          k = 0.5303-0.1768 0.6482 (   876 PWs)   bands (ev):

     2.3692   9.3716  11.0575  12.5722  17.9564  21.2451

          k = 0.4714-0.1179 0.5893 (   876 PWs)   bands (ev):

     4.0941   6.9446   9.9955  12.7800  18.4153  23.8326

          k = 0.4125-0.0589 0.5303 (   873 PWs)   bands (ev):

     4.7585   6.1241   9.3191  13.3846  19.0990  25.3378

          k = 0.3536-0.0000 0.4714 (   878 PWs)   bands (ev):

     2.9169   7.9727   9.4684  14.3402  20.0741  24.5346

          k = 0.5893-0.1179 0.7071 (   870 PWs)   bands (ev):

     3.1388   9.0267  10.9882  12.3796  16.5775  18.8709

          k = 0.5303-0.0589 0.6482 (   873 PWs)   bands (ev):

     4.6926   7.8371   8.9591  12.0940  17.5054  20.8401

          k = 0.4714-0.0000 0.5893 (   875 PWs)   bands (ev):

     6.1228   6.6413   7.6078  12.5469  18.1939  23.6649

          k =-0.1179-0.7071 0.0000 (   878 PWs)   bands (ev):

     5.2001   6.5356  10.7557  12.1493  16.3492  18.6559

          k = 0.4714-0.2357 0.7071 (   878 PWs)   bands (ev):

     1.7073   9.5954  11.0593  13.2656  20.7113  22.3429

          k = 0.4125-0.1768 0.6482 (   871 PWs)   bands (ev):

     3.3325   7.5226  10.6727  12.0918  21.5079  22.9525

          k = 0.3536-0.1179 0.5893 (   874 PWs)   bands (ev):

     5.1557   5.4262  10.8935  11.4714  21.9139  22.3922

          k = 0.4714-0.1179 0.7071 (   880 PWs)   bands (ev):

     3.8567   8.8998   9.6090  10.5822  20.0470  21.8387

          k = 0.4125-0.0589 0.6482 (   878 PWs)   bands (ev):

     5.6294   7.0445   8.7991  10.3552  21.0999  23.9489

          k = 0.3536 0.0000 0.5893 (   877 PWs)   bands (ev):

     5.0431   7.2784   8.7250  11.0060  21.9175  23.9280

          k =-0.2357-0.7071 0.0000 (   878 PWs)   bands (ev):

     5.8919   7.2429   8.6680  10.2462  19.8228  21.6530

          k =-0.3536-0.7071 0.0000 (   876 PWs)   bands (ev):

     7.0471   7.0471   8.0639   8.9976  23.7149  23.7149

     the Fermi energy is     7.7472 ev

!    total energy              =      -5.04023155 Ry
     estimated scf accuracy    <          1.6E-11 Ry
     smearing contrib. (-TS)   =       0.00009067 Ry
     internal energy E=F+TS    =      -5.04032223 Ry

     The total energy is F=E-TS. E is the sum of the following terms:
     one-electron contribution =       2.94518907 Ry
     hartree contribution      =       0.00596352 Ry
     xc contribution           =      -2.59032151 Ry
     ewald contribution        =      -5.40115331 Ry

     convergence has been achieved in   8 iterations

     Forces acting on atoms (cartesian axes, Ry/au):

     atom    1 type  1   force =     0.00000000    0.00000000    0.00000000

     Total force =     0.000000     Total SCF correction =     0.000000


     Computing stress (Cartesian axis) and pressure

          total   stress  (Ry/bohr**3)                   (kbar)     P=       -0.01
  -0.00000009   0.00000000   0.00000000           -0.01        0.00        0.00
   0.00000000  -0.00000009  -0.00000000            0.00       -0.01       -0.00
   0.00000000  -0.00000000  -0.00000009            0.00       -0.00       -0.01


     Writing all to output data dir ./tmp/al-fcc.save/ :
     XML data file, charge density, pseudopotentials, collected wavefunctions

     init_run     :      0.46s CPU      0.48s WALL (       1 calls)
     electrons    :      9.40s CPU     10.31s WALL (       1 calls)
     forces       :      0.08s CPU      0.08s WALL (       1 calls)
     stress       :      0.48s CPU      0.48s WALL (       1 calls)

     Called by init_run:
     wfcinit      :      0.13s CPU      0.14s WALL (       1 calls)
     potinit      :      0.07s CPU      0.07s WALL (       1 calls)
     hinit0       :      0.18s CPU      0.19s WALL (       1 calls)

     Called by electrons:
     c_bands      :      8.35s CPU      9.20s WALL (       8 calls)
     sum_band     :      0.72s CPU      0.77s WALL (       8 calls)
     v_of_rho     :      0.11s CPU      0.12s WALL (       9 calls)
     newd         :      0.24s CPU      0.25s WALL (       9 calls)
     mix_rho      :      0.01s CPU      0.01s WALL (       8 calls)

     Called by c_bands:
     init_us_2    :      0.11s CPU      0.11s WALL (    1368 calls)
     ccgdiagg     :      7.46s CPU      8.22s WALL (     576 calls)
     wfcrot       :      0.94s CPU      1.04s WALL (     576 calls)

     Called by *cgdiagg:
     h_psi        :      6.30s CPU      6.94s WALL (   22215 calls)
     s_psi        :      0.71s CPU      0.78s WALL (   43854 calls)

     Called by h_psi:
     h_psi:calbec :      0.62s CPU      0.68s WALL (   22215 calls)
     vloc_psi     :      5.19s CPU      5.73s WALL (   22215 calls)
                                        0.00s GPU  (   22215 calls)
     add_vuspsi   :      0.38s CPU      0.42s WALL (   22215 calls)
     hs_1psi      :      5.92s CPU      6.53s WALL (   21639 calls)
     s_1psi       :      0.86s CPU      0.95s WALL (   21639 calls)

     General routines
     calbec       :      1.20s CPU      1.31s WALL (   45654 calls)
     fft          :      0.14s CPU      0.14s WALL (     140 calls)
     ffts         :      0.04s CPU      0.04s WALL (      17 calls)
     fftw         :      5.14s CPU      5.66s WALL (   53646 calls)
     interpolate  :      0.05s CPU      0.05s WALL (       9 calls)

     Parallel routines

     PWSCF        :     10.57s CPU     11.52s WALL


   This run was terminated on:  22:38:16  22Sep2026            

=------------------------------------------------------------------------------=
   JOB DONE.
=------------------------------------------------------------------------------=
