
     Program PWSCF v.7.5 starts on 23Sep2026 at  0:12:10 

     This program is part of the open-source Quantum ESPRESSO suite
     for quantum simulation of materials; please cite
         "P. Giannozzi et al., J. Phys.:Condens. Matter 21 395502 (2009);
         "P. Giannozzi et al., J. Phys.:Condens. Matter 29 465901 (2017);
         "P. Giannozzi et al., J. Chem. Phys. 152 154105 (2020);
          URL http://www.quantum-espresso.org", 
     in publications or presentations arising from this work. More details at
     http://www.quantum-espresso.org/quote

     Parallel version (MPI), running on     8 processors

     MPI processes distributed on     1 nodes
     2091 MiB available memory on the printing compute node when the environment starts
 
     Reading input from mos2.scf.in

     Current dimensions of program PWSCF are:
     Max number of different atomic species (ntypx) = 10
     Max number of k-points (npk) =  40000
     Max angular momentum in pseudopotentials (lmaxx) =  4
     file Mo.pbe-spn-rrkjus_psl.1.0.0.UPF: wavefunction(s)  4S renormalized
     Message from routine setup:
     using ibrav=0 with symmetry is DISCOURAGED, use correct ibrav instead
 
     R & G space division:  proc/nbgrp/npool/nimage =       8
     Subspace diagonalization in iterative solution of the eigenvalue problem:
     a serial algorithm will be used

 
     Parallelization info
     --------------------
     sticks:   dense  smooth     PW     G-vecs:    dense   smooth      PW
     Min         150      74     22                30748    10854    1756
     Max         152      75     24                30756    10879    1762
     Sum        1205     595    187               246013    86907   14075
 
     Using Slab Decomposition
 


     bravais-lattice index     =            0
     lattice parameter (alat)  =       6.0746  a.u.
     unit-cell volume          =    1386.5910 (a.u.)^3
     number of atoms/cell      =            3
     number of atomic types    =            2
     number of electrons       =        26.00
     number of Kohn-Sham states=           16
     kinetic-energy cutoff     =      60.0000  Ry
     charge density cutoff     =     480.0000  Ry
     scf convergence threshold =      1.0E-12
     mixing beta               =       0.3000
     number of iterations used =            8  plain     mixing
     Exchange-correlation= PBE
                           (   1   4   3   4   0   0   0)

     celldm(1)=   6.074629  celldm(2)=   0.000000  celldm(3)=   0.000000
     celldm(4)=   0.000000  celldm(5)=   0.000000  celldm(6)=   0.000000

     crystal axes: (cart. coord. in units of alat)
               a(1) = (   1.000000   0.000000   0.000000 )  
               a(2) = (  -0.500000   0.857451   0.000000 )  
               a(3) = (   0.000000   0.000000   7.214062 )  

     reciprocal axes: (cart. coord. in units 2 pi/alat)
               b(1) = (  1.000000  0.583124  0.000000 )  
               b(2) = (  0.000000  1.166248  0.000000 )  
               b(3) = (  0.000000  0.000000  0.138618 )  


     PseudoPot. # 1 for Mo read from file:
     ../pseudo/Mo.pbe-spn-rrkjus_psl.1.0.0.UPF
     MD5 check sum: 03f09b12e49601d1a456a78ce8b2d514
     Pseudo is Ultrasoft + core correction, Zval = 14.0
     Generated using &quot;atomic&quot; code by A. Dal Corso  v.6.3
     Using radial grid of 1229 points,  6 beta functions with: 
                l(1) =   0
                l(2) =   0
                l(3) =   1
                l(4) =   1
                l(5) =   2
                l(6) =   2
     Q(r) pseudized with 0 coefficients 


     PseudoPot. # 2 for S  read from file:
     ../pseudo/S.pbe-n-rrkjus_psl.1.0.0.UPF
     MD5 check sum: 9d0fe39aa2a799ea84730884c9b010f4
     Pseudo is Ultrasoft + core correction, Zval =  6.0
     Generated using &quot;atomic&quot; code by A. Dal Corso  v.6.3
     Using radial grid of 1151 points,  6 beta functions with: 
                l(1) =   0
                l(2) =   0
                l(3) =   1
                l(4) =   1
                l(5) =   2
                l(6) =   2
     Q(r) pseudized with 0 coefficients 


     atomic species   valence    mass     pseudopotential
     Mo               14.00    95.95000     Mo( 1.00)
     S                 6.00    32.06000     S ( 1.00)

      4 Sym. Ops. (no inversion) found


                                    s                        frac. trans.

      isym =  1     identity                                     

 cryst.   s( 1) = (     1          0          0      )
                  (     0          1          0      )
                  (     0          0          1      )

 cart.    s( 1) = (  1.0000000  0.0000000  0.0000000 )
                  (  0.0000000  1.0000000  0.0000000 )
                  (  0.0000000  0.0000000  1.0000000 )


      isym =  2     180 deg rotation - cart. axis [0,1,0]        

 cryst.   s( 2) = (    -1          0          0      )
                  (     1          1          0      )
                  (     0          0         -1      )

 cart.    s( 2) = ( -1.0000000  0.0000000  0.0000000 )
                  (  0.0000000  1.0000000  0.0000000 )
                  (  0.0000000  0.0000000 -1.0000000 )


      isym =  3     inv. 180 deg rotation - cart. axis [0,0,1]   

 cryst.   s( 3) = (     1          0          0      )
                  (     0          1          0      )
                  (     0          0         -1      )

 cart.    s( 3) = (  1.0000000  0.0000000  0.0000000 )
                  (  0.0000000  1.0000000  0.0000000 )
                  (  0.0000000  0.0000000 -1.0000000 )


      isym =  4     inv. 180 deg rotation - cart. axis [1,0,0]   

 cryst.   s( 4) = (    -1          0          0      )
                  (     1          1          0      )
                  (     0          0          1      )

 cart.    s( 4) = ( -1.0000000  0.0000000  0.0000000 )
                  (  0.0000000  1.0000000  0.0000000 )
                  (  0.0000000  0.0000000  1.0000000 )


   Cartesian axes

     site n.     atom                  positions (alat units)
         1        Mo     tau(   1) = (  -0.0000000   0.0006390   3.6070309  )
         2        S      tau(   2) = (   0.5000000   0.2854975   4.0922097  )
         3        S      tau(   3) = (   0.5000000   0.2854975   3.1218521  )

   Crystallographic axes

     site n.     atom                  positions (cryst. coord.)
         1        Mo     tau(   1) = (  0.0003726  0.0007452  0.5000000  )
         2        S      tau(   2) = (  0.6664804  0.3329607  0.5672546  )
         3        S      tau(   3) = (  0.6664804  0.3329607  0.4327454  )

     number of k points=    43
                       cart. coord. in units 2pi/alat
        k(    1) = (   0.0000000   0.0000000   0.0000000), wk =   0.0138889
        k(    2) = (   0.0000000   0.0971873   0.0000000), wk =   0.0277778
        k(    3) = (   0.0000000   0.1943746   0.0000000), wk =   0.0277778
        k(    4) = (   0.0000000   0.2915619   0.0000000), wk =   0.0277778
        k(    5) = (   0.0000000   0.3887492   0.0000000), wk =   0.0277778
        k(    6) = (   0.0000000   0.4859365   0.0000000), wk =   0.0277778
        k(    7) = (   0.0000000  -0.5831238   0.0000000), wk =   0.0138889
        k(    8) = (   0.0833333   0.0485936   0.0000000), wk =   0.0555556
        k(    9) = (   0.0833333   0.1457809   0.0000000), wk =   0.0555556
        k(   10) = (   0.0833333   0.2429682   0.0000000), wk =   0.0555556
        k(   11) = (   0.0833333   0.3401555   0.0000000), wk =   0.0555556
        k(   12) = (   0.0833333   0.4373428   0.0000000), wk =   0.0555556
        k(   13) = (   0.0833333   0.5345301   0.0000000), wk =   0.0555556
        k(   14) = (   0.1666667   0.0971873   0.0000000), wk =   0.0555556
        k(   15) = (   0.1666667   0.1943746   0.0000000), wk =   0.0555556
        k(   16) = (   0.1666667   0.2915619   0.0000000), wk =   0.0555556
        k(   17) = (   0.1666667   0.3887492   0.0000000), wk =   0.0555556
        k(   18) = (   0.1666667   0.4859365   0.0000000), wk =   0.0555556
        k(   19) = (   0.1666667   0.5831238   0.0000000), wk =   0.0277778
        k(   20) = (   0.1666667  -0.0000000   0.0000000), wk =   0.0277778
        k(   21) = (   0.2500000   0.1457809   0.0000000), wk =   0.0555556
        k(   22) = (   0.2500000   0.2429682   0.0000000), wk =   0.0555556
        k(   23) = (   0.2500000   0.3401555   0.0000000), wk =   0.0555556
        k(   24) = (   0.2500000   0.4373428   0.0000000), wk =   0.0555556
        k(   25) = (   0.2500000   0.5345301   0.0000000), wk =   0.0555556
        k(   26) = (   0.2500000  -0.0485936   0.0000000), wk =   0.0555556
        k(   27) = (   0.3333333   0.1943746   0.0000000), wk =   0.0555556
        k(   28) = (   0.3333333   0.2915619   0.0000000), wk =   0.0555556
        k(   29) = (   0.3333333   0.3887492   0.0000000), wk =   0.0555556
        k(   30) = (   0.3333333   0.4859365   0.0000000), wk =   0.0555556
        k(   31) = (   0.3333333   0.5831238   0.0000000), wk =   0.0277778
        k(   32) = (   0.3333333  -0.0971873   0.0000000), wk =   0.0555556
        k(   33) = (   0.3333333  -0.0000000   0.0000000), wk =   0.0277778
        k(   34) = (   0.4166667   0.2429682   0.0000000), wk =   0.0555556
        k(   35) = (   0.4166667   0.3401555   0.0000000), wk =   0.0555556
        k(   36) = (   0.4166667   0.4373428   0.0000000), wk =   0.0555556
        k(   37) = (   0.4166667   0.5345301   0.0000000), wk =   0.0555556
        k(   38) = (   0.4166667  -0.1457809   0.0000000), wk =   0.0555556
        k(   39) = (   0.4166667  -0.0485936   0.0000000), wk =   0.0555556
        k(   40) = (  -0.5000000  -0.2915619   0.0000000), wk =   0.0277778
        k(   41) = (  -0.5000000  -0.1943746   0.0000000), wk =   0.0555556
        k(   42) = (  -0.5000000  -0.0971873   0.0000000), wk =   0.0555556
        k(   43) = (  -0.5000000   0.0000000   0.0000000), wk =   0.0277778

                       cryst. coord.
        k(    1) = (   0.0000000   0.0000000   0.0000000), wk =   0.0138889
        k(    2) = (   0.0000000   0.0833333   0.0000000), wk =   0.0277778
        k(    3) = (   0.0000000   0.1666667   0.0000000), wk =   0.0277778
        k(    4) = (   0.0000000   0.2500000   0.0000000), wk =   0.0277778
        k(    5) = (   0.0000000   0.3333333   0.0000000), wk =   0.0277778
        k(    6) = (   0.0000000   0.4166667   0.0000000), wk =   0.0277778
        k(    7) = (   0.0000000  -0.5000000   0.0000000), wk =   0.0138889
        k(    8) = (   0.0833333   0.0000000   0.0000000), wk =   0.0555556
        k(    9) = (   0.0833333   0.0833333   0.0000000), wk =   0.0555556
        k(   10) = (   0.0833333   0.1666667   0.0000000), wk =   0.0555556
        k(   11) = (   0.0833333   0.2500000   0.0000000), wk =   0.0555556
        k(   12) = (   0.0833333   0.3333333   0.0000000), wk =   0.0555556
        k(   13) = (   0.0833333   0.4166667   0.0000000), wk =   0.0555556
        k(   14) = (   0.1666667   0.0000000   0.0000000), wk =   0.0555556
        k(   15) = (   0.1666667   0.0833333   0.0000000), wk =   0.0555556
        k(   16) = (   0.1666667   0.1666667   0.0000000), wk =   0.0555556
        k(   17) = (   0.1666667   0.2500000   0.0000000), wk =   0.0555556
        k(   18) = (   0.1666667   0.3333333   0.0000000), wk =   0.0555556
        k(   19) = (   0.1666667   0.4166667   0.0000000), wk =   0.0277778
        k(   20) = (   0.1666667  -0.0833333   0.0000000), wk =   0.0277778
        k(   21) = (   0.2500000   0.0000000   0.0000000), wk =   0.0555556
        k(   22) = (   0.2500000   0.0833333   0.0000000), wk =   0.0555556
        k(   23) = (   0.2500000   0.1666667   0.0000000), wk =   0.0555556
        k(   24) = (   0.2500000   0.2500000   0.0000000), wk =   0.0555556
        k(   25) = (   0.2500000   0.3333333   0.0000000), wk =   0.0555556
        k(   26) = (   0.2500000  -0.1666667   0.0000000), wk =   0.0555556
        k(   27) = (   0.3333333   0.0000000   0.0000000), wk =   0.0555556
        k(   28) = (   0.3333333   0.0833333   0.0000000), wk =   0.0555556
        k(   29) = (   0.3333333   0.1666667   0.0000000), wk =   0.0555556
        k(   30) = (   0.3333333   0.2500000   0.0000000), wk =   0.0555556
        k(   31) = (   0.3333333   0.3333333   0.0000000), wk =   0.0277778
        k(   32) = (   0.3333333  -0.2500000   0.0000000), wk =   0.0555556
        k(   33) = (   0.3333333  -0.1666667   0.0000000), wk =   0.0277778
        k(   34) = (   0.4166667   0.0000000   0.0000000), wk =   0.0555556
        k(   35) = (   0.4166667   0.0833333   0.0000000), wk =   0.0555556
        k(   36) = (   0.4166667   0.1666667   0.0000000), wk =   0.0555556
        k(   37) = (   0.4166667   0.2500000   0.0000000), wk =   0.0555556
        k(   38) = (   0.4166667  -0.3333333   0.0000000), wk =   0.0555556
        k(   39) = (   0.4166667  -0.2500000   0.0000000), wk =   0.0555556
        k(   40) = (  -0.5000000  -0.0000000   0.0000000), wk =   0.0277778
        k(   41) = (  -0.5000000   0.0833333   0.0000000), wk =   0.0555556
        k(   42) = (  -0.5000000   0.1666667   0.0000000), wk =   0.0555556
        k(   43) = (  -0.5000000   0.2500000   0.0000000), wk =   0.0277778

     Dense  grid:   246013 G-vectors     FFT dimensions: (  45,  45, 320)

     Smooth grid:    86907 G-vectors     FFT dimensions: (  30,  30, 225)

     Dynamical RAM for                 wfc:       0.33 MB

     Dynamical RAM for     wfc (w. buffer):      14.61 MB

     Dynamical RAM for           str. fact:       0.94 MB

     Dynamical RAM for           local pot:       0.00 MB

     Dynamical RAM for          nlocal pot:       1.12 MB

     Dynamical RAM for                qrad:       3.52 MB

     Dynamical RAM for          rho,v,vnew:       3.26 MB

     Dynamical RAM for               rhoin:       1.09 MB

     Dynamical RAM for            rho*nmix:       7.51 MB

     Dynamical RAM for           G-vectors:       1.84 MB

     Dynamical RAM for          h,s,v(r/c):       0.01 MB

     Dynamical RAM for          <psi|beta>:       0.01 MB

     Dynamical RAM for      wfcinit/wfcrot:       0.67 MB

     Dynamical RAM for           addusdens:      88.22 MB

     Dynamical RAM for          addusforce:      89.40 MB

     Dynamical RAM for         addusstress:      94.32 MB

     Estimated static dynamical RAM per process >      30.87 MB

     Estimated max dynamical RAM per process >     132.70 MB

     Estimated total dynamical RAM >       1.04 GB

     The initial density is read from file :
     ./tmp/mos2.save/charge-density


     negative rho (up, down):  3.884E-04 0.000E+00
     Starting wfcs from file

     total cpu time spent up to now is        1.7 secs

     Self-consistent Calculation

     iteration #  1     ecut=    60.00 Ry     beta= 0.30
     CG style diagonalization

---- Real-time Memory Report at c_bands before calling an iterative solver
           165 MiB given to the printing process from OS
             0 MiB allocation reported by mallinfo(arena+hblkhd)
          1616 MiB available memory on the node where the printing process lives
------------------
     ethr =  1.00E-10,  avg # of iterations =  2.0

     Threshold (ethr) on eigenvalues was too large:
     Diagonalizing with lowered threshold

     CG style diagonalization

---- Real-time Memory Report at c_bands before calling an iterative solver
           185 MiB given to the printing process from OS
             0 MiB allocation reported by mallinfo(arena+hblkhd)
          1797 MiB available memory on the node where the printing process lives
------------------
     ethr =  1.00E-13,  avg # of iterations =  2.0

     negative rho (up, down):  3.884E-04 0.000E+00

     total cpu time spent up to now is       11.1 secs

     End of self-consistent calculation

          k = 0.0000 0.0000 0.0000 ( 10923 PWs)   bands (ev):

   -62.6034 -36.7351 -36.5539 -36.5388 -15.7400 -14.4362  -7.2622  -4.3814
    -4.2781  -3.4259  -3.2618  -3.1996  -1.6620   0.9931   1.0458   1.2299

     occupation numbers 
     1.0000   1.0000   1.0000   1.0000   1.0000   1.0000   1.0000   1.0000
     1.0000   1.0000   1.0000   1.0000   1.0000   0.0000   0.0000   0.0000

          k = 0.0000 0.0972 0.0000 ( 10955 PWs)   bands (ev):

   -62.6011 -36.7303 -36.5635 -36.5597 -15.6388 -14.3941  -7.1467  -4.5089
    -4.2755  -3.9252  -3.4263  -2.8518  -1.7153   0.9051   1.0470   1.1146

     occupation numbers 
     1.0000   1.0000   1.0000   1.0000   1.0000   1.0000   1.0000   1.0000
     1.0000   1.0000   1.0000   1.0000   1.0000   0.0000   0.0000   0.0000

          k = 0.0000 0.1944 0.0000 ( 10925 PWs)   bands (ev):

   -62.5944 -36.7171 -36.6303 -36.5754 -15.3512 -14.2748  -6.8566  -5.0350
    -4.5640  -3.9805  -3.8133  -2.7553  -1.9503   0.6260   0.8395   0.8475

     occupation numbers 
     1.0000   1.0000   1.0000   1.0000   1.0000   1.0000   1.0000   1.0000
     1.0000   1.0000   1.0000   1.0000   1.0000   0.0000   0.0000   0.0000

          k = 0.0000 0.2916 0.0000 ( 10945 PWs)   bands (ev):

   -62.5855 -36.7204 -36.6990 -36.5968 -14.9265 -14.0992  -6.6516  -5.4750
    -5.2160  -4.2467  -3.5679  -2.9902  -2.3781   0.4922   0.5843   1.1574

     occupation numbers 
     1.0000   1.0000   1.0000   1.0000   1.0000   1.0000   1.0000   1.0000
     1.0000   1.0000   1.0000   1.0000   1.0000   0.0000   0.0000   0.0000

          k = 0.0000 0.3887 0.0000 ( 10925 PWs)   bands (ev):

   -62.5764 -36.8092 -36.6809 -36.6181 -14.4519 -13.9061  -6.8920  -5.8233
    -5.5577  -4.6113  -3.2755  -3.1567  -2.6270   0.4475   0.6358   1.6438

     occupation numbers 
     1.0000   1.0000   1.0000   1.0000   1.0000   1.0000   1.0000   1.0000
     1.0000   1.0000   1.0000   1.0000   1.0000   0.0000   0.0000   0.0000

          k = 0.0000 0.4859 0.0000 ( 10857 PWs)   bands (ev):

   -62.5697 -36.8734 -36.6676 -36.6336 -14.0593 -13.7507  -7.2505  -6.2694
    -5.6517  -4.8479  -3.4531  -2.8727  -2.4593   0.4538   0.8746   2.0053

     occupation numbers 
     1.0000   1.0000   1.0000   1.0000   1.0000   1.0000   1.0000   1.0000
     1.0000   1.0000   1.0000   1.0000   1.0000   0.0000   0.0000   0.0000

          k = 0.0000-0.5831 0.0000 ( 10848 PWs)   bands (ev):

   -62.5673 -36.8968 -36.6627 -36.6393 -13.9026 -13.6903  -7.4017  -6.4347
    -5.7276  -4.9295  -3.5091  -2.7763  -2.2928   0.4864   1.0075   2.1231

     occupation numbers 
     1.0000   1.0000   1.0000   1.0000   1.0000   1.0000   1.0000   1.0000
     1.0000   1.0000   1.0000   1.0000   1.0000   0.0000   0.0000   0.0000

          k = 0.0833 0.0486 0.0000 ( 10932 PWs)   bands (ev):

   -62.6012 -36.7304 -36.5754 -36.5467 -15.6406 -14.3959  -7.1484  -4.5806
    -4.1956  -3.9478  -3.3741  -2.8772  -1.7201   0.8798   0.9812   1.1855

     occupation numbers 
     1.0000   1.0000   1.0000   1.0000   1.0000   1.0000   1.0000   1.0000
     1.0000   1.0000   1.0000   1.0000   1.0000   0.0000   0.0000   0.0000

          k = 0.0833 0.1458 0.0000 ( 10937 PWs)   bands (ev):

   -62.5967 -36.7214 -36.6127 -36.5659 -15.4460 -14.3152  -6.9416  -4.9044
    -4.3636  -4.0522  -3.7702  -2.6721  -1.8667   0.6921   0.7453   0.9516

     occupation numbers 
     1.0000   1.0000   1.0000   1.0000   1.0000   1.0000   1.0000   1.0000
     1.0000   1.0000   1.0000   1.0000   1.0000   0.0000   0.0000   0.0000

          k = 0.0833 0.2430 0.0000 ( 10919 PWs)   bands (ev):

   -62.5888 -36.7058 -36.6850 -36.5905 -15.0889 -14.1668  -6.6629  -5.3597
    -4.8927  -4.3198  -3.7575  -2.6957  -2.2135   0.4087   0.7279   0.8187

     occupation numbers 
     1.0000   1.0000   1.0000   1.0000   1.0000   1.0000   1.0000   1.0000
     1.0000   1.0000   1.0000   1.0000   1.0000   0.0000   0.0000   0.0000

          k = 0.0833 0.3402 0.0000 ( 10919 PWs)   bands (ev):

   -62.5798 -36.7696 -36.6877 -36.6168 -14.6359 -13.9797  -6.6919  -5.5426
    -5.5227  -4.6781  -3.5031  -2.9779  -2.5299   0.3238   0.6915   1.2148

     occupation numbers 
     1.0000   1.0000   1.0000   1.0000   1.0000   1.0000   1.0000   1.0000
     1.0000   1.0000   1.0000   1.0000   1.0000   0.0000   0.0000   0.0000

          k = 0.0833 0.4373 0.0000 ( 10867 PWs)   bands (ev):

   -62.5719 -36.8422 -36.6720 -36.6390 -14.1947 -13.8003  -7.0225  -6.1330
    -5.5471  -4.8487  -3.3705  -3.2886  -2.4484   0.4382   0.7968   1.6960

     occupation numbers 
     1.0000   1.0000   1.0000   1.0000   1.0000   1.0000   1.0000   1.0000
     1.0000   1.0000   1.0000   1.0000   1.0000   0.0000   0.0000   0.0000

          k = 0.0833 0.5345 0.0000 ( 10851 PWs)   bands (ev):

   -62.5674 -36.8839 -36.6629 -36.6517 -13.9112 -13.6877  -7.2684  -6.4764
    -5.6709  -4.9122  -3.4751  -3.2528  -2.2014   0.5058   1.0090   2.0889

     occupation numbers 
     1.0000   1.0000   1.0000   1.0000   1.0000   1.0000   1.0000   1.0000
     1.0000   1.0000   1.0000   1.0000   1.0000   0.0000   0.0000   0.0000

          k = 0.1667 0.0972 0.0000 ( 10936 PWs)   bands (ev):

   -62.5949 -36.7176 -36.6395 -36.5624 -15.3579 -14.2817  -6.8616  -5.0865
    -4.5910  -3.9081  -3.7465  -2.7762  -1.9688   0.5792   0.8365   0.9172

     occupation numbers 
     1.0000   1.0000   1.0000   1.0000   1.0000   1.0000   1.0000   1.0000
     1.0000   1.0000   1.0000   1.0000   1.0000   0.0000   0.0000   0.0000

          k = 0.1667 0.1944 0.0000 ( 10931 PWs)   bands (ev):

   -62.5892 -36.7062 -36.6896 -36.5832 -15.0938 -14.1723  -6.6647  -5.3870
    -4.9189  -4.2727  -3.7192  -2.6987  -2.2282   0.4017   0.7562   0.8129

     occupation numbers 
     1.0000   1.0000   1.0000   1.0000   1.0000   1.0000   1.0000   1.0000
     1.0000   1.0000   1.0000   1.0000   1.0000   0.0000   0.0000   0.0000

          k = 0.1667 0.2916 0.0000 ( 10908 PWs)   bands (ev):

   -62.5813 -36.7522 -36.6905 -36.6168 -14.7058 -14.0103  -6.5919  -5.5139
    -5.3472  -4.8578  -3.6795  -2.7327  -2.4863   0.2361   0.7533   0.9197

     occupation numbers 
     1.0000   1.0000   1.0000   1.0000   1.0000   1.0000   1.0000   1.0000
     1.0000   1.0000   1.0000   1.0000   1.0000   0.0000   0.0000   0.0000

          k = 0.1667 0.3887 0.0000 ( 10879 PWs)   bands (ev):

   -62.5734 -36.8113 -36.6748 -36.6533 -14.2774 -13.8305  -6.7771  -6.0293
    -5.4042  -4.9705  -3.9368  -3.0239  -2.4613   0.3784   0.8135   1.2548

     occupation numbers 
     1.0000   1.0000   1.0000   1.0000   1.0000   1.0000   1.0000   1.0000
     1.0000   1.0000   1.0000   1.0000   1.0000   0.0000   0.0000   0.0000

          k = 0.1667 0.4859 0.0000 ( 10843 PWs)   bands (ev):

   -62.5676 -36.8531 -36.6809 -36.6633 -13.9296 -13.6844  -6.9581  -6.5491
    -5.4959  -4.9022  -4.0775  -3.3729  -2.2066   0.4789   1.0496   1.6126

     occupation numbers 
     1.0000   1.0000   1.0000   1.0000   1.0000   1.0000   1.0000   1.0000
     1.0000   1.0000   1.0000   1.0000   1.0000   0.0000   0.0000   0.0000

          k = 0.1667 0.5831 0.0000 ( 10838 PWs)   bands (ev):

   -62.5655 -36.8682 -36.6912 -36.6591 -13.7932 -13.6272  -7.0198  -6.7382
    -5.6156  -4.8413  -4.0821  -3.5365  -2.0223   0.3814   1.3003   1.7780

     occupation numbers 
     1.0000   1.0000   1.0000   1.0000   1.0000   1.0000   1.0000   1.0000
     1.0000   1.0000   1.0000   1.0000   1.0000   0.0000   0.0000   0.0000

          k = 0.1667-0.0000 0.0000 ( 10955 PWs)   bands (ev):

   -62.5970 -36.7218 -36.6192 -36.5566 -15.4511 -14.3201  -6.9459  -4.9440
    -4.3725  -3.9956  -3.7421  -2.6823  -1.8765   0.6666   0.7638   0.9813

     occupation numbers 
     1.0000   1.0000   1.0000   1.0000   1.0000   1.0000   1.0000   1.0000
     1.0000   1.0000   1.0000   1.0000   1.0000   0.0000   0.0000   0.0000

          k = 0.2500 0.1458 0.0000 ( 10916 PWs)   bands (ev):

   -62.5862 -36.7271 -36.7002 -36.5826 -14.9405 -14.1144  -6.6550  -5.5216
    -5.2382  -4.1655  -3.4985  -3.0064  -2.4057   0.4662   0.6466   1.1639

     occupation numbers 
     1.0000   1.0000   1.0000   1.0000   1.0000   1.0000   1.0000   1.0000
     1.0000   1.0000   1.0000   1.0000   1.0000   0.0000   0.0000   0.0000

          k = 0.2500 0.2430 0.0000 ( 10917 PWs)   bands (ev):

   -62.5805 -36.7748 -36.6887 -36.6051 -14.6480 -13.9939  -6.6952  -5.5635
    -5.5609  -4.6175  -3.4439  -2.9782  -2.5529   0.3379   0.7090   1.2092

     occupation numbers 
     1.0000   1.0000   1.0000   1.0000   1.0000   1.0000   1.0000   1.0000
     1.0000   1.0000   1.0000   1.0000   1.0000   0.0000   0.0000   0.0000

          k = 0.2500 0.3402 0.0000 ( 10861 PWs)   bands (ev):

   -62.5738 -36.8141 -36.6754 -36.6468 -14.2846 -13.8394  -6.7816  -6.0292
    -5.4269  -4.9490  -3.9034  -3.0218  -2.4696   0.3811   0.8204   1.2553

     occupation numbers 
     1.0000   1.0000   1.0000   1.0000   1.0000   1.0000   1.0000   1.0000
     1.0000   1.0000   1.0000   1.0000   1.0000   0.0000   0.0000   0.0000

          k = 0.2500 0.4373 0.0000 ( 10865 PWs)   bands (ev):

   -62.5681 -36.8346 -36.6964 -36.6639 -13.9437 -13.6888  -6.7756  -6.5766
    -5.2998  -4.8998  -4.5781  -3.3055  -2.2410   0.4471   1.0794   1.3793

     occupation numbers 
     1.0000   1.0000   1.0000   1.0000   1.0000   1.0000   1.0000   1.0000
     1.0000   1.0000   1.0000   1.0000   1.0000   0.0000   0.0000   0.0000

          k = 0.2500 0.5345 0.0000 ( 10831 PWs)   bands (ev):

   -62.5647 -36.8371 -36.7342 -36.6573 -13.7337 -13.5930  -6.9140  -6.6372
    -5.4838  -4.9107  -4.7158  -3.6245  -1.9211   0.1614   1.4528   1.5492

     occupation numbers 
     1.0000   1.0000   1.0000   1.0000   1.0000   1.0000   1.0000   1.0000
     1.0000   1.0000   1.0000   1.0000   1.0000   0.0000   0.0000   0.0000

          k = 0.2500-0.0486 0.0000 ( 10937 PWs)   bands (ev):

   -62.5896 -36.7068 -36.6906 -36.5785 -15.1014 -14.1794  -6.6687  -5.3888
    -4.9058  -4.2707  -3.7085  -2.7048  -2.2271   0.4057   0.7415   0.8597

     occupation numbers 
     1.0000   1.0000   1.0000   1.0000   1.0000   1.0000   1.0000   1.0000
     1.0000   1.0000   1.0000   1.0000   1.0000   0.0000   0.0000   0.0000

          k = 0.3333 0.1944 0.0000 ( 10898 PWs)   bands (ev):

   -62.5776 -36.8136 -36.6826 -36.6026 -14.4741 -13.9314  -6.8968  -5.8303
    -5.5987  -4.5190  -3.2959  -3.0838  -2.6565   0.4842   0.6230   1.6566

     occupation numbers 
     1.0000   1.0000   1.0000   1.0000   1.0000   1.0000   1.0000   1.0000
     1.0000   1.0000   1.0000   1.0000   1.0000   0.0000   0.0000   0.0000

          k = 0.3333 0.2916 0.0000 ( 10868 PWs)   bands (ev):

   -62.5730 -36.8465 -36.6736 -36.6247 -14.2149 -13.8249  -7.0345  -6.1302
    -5.5776  -4.7820  -3.3068  -3.2964  -2.4716   0.4462   0.8058   1.6983

     occupation numbers 
     1.0000   1.0000   1.0000   1.0000   1.0000   1.0000   1.0000   1.0000
     1.0000   1.0000   1.0000   1.0000   1.0000   0.0000   0.0000   0.0000

          k = 0.3333 0.3887 0.0000 ( 10864 PWs)   bands (ev):

   -62.5685 -36.8565 -36.6702 -36.6645 -13.9452 -13.7035  -6.9699  -6.5351
    -5.5157  -4.8677  -4.0267  -3.3788  -2.2266   0.4750   1.0498   1.6196

     occupation numbers 
     1.0000   1.0000   1.0000   1.0000   1.0000   1.0000   1.0000   1.0000
     1.0000   1.0000   1.0000   1.0000   1.0000   0.0000   0.0000   0.0000

          k = 0.3333 0.4859 0.0000 ( 10828 PWs)   bands (ev):

   -62.5651 -36.8394 -36.7283 -36.6579 -13.7423 -13.6030  -6.9035  -6.6412
    -5.4987  -4.8813  -4.6991  -3.6323  -1.9290   0.1558   1.4560   1.5377

     occupation numbers 
     1.0000   1.0000   1.0000   1.0000   1.0000   1.0000   1.0000   1.0000
     1.0000   1.0000   1.0000   1.0000   1.0000   0.0000   0.0000   0.0000

          k = 0.3333 0.5831 0.0000 ( 10804 PWs)   bands (ev):

   -62.5638 -36.8121 -36.7707 -36.6554 -13.6672 -13.5632  -7.0478  -6.2408
    -5.7312  -5.2478  -4.5432  -3.8174  -1.7274  -0.0959   1.3725   1.7911

     occupation numbers 
     1.0000   1.0000   1.0000   1.0000   1.0000   1.0000   1.0000   1.0000
     1.0000   1.0000   1.0000   1.0000   1.0000   0.0000   0.0000   0.0000

          k = 0.3333-0.0972 0.0000 ( 10914 PWs)   bands (ev):

   -62.5809 -36.7730 -36.6893 -36.6034 -14.6567 -14.0015  -6.6888  -5.5560
    -5.5463  -4.6125  -3.4752  -2.9903  -2.5231   0.3489   0.6669   1.2621

     occupation numbers 
     1.0000   1.0000   1.0000   1.0000   1.0000   1.0000   1.0000   1.0000
     1.0000   1.0000   1.0000   1.0000   1.0000   0.0000   0.0000   0.0000

          k = 0.3333-0.0000 0.0000 ( 10921 PWs)   bands (ev):

   -62.5821 -36.7522 -36.6917 -36.6096 -14.7220 -14.0258  -6.5868  -5.5156
    -5.3290  -4.8405  -3.6948  -2.7437  -2.4614   0.2467   0.7151   0.9782

     occupation numbers 
     1.0000   1.0000   1.0000   1.0000   1.0000   1.0000   1.0000   1.0000
     1.0000   1.0000   1.0000   1.0000   1.0000   0.0000   0.0000   0.0000

          k = 0.4167 0.2430 0.0000 ( 10858 PWs)   bands (ev):

   -62.5712 -36.8763 -36.6697 -36.6171 -14.0882 -13.7849  -7.2632  -6.2601
    -5.6732  -4.7488  -3.4826  -2.7890  -2.4999   0.4592   0.8620   2.0273

     occupation numbers 
     1.0000   1.0000   1.0000   1.0000   1.0000   1.0000   1.0000   1.0000
     1.0000   1.0000   1.0000   1.0000   1.0000   0.0000   0.0000   0.0000

          k = 0.4167 0.3402 0.0000 ( 10831 PWs)   bands (ev):

   -62.5687 -36.8867 -36.6649 -36.6362 -13.9384 -13.7206  -7.2846  -6.4585
    -5.6839  -4.8342  -3.4981  -3.1880  -2.2298   0.4975   1.0008   2.1010

     occupation numbers 
     1.0000   1.0000   1.0000   1.0000   1.0000   1.0000   1.0000   1.0000
     1.0000   1.0000   1.0000   1.0000   1.0000   0.0000   0.0000   0.0000

          k = 0.4167 0.4373 0.0000 ( 10839 PWs)   bands (ev):

   -62.5666 -36.8704 -36.6791 -36.6607 -13.8162 -13.6538  -7.0268  -6.7141
    -5.6269  -4.7911  -4.0387  -3.5577  -2.0353   0.3641   1.2722   1.7925

     occupation numbers 
     1.0000   1.0000   1.0000   1.0000   1.0000   1.0000   1.0000   1.0000
     1.0000   1.0000   1.0000   1.0000   1.0000   0.0000   0.0000   0.0000

          k = 0.4167 0.5345 0.0000 ( 10827 PWs)   bands (ev):

   -62.5654 -36.8378 -36.7273 -36.6583 -13.7499 -13.6099  -6.8948  -6.6228
    -5.4988  -4.8992  -4.6860  -3.6437  -1.9078   0.1312   1.4612   1.5108

     occupation numbers 
     1.0000   1.0000   1.0000   1.0000   1.0000   1.0000   1.0000   1.0000
     1.0000   1.0000   1.0000   1.0000   1.0000   0.0000   0.0000   0.0000

          k = 0.4167-0.1458 0.0000 ( 10874 PWs)   bands (ev):

   -62.5733 -36.8443 -36.6740 -36.6243 -14.2224 -13.8309  -7.0206  -6.1213
    -5.5764  -4.7706  -3.3443  -3.3119  -2.4308   0.4540   0.7522   1.7457

     occupation numbers 
     1.0000   1.0000   1.0000   1.0000   1.0000   1.0000   1.0000   1.0000
     1.0000   1.0000   1.0000   1.0000   1.0000   0.0000   0.0000   0.0000

          k = 0.4167-0.0486 0.0000 ( 10891 PWs)   bands (ev):

   -62.5746 -36.8108 -36.6764 -36.6439 -14.3008 -13.8537  -6.7588  -6.0084
    -5.4200  -4.9337  -3.9529  -3.0394  -2.4224   0.3885   0.7458   1.3044

     occupation numbers 
     1.0000   1.0000   1.0000   1.0000   1.0000   1.0000   1.0000   1.0000
     1.0000   1.0000   1.0000   1.0000   1.0000   0.0000   0.0000   0.0000

          k =-0.5000-0.2916 0.0000 ( 10824 PWs)   bands (ev):

   -62.5688 -36.8990 -36.6650 -36.6224 -13.9342 -13.7282  -7.4184  -6.4184
    -5.7385  -4.8281  -3.5430  -2.6858  -2.3410   0.4758   0.9915   2.1504

     occupation numbers 
     1.0000   1.0000   1.0000   1.0000   1.0000   1.0000   1.0000   1.0000
     1.0000   1.0000   1.0000   1.0000   1.0000   0.0000   0.0000   0.0000

          k =-0.5000-0.1944 0.0000 ( 10819 PWs)   bands (ev):

   -62.5688 -36.8858 -36.6650 -36.6362 -13.9415 -13.7229  -7.2778  -6.4555
    -5.6849  -4.8279  -3.5057  -3.2031  -2.2090   0.4916   0.9794   2.1368

     occupation numbers 
     1.0000   1.0000   1.0000   1.0000   1.0000   1.0000   1.0000   1.0000
     1.0000   1.0000   1.0000   1.0000   1.0000   0.0000   0.0000   0.0000

          k =-0.5000-0.0972 0.0000 ( 10834 PWs)   bands (ev):

   -62.5688 -36.8536 -36.6696 -36.6651 -13.9559 -13.7123  -6.9472  -6.5233
    -5.5149  -4.8526  -4.0601  -3.3955  -2.1866   0.4560   0.9972   1.6455

     occupation numbers 
     1.0000   1.0000   1.0000   1.0000   1.0000   1.0000   1.0000   1.0000
     1.0000   1.0000   1.0000   1.0000   1.0000   0.0000   0.0000   0.0000

          k =-0.5000 0.0000 0.0000 ( 10847 PWs)   bands (ev):

   -62.5689 -36.8320 -36.6918 -36.6651 -13.9630 -13.7070  -6.7466  -6.5545
    -5.2948  -4.8745  -4.6155  -3.3241  -2.2009   0.4186   1.0178   1.4045

     occupation numbers 
     1.0000   1.0000   1.0000   1.0000   1.0000   1.0000   1.0000   1.0000
     1.0000   1.0000   1.0000   1.0000   1.0000   0.0000   0.0000   0.0000

     highest occupied, lowest unoccupied level (ev):    -1.6620   -0.0959

!    total energy              =    -181.57943578 Ry
     estimated scf accuracy    <          2.1E-14 Ry

     The total energy is the sum of the following terms:
     one-electron contribution =   -1368.48722350 Ry
     hartree contribution      =     683.75604500 Ry
     xc contribution           =     -29.67267975 Ry
     ewald contribution        =     532.82442247 Ry

     convergence has been achieved in   1 iterations

     negative rho (up, down):  3.884E-04 0.000E+00

     Forces acting on atoms (cartesian axes, Ry/au):

     atom    1 type  1   force =     0.00000000   -0.00000090    0.00000000
     atom    2 type  2   force =     0.00000000    0.00000045    0.00000138
     atom    3 type  2   force =     0.00000000    0.00000045   -0.00000138
     The non-local contrib.  to forces
     atom    1 type  1   force =     0.00000000    0.00017115    0.00000000
     atom    2 type  2   force =     0.00000000    0.00038994   -0.27488340
     atom    3 type  2   force =     0.00000000    0.00038994    0.27488340
     The ionic contribution  to forces
     atom    1 type  1   force =     0.00000000    0.09209921    0.00000000
     atom    2 type  2   force =    -0.00000000   -0.04604960   36.82731986
     atom    3 type  2   force =    -0.00000000   -0.04604960  -36.82731986
     The local contribution  to forces
     atom    1 type  1   force =     0.00000000   -0.09233030    0.00000000
     atom    2 type  2   force =    -0.00000000    0.04561891  -36.55503444
     atom    3 type  2   force =    -0.00000000    0.04561891   36.55503444
     The core correction contribution to forces
     atom    1 type  1   force =    -0.00000000    0.00005930   -0.00000000
     atom    2 type  2   force =     0.00000000    0.00004160    0.00259917
     atom    3 type  2   force =     0.00000000    0.00004160   -0.00259917
     The Hubbard contrib.    to forces
     atom    1 type  1   force =     0.00000000    0.00000000    0.00000000
     atom    2 type  2   force =     0.00000000    0.00000000    0.00000000
     atom    3 type  2   force =     0.00000000    0.00000000    0.00000000
     The SCF correction term to forces
     atom    1 type  1   force =     0.00000000    0.00000010   -0.00000000
     atom    2 type  2   force =     0.00000000   -0.00000005    0.00000020
     atom    3 type  2   force =     0.00000000   -0.00000005   -0.00000020

     Total force =     0.000002     Total SCF correction =     0.000000
     SCF correction compared to forces is large: reduce conv_thr to get better values


     Computing stress (Cartesian axis) and pressure


     negative rho (up, down):  3.884E-04 0.000E+00
          total   stress  (Ry/bohr**3)                   (kbar)     P=       -2.55
  -0.00003731   0.00000000   0.00000000           -5.49        0.00        0.00
   0.00000000  -0.00000950   0.00000000            0.00       -1.40        0.00
   0.00000000   0.00000000  -0.00000524            0.00        0.00       -0.77

     kinetic stress (kbar)   4811.32     -0.00      0.00
                               -0.00   4819.23      0.00
                                0.00      0.00   4868.49

     local   stress (kbar)-144255.95      0.00      0.00
                                0.00-144302.24      0.00
                                0.00      0.00 141232.61

     nonloc. stress (kbar)   2206.25     -0.00      0.00
                               -0.00   2205.20      0.00
                                0.00      0.00   2194.43

     hartree stress (kbar)  70743.79      0.00      0.00
                                0.00  70759.09      0.00
                                0.00      0.00 -68962.39

     exc-cor stress (kbar)   -408.98     -0.00     -0.00
                               -0.00   -408.89      0.00
                               -0.00      0.00   -409.99

     corecor stress (kbar)   -542.38      0.00      0.00
                                0.00   -542.39      0.00
                                0.00      0.00   -542.81

     ewald   stress (kbar)  67440.46     -0.00     -0.00
                               -0.00  67468.62      0.00
                               -0.00      0.00 -78381.11

     hubbard stress (kbar)      0.00      0.00      0.00
                                0.00      0.00      0.00
                                0.00      0.00      0.00

     DFT-D   stress (kbar)      0.00      0.00      0.00
                                0.00      0.00      0.00
                                0.00      0.00      0.00

     XDM     stress (kbar)      0.00      0.00      0.00
                                0.00      0.00      0.00
                                0.00      0.00      0.00

     dft-nl  stress (kbar)      0.00      0.00      0.00
                                0.00      0.00      0.00
                                0.00      0.00      0.00

     TS-vdW  stress (kbar)      0.00      0.00      0.00
                                0.00      0.00      0.00
                                0.00      0.00      0.00

     MDB     stress (kbar)      0.00      0.00      0.00
                                0.00      0.00      0.00
                                0.00      0.00      0.00

     3D-RISM stress (kbar)      0.00      0.00      0.00
                                0.00      0.00      0.00
                                0.00      0.00      0.00


     Writing all to output data dir ./tmp/mos2.save/ :
     XML data file, charge density, pseudopotentials, collected wavefunctions
 
     init_run     :      0.91s CPU      1.49s WALL (       1 calls)
     electrons    :      8.04s CPU      9.40s WALL (       1 calls)
     forces       :      1.44s CPU      1.83s WALL (       1 calls)
     stress       :      5.32s CPU      6.59s WALL (       1 calls)

     Called by init_run:
     wfcinit      :      0.10s CPU      0.20s WALL (       1 calls)
     potinit      :      0.17s CPU      0.22s WALL (       1 calls)
     hinit0       :      0.11s CPU      0.13s WALL (       1 calls)

     Called by electrons:
     c_bands      :      4.84s CPU      4.96s WALL (       2 calls)
     sum_band     :      2.52s CPU      3.31s WALL (       2 calls)
     v_of_rho     :      0.29s CPU      0.34s WALL (       2 calls)
     v_h          :      0.02s CPU      0.03s WALL (       2 calls)
     v_xc         :      0.50s CPU      0.56s WALL (       4 calls)
     newd         :      0.97s CPU      1.73s WALL (       2 calls)
     mix_rho      :      0.00s CPU      0.00s WALL (       2 calls)

     Called by c_bands:
     init_us_2    :      0.57s CPU      0.58s WALL (     258 calls)
     ccgdiagg     :      4.63s CPU      4.74s WALL (      86 calls)

     Called by sum_band:
     sum_band:wei :      0.00s CPU      0.00s WALL (       2 calls)
     sum_band:loo :      1.20s CPU      1.21s WALL (       2 calls)
     sum_band:buf :      0.05s CPU      0.05s WALL (      86 calls)
     sum_band:ini :      0.29s CPU      0.29s WALL (      86 calls)
     sum_band:cal :      0.23s CPU      0.23s WALL (      86 calls)
     sum_band:bec :      0.00s CPU      0.00s WALL (      86 calls)
     addusdens    :      1.26s CPU      2.05s WALL (       2 calls)
                                        0.00s GPU  (       2 calls)
     addusd:skk   :      0.00s CPU      0.01s WALL (       4 calls)
                                        0.00s GPU  (       4 calls)

     Called by *cgdiagg:
     h_psi        :      3.10s CPU      3.17s WALL (    2752 calls)
     s_psi        :      0.60s CPU      0.62s WALL (    5504 calls)

     Called by h_psi:
     h_psi:calbec :      0.46s CPU      0.47s WALL (    2752 calls)
     vloc_psi     :      2.22s CPU      2.27s WALL (    2752 calls)
                                        0.00s GPU  (    2752 calls)
     add_vuspsi   :      0.35s CPU      0.36s WALL (    2752 calls)
     hs_1psi      :      3.45s CPU      3.53s WALL (    2752 calls)
     s_1psi       :      0.67s CPU      0.69s WALL (    2752 calls)

     General routines
     calbec       :      1.90s CPU      1.93s WALL (    6321 calls)
     fft          :      0.29s CPU      0.31s WALL (      50 calls)
     ffts         :      0.01s CPU      0.01s WALL (       4 calls)
     fftw         :      2.04s CPU      2.08s WALL (    6880 calls)
     interpolate  :      0.03s CPU      0.03s WALL (       2 calls)
 
     Parallel routines
 
     PWSCF        :     16.07s CPU     19.89s WALL

 
   This run was terminated on:   0:12:30  23Sep2026            

=------------------------------------------------------------------------------=
   JOB DONE.
=------------------------------------------------------------------------------=
