
     Program PWSCF v.7.5 starts on 22Sep2026 at 21:47:34 

     This program is part of the open-source Quantum ESPRESSO suite
     for quantum simulation of materials; please cite
         "P. Giannozzi et al., J. Phys.:Condens. Matter 21 395502 (2009);
         "P. Giannozzi et al., J. Phys.:Condens. Matter 29 465901 (2017);
         "P. Giannozzi et al., J. Chem. Phys. 152 154105 (2020);
          URL http://www.quantum-espresso.org", 
     in publications or presentations arising from this work. More details at
     http://www.quantum-espresso.org/quote

     Parallel version (MPI), running on     4 processors

     MPI processes distributed on     1 nodes
     7156 MiB available memory on the printing compute node when the environment starts

     Reading input from mass.in

     Current dimensions of program PWSCF are:
     Max number of different atomic species (ntypx) = 10
     Max number of k-points (npk) =  40000
     Max angular momentum in pseudopotentials (lmaxx) =  4

     Atomic positions and unit cell read from directory:
     ./tmp/si.save/


     R & G space division:  proc/nbgrp/npool/nimage =       4
     Subspace diagonalization in iterative solution of the eigenvalue problem:
     a serial algorithm will be used


     Parallelization info
     --------------------
     sticks:   dense  smooth     PW     G-vecs:    dense   smooth      PW
     Min         571     214     63                18093     4156     659
     Max         572     217     64                18095     4157     660
     Sum        2287     859    253                72377    16625    2637

     Using Slab Decomposition



     bravais-lattice index     =            2
     lattice parameter (alat)  =      10.2000  a.u.
     unit-cell volume          =     265.3020 (a.u.)^3
     number of atoms/cell      =            2
     number of atomic types    =            1
     number of electrons       =         8.00
     number of Kohn-Sham states=            8
     kinetic-energy cutoff     =      60.0000  Ry
     charge density cutoff     =     640.0000  Ry
     Exchange-correlation= PBE
                           (   1   4   3   4   0   0   0)

     celldm(1)=  10.200000  celldm(2)=   0.000000  celldm(3)=   0.000000
     celldm(4)=   0.000000  celldm(5)=   0.000000  celldm(6)=   0.000000

     crystal axes: (cart. coord. in units of alat)
               a(1) = (  -0.500000   0.000000   0.500000 )  
               a(2) = (   0.000000   0.500000   0.500000 )  
               a(3) = (  -0.500000   0.500000   0.000000 )  

     reciprocal axes: (cart. coord. in units 2 pi/alat)
               b(1) = ( -1.000000 -1.000000  1.000000 )  
               b(2) = (  1.000000  1.000000  1.000000 )  
               b(3) = ( -1.000000  1.000000 -1.000000 )  


     PseudoPot. # 1 for Si read from file:
     ../pseudo/Si.pbe-n-rrkjus_psl.1.0.0.UPF
     MD5 check sum: fa25574f73a70a4139f2adfbefec430c
     Pseudo is Ultrasoft + core correction, Zval =  4.0
     Generated using &quot;atomic&quot; code by A. Dal Corso  v.6.3
     Using radial grid of 1141 points,  6 beta functions with: 
                l(1) =   0
                l(2) =   0
                l(3) =   1
                l(4) =   1
                l(5) =   2
                l(6) =   2
     Q(r) pseudized with 0 coefficients 


     atomic species   valence    mass     pseudopotential
     Si                4.00    28.08500     Si( 1.00)

     48 Sym. Ops., with inversion, found (24 have fractional translation)


                                    s                        frac. trans.

      isym =  1     identity                                     

 cryst.   s( 1) = (     1          0          0      )
                  (     0          1          0      )
                  (     0          0          1      )

 cart.    s( 1) = (  1.0000000  0.0000000  0.0000000 )
                  (  0.0000000  1.0000000  0.0000000 )
                  (  0.0000000  0.0000000  1.0000000 )


      isym =  2     180 deg rotation - cart. axis [0,0,1]        

 cryst.   s( 2) = (     0          1         -1      )
                  (     1          0         -1      )
                  (     0          0         -1      )

 cart.    s( 2) = ( -1.0000000  0.0000000  0.0000000 )
                  (  0.0000000 -1.0000000  0.0000000 )
                  (  0.0000000  0.0000000  1.0000000 )


      isym =  3     180 deg rotation - cart. axis [0,1,0]        

 cryst.   s( 3) = (    -1          0          0      )
                  (    -1          0          1      )
                  (    -1          1          0      )

 cart.    s( 3) = ( -1.0000000  0.0000000  0.0000000 )
                  (  0.0000000  1.0000000  0.0000000 )
                  (  0.0000000  0.0000000 -1.0000000 )


      isym =  4     180 deg rotation - cart. axis [1,0,0]        

 cryst.   s( 4) = (     0         -1          1      )
                  (     0         -1          0      )
                  (     1         -1          0      )

 cart.    s( 4) = (  1.0000000  0.0000000  0.0000000 )
                  (  0.0000000 -1.0000000  0.0000000 )
                  (  0.0000000  0.0000000 -1.0000000 )


      isym =  5     180 deg rotation - cart. axis [1,1,0]        

 cryst.   s( 5) = (     0         -1          0      )    f =(  0.2500000 )
                  (    -1          0          0      )       (  0.2500000 )
                  (     0          0         -1      )       (  0.2500000 )

 cart.    s( 5) = (  0.0000000  1.0000000  0.0000000 )    f =( -0.2500000 )
                  (  1.0000000  0.0000000  0.0000000 )       (  0.2500000 )
                  (  0.0000000  0.0000000 -1.0000000 )       (  0.2500000 )


      isym =  6     180 deg rotation - cart. axis [1,-1,0]       

 cryst.   s( 6) = (    -1          0          1      )    f =(  0.2500000 )
                  (     0         -1          1      )       (  0.2500000 )
                  (     0          0          1      )       (  0.2500000 )

 cart.    s( 6) = (  0.0000000 -1.0000000  0.0000000 )    f =( -0.2500000 )
                  ( -1.0000000  0.0000000  0.0000000 )       (  0.2500000 )
                  (  0.0000000  0.0000000 -1.0000000 )       (  0.2500000 )


      isym =  7      90 deg rotation - cart. axis [0,0,-1]       

 cryst.   s( 7) = (     0          1          0      )    f =(  0.2500000 )
                  (     0          1         -1      )       (  0.2500000 )
                  (    -1          1          0      )       (  0.2500000 )

 cart.    s( 7) = (  0.0000000  1.0000000  0.0000000 )    f =( -0.2500000 )
                  ( -1.0000000  0.0000000  0.0000000 )       (  0.2500000 )
                  (  0.0000000  0.0000000  1.0000000 )       (  0.2500000 )


      isym =  8      90 deg rotation - cart. axis [0,0,1]        

 cryst.   s( 8) = (     1          0         -1      )    f =(  0.2500000 )
                  (     1          0          0      )       (  0.2500000 )
                  (     1         -1          0      )       (  0.2500000 )

 cart.    s( 8) = (  0.0000000 -1.0000000  0.0000000 )    f =( -0.2500000 )
                  (  1.0000000  0.0000000  0.0000000 )       (  0.2500000 )
                  (  0.0000000  0.0000000  1.0000000 )       (  0.2500000 )


      isym =  9     180 deg rotation - cart. axis [1,0,1]        

 cryst.   s( 9) = (    -1          0          0      )    f =(  0.2500000 )
                  (     0          0         -1      )       (  0.2500000 )
                  (     0         -1          0      )       (  0.2500000 )

 cart.    s( 9) = (  0.0000000  0.0000000  1.0000000 )    f =( -0.2500000 )
                  (  0.0000000 -1.0000000  0.0000000 )       (  0.2500000 )
                  (  1.0000000  0.0000000  0.0000000 )       (  0.2500000 )


      isym = 10     180 deg rotation - cart. axis [-1,0,1]       

 cryst.   s(10) = (     1          0          0      )    f =(  0.2500000 )
                  (     1         -1          0      )       (  0.2500000 )
                  (     1          0         -1      )       (  0.2500000 )

 cart.    s(10) = (  0.0000000  0.0000000 -1.0000000 )    f =( -0.2500000 )
                  (  0.0000000 -1.0000000  0.0000000 )       (  0.2500000 )
                  ( -1.0000000  0.0000000  0.0000000 )       (  0.2500000 )


      isym = 11      90 deg rotation - cart. axis [0,1,0]        

 cryst.   s(11) = (     0          1         -1      )    f =(  0.2500000 )
                  (    -1          1          0      )       (  0.2500000 )
                  (     0          1          0      )       (  0.2500000 )

 cart.    s(11) = (  0.0000000  0.0000000  1.0000000 )    f =( -0.2500000 )
                  (  0.0000000  1.0000000  0.0000000 )       (  0.2500000 )
                  ( -1.0000000  0.0000000  0.0000000 )       (  0.2500000 )


      isym = 12      90 deg rotation - cart. axis [0,-1,0]       

 cryst.   s(12) = (     0         -1          1      )    f =(  0.2500000 )
                  (     0          0          1      )       (  0.2500000 )
                  (    -1          0          1      )       (  0.2500000 )

 cart.    s(12) = (  0.0000000  0.0000000 -1.0000000 )    f =( -0.2500000 )
                  (  0.0000000  1.0000000  0.0000000 )       (  0.2500000 )
                  (  1.0000000  0.0000000  0.0000000 )       (  0.2500000 )


      isym = 13     180 deg rotation - cart. axis [0,1,1]        

 cryst.   s(13) = (    -1          1          0      )    f =(  0.2500000 )
                  (     0          1          0      )       (  0.2500000 )
                  (     0          1         -1      )       (  0.2500000 )

 cart.    s(13) = ( -1.0000000  0.0000000  0.0000000 )    f =( -0.2500000 )
                  (  0.0000000  0.0000000  1.0000000 )       (  0.2500000 )
                  (  0.0000000  1.0000000  0.0000000 )       (  0.2500000 )


      isym = 14     180 deg rotation - cart. axis [0,1,-1]       

 cryst.   s(14) = (     0          0         -1      )    f =(  0.2500000 )
                  (     0         -1          0      )       (  0.2500000 )
                  (    -1          0          0      )       (  0.2500000 )

 cart.    s(14) = ( -1.0000000  0.0000000  0.0000000 )    f =( -0.2500000 )
                  (  0.0000000  0.0000000 -1.0000000 )       (  0.2500000 )
                  (  0.0000000 -1.0000000  0.0000000 )       (  0.2500000 )


      isym = 15      90 deg rotation - cart. axis [-1,0,0]       

 cryst.   s(15) = (     0          0          1      )    f =(  0.2500000 )
                  (    -1          0          1      )       (  0.2500000 )
                  (     0         -1          1      )       (  0.2500000 )

 cart.    s(15) = (  1.0000000  0.0000000  0.0000000 )    f =( -0.2500000 )
                  (  0.0000000  0.0000000  1.0000000 )       (  0.2500000 )
                  (  0.0000000 -1.0000000  0.0000000 )       (  0.2500000 )


      isym = 16      90 deg rotation - cart. axis [1,0,0]        

 cryst.   s(16) = (     1         -1          0      )    f =(  0.2500000 )
                  (     1          0         -1      )       (  0.2500000 )
                  (     1          0          0      )       (  0.2500000 )

 cart.    s(16) = (  1.0000000  0.0000000  0.0000000 )    f =( -0.2500000 )
                  (  0.0000000  0.0000000 -1.0000000 )       (  0.2500000 )
                  (  0.0000000  1.0000000  0.0000000 )       (  0.2500000 )


      isym = 17     120 deg rotation - cart. axis [-1,-1,-1]     

 cryst.   s(17) = (    -1          0          1      )
                  (    -1          1          0      )
                  (    -1          0          0      )

 cart.    s(17) = (  0.0000000  1.0000000  0.0000000 )
                  (  0.0000000  0.0000000  1.0000000 )
                  (  1.0000000  0.0000000  0.0000000 )


      isym = 18     120 deg rotation - cart. axis [-1,1,1]       

 cryst.   s(18) = (     0          1          0      )
                  (     0          0          1      )
                  (     1          0          0      )

 cart.    s(18) = (  0.0000000 -1.0000000  0.0000000 )
                  (  0.0000000  0.0000000  1.0000000 )
                  ( -1.0000000  0.0000000  0.0000000 )


      isym = 19     120 deg rotation - cart. axis [1,1,-1]       

 cryst.   s(19) = (     1          0         -1      )
                  (     0          0         -1      )
                  (     0          1         -1      )

 cart.    s(19) = (  0.0000000  1.0000000  0.0000000 )
                  (  0.0000000  0.0000000 -1.0000000 )
                  ( -1.0000000  0.0000000  0.0000000 )


      isym = 20     120 deg rotation - cart. axis [1,-1,1]       

 cryst.   s(20) = (     0         -1          0      )
                  (     1         -1          0      )
                  (     0         -1          1      )

 cart.    s(20) = (  0.0000000 -1.0000000  0.0000000 )
                  (  0.0000000  0.0000000 -1.0000000 )
                  (  1.0000000  0.0000000  0.0000000 )


      isym = 21     120 deg rotation - cart. axis [1,1,1]        

 cryst.   s(21) = (     0          0         -1      )
                  (     0          1         -1      )
                  (     1          0         -1      )

 cart.    s(21) = (  0.0000000  0.0000000  1.0000000 )
                  (  1.0000000  0.0000000  0.0000000 )
                  (  0.0000000  1.0000000  0.0000000 )


      isym = 22     120 deg rotation - cart. axis [-1,1,-1]      

 cryst.   s(22) = (    -1          1          0      )
                  (    -1          0          0      )
                  (    -1          0          1      )

 cart.    s(22) = (  0.0000000  0.0000000  1.0000000 )
                  ( -1.0000000  0.0000000  0.0000000 )
                  (  0.0000000 -1.0000000  0.0000000 )


      isym = 23     120 deg rotation - cart. axis [1,-1,-1]      

 cryst.   s(23) = (     0          0          1      )
                  (     1          0          0      )
                  (     0          1          0      )

 cart.    s(23) = (  0.0000000  0.0000000 -1.0000000 )
                  ( -1.0000000  0.0000000  0.0000000 )
                  (  0.0000000  1.0000000  0.0000000 )


      isym = 24     120 deg rotation - cart. axis [-1,-1,1]      

 cryst.   s(24) = (     1         -1          0      )
                  (     0         -1          1      )
                  (     0         -1          0      )

 cart.    s(24) = (  0.0000000  0.0000000 -1.0000000 )
                  (  1.0000000  0.0000000  0.0000000 )
                  (  0.0000000 -1.0000000  0.0000000 )


      isym = 25     inversion                                    

 cryst.   s(25) = (    -1          0          0      )    f =(  0.2500000 )
                  (     0         -1          0      )       (  0.2500000 )
                  (     0          0         -1      )       (  0.2500000 )

 cart.    s(25) = ( -1.0000000  0.0000000  0.0000000 )    f =( -0.2500000 )
                  (  0.0000000 -1.0000000  0.0000000 )       (  0.2500000 )
                  (  0.0000000  0.0000000 -1.0000000 )       (  0.2500000 )


      isym = 26     inv. 180 deg rotation - cart. axis [0,0,1]   

 cryst.   s(26) = (     0         -1          1      )    f =(  0.2500000 )
                  (    -1          0          1      )       (  0.2500000 )
                  (     0          0          1      )       (  0.2500000 )

 cart.    s(26) = (  1.0000000  0.0000000  0.0000000 )    f =( -0.2500000 )
                  (  0.0000000  1.0000000  0.0000000 )       (  0.2500000 )
                  (  0.0000000  0.0000000 -1.0000000 )       (  0.2500000 )


      isym = 27     inv. 180 deg rotation - cart. axis [0,1,0]   

 cryst.   s(27) = (     1          0          0      )    f =(  0.2500000 )
                  (     1          0         -1      )       (  0.2500000 )
                  (     1         -1          0      )       (  0.2500000 )

 cart.    s(27) = (  1.0000000  0.0000000  0.0000000 )    f =( -0.2500000 )
                  (  0.0000000 -1.0000000  0.0000000 )       (  0.2500000 )
                  (  0.0000000  0.0000000  1.0000000 )       (  0.2500000 )


      isym = 28     inv. 180 deg rotation - cart. axis [1,0,0]   

 cryst.   s(28) = (     0          1         -1      )    f =(  0.2500000 )
                  (     0          1          0      )       (  0.2500000 )
                  (    -1          1          0      )       (  0.2500000 )

 cart.    s(28) = ( -1.0000000  0.0000000  0.0000000 )    f =( -0.2500000 )
                  (  0.0000000  1.0000000  0.0000000 )       (  0.2500000 )
                  (  0.0000000  0.0000000  1.0000000 )       (  0.2500000 )


      isym = 29     inv. 180 deg rotation - cart. axis [1,1,0]   

 cryst.   s(29) = (     0          1          0      )
                  (     1          0          0      )
                  (     0          0          1      )

 cart.    s(29) = (  0.0000000 -1.0000000  0.0000000 )
                  ( -1.0000000  0.0000000  0.0000000 )
                  (  0.0000000  0.0000000  1.0000000 )


      isym = 30     inv. 180 deg rotation - cart. axis [1,-1,0]  

 cryst.   s(30) = (     1          0         -1      )
                  (     0          1         -1      )
                  (     0          0         -1      )

 cart.    s(30) = (  0.0000000  1.0000000  0.0000000 )
                  (  1.0000000  0.0000000  0.0000000 )
                  (  0.0000000  0.0000000  1.0000000 )


      isym = 31     inv.  90 deg rotation - cart. axis [0,0,-1]  

 cryst.   s(31) = (     0         -1          0      )
                  (     0         -1          1      )
                  (     1         -1          0      )

 cart.    s(31) = (  0.0000000 -1.0000000  0.0000000 )
                  (  1.0000000  0.0000000  0.0000000 )
                  (  0.0000000  0.0000000 -1.0000000 )


      isym = 32     inv.  90 deg rotation - cart. axis [0,0,1]   

 cryst.   s(32) = (    -1          0          1      )
                  (    -1          0          0      )
                  (    -1          1          0      )

 cart.    s(32) = (  0.0000000  1.0000000  0.0000000 )
                  ( -1.0000000  0.0000000  0.0000000 )
                  (  0.0000000  0.0000000 -1.0000000 )


      isym = 33     inv. 180 deg rotation - cart. axis [1,0,1]   

 cryst.   s(33) = (     1          0          0      )
                  (     0          0          1      )
                  (     0          1          0      )

 cart.    s(33) = (  0.0000000  0.0000000 -1.0000000 )
                  (  0.0000000  1.0000000  0.0000000 )
                  ( -1.0000000  0.0000000  0.0000000 )


      isym = 34     inv. 180 deg rotation - cart. axis [-1,0,1]  

 cryst.   s(34) = (    -1          0          0      )
                  (    -1          1          0      )
                  (    -1          0          1      )

 cart.    s(34) = (  0.0000000  0.0000000  1.0000000 )
                  (  0.0000000  1.0000000  0.0000000 )
                  (  1.0000000  0.0000000  0.0000000 )


      isym = 35     inv.  90 deg rotation - cart. axis [0,1,0]   

 cryst.   s(35) = (     0         -1          1      )
                  (     1         -1          0      )
                  (     0         -1          0      )

 cart.    s(35) = (  0.0000000  0.0000000 -1.0000000 )
                  (  0.0000000 -1.0000000  0.0000000 )
                  (  1.0000000  0.0000000  0.0000000 )


      isym = 36     inv.  90 deg rotation - cart. axis [0,-1,0]  

 cryst.   s(36) = (     0          1         -1      )
                  (     0          0         -1      )
                  (     1          0         -1      )

 cart.    s(36) = (  0.0000000  0.0000000  1.0000000 )
                  (  0.0000000 -1.0000000  0.0000000 )
                  ( -1.0000000  0.0000000  0.0000000 )


      isym = 37     inv. 180 deg rotation - cart. axis [0,1,1]   

 cryst.   s(37) = (     1         -1          0      )
                  (     0         -1          0      )
                  (     0         -1          1      )

 cart.    s(37) = (  1.0000000  0.0000000  0.0000000 )
                  (  0.0000000  0.0000000 -1.0000000 )
                  (  0.0000000 -1.0000000  0.0000000 )


      isym = 38     inv. 180 deg rotation - cart. axis [0,1,-1]  

 cryst.   s(38) = (     0          0          1      )
                  (     0          1          0      )
                  (     1          0          0      )

 cart.    s(38) = (  1.0000000  0.0000000  0.0000000 )
                  (  0.0000000  0.0000000  1.0000000 )
                  (  0.0000000  1.0000000  0.0000000 )


      isym = 39     inv.  90 deg rotation - cart. axis [-1,0,0]  

 cryst.   s(39) = (     0          0         -1      )
                  (     1          0         -1      )
                  (     0          1         -1      )

 cart.    s(39) = ( -1.0000000  0.0000000  0.0000000 )
                  (  0.0000000  0.0000000 -1.0000000 )
                  (  0.0000000  1.0000000  0.0000000 )


      isym = 40     inv.  90 deg rotation - cart. axis [1,0,0]   

 cryst.   s(40) = (    -1          1          0      )
                  (    -1          0          1      )
                  (    -1          0          0      )

 cart.    s(40) = ( -1.0000000  0.0000000  0.0000000 )
                  (  0.0000000  0.0000000  1.0000000 )
                  (  0.0000000 -1.0000000  0.0000000 )


      isym = 41     inv. 120 deg rotation - cart. axis [-1,-1,-1]

 cryst.   s(41) = (     1          0         -1      )    f =(  0.2500000 )
                  (     1         -1          0      )       (  0.2500000 )
                  (     1          0          0      )       (  0.2500000 )

 cart.    s(41) = (  0.0000000 -1.0000000  0.0000000 )    f =( -0.2500000 )
                  (  0.0000000  0.0000000 -1.0000000 )       (  0.2500000 )
                  ( -1.0000000  0.0000000  0.0000000 )       (  0.2500000 )


      isym = 42     inv. 120 deg rotation - cart. axis [-1,1,1]  

 cryst.   s(42) = (     0         -1          0      )    f =(  0.2500000 )
                  (     0          0         -1      )       (  0.2500000 )
                  (    -1          0          0      )       (  0.2500000 )

 cart.    s(42) = (  0.0000000  1.0000000  0.0000000 )    f =( -0.2500000 )
                  (  0.0000000  0.0000000 -1.0000000 )       (  0.2500000 )
                  (  1.0000000  0.0000000  0.0000000 )       (  0.2500000 )


      isym = 43     inv. 120 deg rotation - cart. axis [1,1,-1]  

 cryst.   s(43) = (    -1          0          1      )    f =(  0.2500000 )
                  (     0          0          1      )       (  0.2500000 )
                  (     0         -1          1      )       (  0.2500000 )

 cart.    s(43) = (  0.0000000 -1.0000000  0.0000000 )    f =( -0.2500000 )
                  (  0.0000000  0.0000000  1.0000000 )       (  0.2500000 )
                  (  1.0000000  0.0000000  0.0000000 )       (  0.2500000 )


      isym = 44     inv. 120 deg rotation - cart. axis [1,-1,1]  

 cryst.   s(44) = (     0          1          0      )    f =(  0.2500000 )
                  (    -1          1          0      )       (  0.2500000 )
                  (     0          1         -1      )       (  0.2500000 )

 cart.    s(44) = (  0.0000000  1.0000000  0.0000000 )    f =( -0.2500000 )
                  (  0.0000000  0.0000000  1.0000000 )       (  0.2500000 )
                  ( -1.0000000  0.0000000  0.0000000 )       (  0.2500000 )


      isym = 45     inv. 120 deg rotation - cart. axis [1,1,1]   

 cryst.   s(45) = (     0          0          1      )    f =(  0.2500000 )
                  (     0         -1          1      )       (  0.2500000 )
                  (    -1          0          1      )       (  0.2500000 )

 cart.    s(45) = (  0.0000000  0.0000000 -1.0000000 )    f =( -0.2500000 )
                  ( -1.0000000  0.0000000  0.0000000 )       (  0.2500000 )
                  (  0.0000000 -1.0000000  0.0000000 )       (  0.2500000 )


      isym = 46     inv. 120 deg rotation - cart. axis [-1,1,-1] 

 cryst.   s(46) = (     1         -1          0      )    f =(  0.2500000 )
                  (     1          0          0      )       (  0.2500000 )
                  (     1          0         -1      )       (  0.2500000 )

 cart.    s(46) = (  0.0000000  0.0000000 -1.0000000 )    f =( -0.2500000 )
                  (  1.0000000  0.0000000  0.0000000 )       (  0.2500000 )
                  (  0.0000000  1.0000000  0.0000000 )       (  0.2500000 )


      isym = 47     inv. 120 deg rotation - cart. axis [1,-1,-1] 

 cryst.   s(47) = (     0          0         -1      )    f =(  0.2500000 )
                  (    -1          0          0      )       (  0.2500000 )
                  (     0         -1          0      )       (  0.2500000 )

 cart.    s(47) = (  0.0000000  0.0000000  1.0000000 )    f =( -0.2500000 )
                  (  1.0000000  0.0000000  0.0000000 )       (  0.2500000 )
                  (  0.0000000 -1.0000000  0.0000000 )       (  0.2500000 )


      isym = 48     inv. 120 deg rotation - cart. axis [-1,-1,1] 

 cryst.   s(48) = (    -1          1          0      )    f =(  0.2500000 )
                  (     0          1         -1      )       (  0.2500000 )
                  (     0          1          0      )       (  0.2500000 )

 cart.    s(48) = (  0.0000000  0.0000000  1.0000000 )    f =( -0.2500000 )
                  ( -1.0000000  0.0000000  0.0000000 )       (  0.2500000 )
                  (  0.0000000  1.0000000  0.0000000 )       (  0.2500000 )


     point group O_h (m-3m) 
     there are 10 classes
     the character table:

       E     8C3   3C2   6C4   6C2'  i     8S6   3s_h  6S4   6s_d 
A_1g   1.00  1.00  1.00  1.00  1.00  1.00  1.00  1.00  1.00  1.00
A_2g   1.00  1.00  1.00 -1.00 -1.00  1.00  1.00  1.00 -1.00 -1.00
E_g    2.00 -1.00  2.00  0.00  0.00  2.00 -1.00  2.00  0.00  0.00
T_1g   3.00  0.00 -1.00  1.00 -1.00  3.00  0.00 -1.00  1.00 -1.00
T_2g   3.00  0.00 -1.00 -1.00  1.00  3.00  0.00 -1.00 -1.00  1.00
A_1u   1.00  1.00  1.00  1.00  1.00 -1.00 -1.00 -1.00 -1.00 -1.00
A_2u   1.00  1.00  1.00 -1.00 -1.00 -1.00 -1.00 -1.00  1.00  1.00
E_u    2.00 -1.00  2.00  0.00  0.00 -2.00  1.00 -2.00  0.00  0.00
T_1u   3.00  0.00 -1.00  1.00 -1.00 -3.00  0.00  1.00 -1.00  1.00
T_2u   3.00  0.00 -1.00 -1.00  1.00 -3.00  0.00  1.00  1.00 -1.00

     the symmetry operations in each class and the name of the first element:

     E        1
          identity                                               
     8C3     17   19   20   18   24   21   22   23
          120 deg rotation - cart. axis [-1,-1,-1]               
     3C2      2    4    3
          180 deg rotation - cart. axis [0,0,1]                  
     6C4      7    8   15   16   12   11
           90 deg rotation - cart. axis [0,0,-1]                 
     6C2'     5    6   14   13   10    9
          180 deg rotation - cart. axis [1,1,0]                  
     i       25
          inversion                                              
     8S6     41   43   44   42   48   45   46   47
          inv. 120 deg rotation - cart. axis [-1,-1,-1]          
     3s_h    26   28   27
          inv. 180 deg rotation - cart. axis [0,0,1]             
     6S4     31   32   39   40   36   35
          inv.  90 deg rotation - cart. axis [0,0,-1]            
     6s_d    29   30   38   37   34   33
          inv. 180 deg rotation - cart. axis [1,1,0]             

   Cartesian axes

     site n.     atom                  positions (alat units)
         1        Si     tau(   1) = (   0.0000000   0.0000000   0.0000000  )
         2        Si     tau(   2) = (   0.2500000   0.2500000   0.2500000  )

   Crystallographic axes

     site n.     atom                  positions (cryst. coord.)
         1        Si     tau(   1) = (  0.0000000  0.0000000  0.0000000  )
         2        Si     tau(   2) = ( -0.2500000  0.7500000 -0.2500000  )

     number of k points=    66
                       cart. coord. in units 2pi/alat
        k(    1) = (   0.8443009  -0.0400000   0.0000000), wk =   0.0303030
        k(    2) = (   0.8443009  -0.0375000   0.0000000), wk =   0.0303030
        k(    3) = (   0.8443009  -0.0350000   0.0000000), wk =   0.0303030
        k(    4) = (   0.8443009  -0.0325000   0.0000000), wk =   0.0303030
        k(    5) = (   0.8443009  -0.0300000   0.0000000), wk =   0.0303030
        k(    6) = (   0.8443009  -0.0275000   0.0000000), wk =   0.0303030
        k(    7) = (   0.8443009  -0.0250000   0.0000000), wk =   0.0303030
        k(    8) = (   0.8443009  -0.0225000   0.0000000), wk =   0.0303030
        k(    9) = (   0.8443009  -0.0200000   0.0000000), wk =   0.0303030
        k(   10) = (   0.8443009  -0.0175000   0.0000000), wk =   0.0303030
        k(   11) = (   0.8443009  -0.0150000   0.0000000), wk =   0.0303030
        k(   12) = (   0.8443009  -0.0125000   0.0000000), wk =   0.0303030
        k(   13) = (   0.8443009  -0.0100000   0.0000000), wk =   0.0303030
        k(   14) = (   0.8443009  -0.0075000   0.0000000), wk =   0.0303030
        k(   15) = (   0.8443009  -0.0050000   0.0000000), wk =   0.0303030
        k(   16) = (   0.8443009  -0.0025000   0.0000000), wk =   0.0303030
        k(   17) = (   0.8443009   0.0000000   0.0000000), wk =   0.0303030
        k(   18) = (   0.8443009   0.0025000   0.0000000), wk =   0.0303030
        k(   19) = (   0.8443009   0.0050000   0.0000000), wk =   0.0303030
        k(   20) = (   0.8443009   0.0075000   0.0000000), wk =   0.0303030
        k(   21) = (   0.8443009   0.0100000   0.0000000), wk =   0.0303030
        k(   22) = (   0.8443009   0.0125000   0.0000000), wk =   0.0303030
        k(   23) = (   0.8443009   0.0150000   0.0000000), wk =   0.0303030
        k(   24) = (   0.8443009   0.0175000   0.0000000), wk =   0.0303030
        k(   25) = (   0.8443009   0.0200000   0.0000000), wk =   0.0303030
        k(   26) = (   0.8443009   0.0225000   0.0000000), wk =   0.0303030
        k(   27) = (   0.8443009   0.0250000   0.0000000), wk =   0.0303030
        k(   28) = (   0.8443009   0.0275000   0.0000000), wk =   0.0303030
        k(   29) = (   0.8443009   0.0300000   0.0000000), wk =   0.0303030
        k(   30) = (   0.8443009   0.0325000   0.0000000), wk =   0.0303030
        k(   31) = (   0.8443009   0.0350000   0.0000000), wk =   0.0303030
        k(   32) = (   0.8443009   0.0375000   0.0000000), wk =   0.0303030
        k(   33) = (   0.8443009   0.0400000   0.0000000), wk =   0.0303030
        k(   34) = (   0.8443009   0.0000000  -0.0400000), wk =   0.0303030
        k(   35) = (   0.8443009   0.0000000  -0.0375000), wk =   0.0303030
        k(   36) = (   0.8443009   0.0000000  -0.0350000), wk =   0.0303030
        k(   37) = (   0.8443009   0.0000000  -0.0325000), wk =   0.0303030
        k(   38) = (   0.8443009   0.0000000  -0.0300000), wk =   0.0303030
        k(   39) = (   0.8443009   0.0000000  -0.0275000), wk =   0.0303030
        k(   40) = (   0.8443009   0.0000000  -0.0250000), wk =   0.0303030
        k(   41) = (   0.8443009   0.0000000  -0.0225000), wk =   0.0303030
        k(   42) = (   0.8443009   0.0000000  -0.0200000), wk =   0.0303030
        k(   43) = (   0.8443009   0.0000000  -0.0175000), wk =   0.0303030
        k(   44) = (   0.8443009   0.0000000  -0.0150000), wk =   0.0303030
        k(   45) = (   0.8443009   0.0000000  -0.0125000), wk =   0.0303030
        k(   46) = (   0.8443009   0.0000000  -0.0100000), wk =   0.0303030
        k(   47) = (   0.8443009   0.0000000  -0.0075000), wk =   0.0303030
        k(   48) = (   0.8443009   0.0000000  -0.0050000), wk =   0.0303030
        k(   49) = (   0.8443009   0.0000000  -0.0025000), wk =   0.0303030
        k(   50) = (   0.8443009   0.0000000   0.0000000), wk =   0.0303030
        k(   51) = (   0.8443009   0.0000000   0.0025000), wk =   0.0303030
        k(   52) = (   0.8443009   0.0000000   0.0050000), wk =   0.0303030
        k(   53) = (   0.8443009   0.0000000   0.0075000), wk =   0.0303030
        k(   54) = (   0.8443009   0.0000000   0.0100000), wk =   0.0303030
        k(   55) = (   0.8443009   0.0000000   0.0125000), wk =   0.0303030
        k(   56) = (   0.8443009   0.0000000   0.0150000), wk =   0.0303030
        k(   57) = (   0.8443009   0.0000000   0.0175000), wk =   0.0303030
        k(   58) = (   0.8443009   0.0000000   0.0200000), wk =   0.0303030
        k(   59) = (   0.8443009   0.0000000   0.0225000), wk =   0.0303030
        k(   60) = (   0.8443009   0.0000000   0.0250000), wk =   0.0303030
        k(   61) = (   0.8443009   0.0000000   0.0275000), wk =   0.0303030
        k(   62) = (   0.8443009   0.0000000   0.0300000), wk =   0.0303030
        k(   63) = (   0.8443009   0.0000000   0.0325000), wk =   0.0303030
        k(   64) = (   0.8443009   0.0000000   0.0350000), wk =   0.0303030
        k(   65) = (   0.8443009   0.0000000   0.0375000), wk =   0.0303030
        k(   66) = (   0.8443009   0.0000000   0.0400000), wk =   0.0303030

                       cryst. coord.
        k(    1) = (  -0.4221504  -0.0200000  -0.4421504), wk =   0.0303030
        k(    2) = (  -0.4221504  -0.0187500  -0.4409004), wk =   0.0303030
        k(    3) = (  -0.4221504  -0.0175000  -0.4396504), wk =   0.0303030
        k(    4) = (  -0.4221504  -0.0162500  -0.4384004), wk =   0.0303030
        k(    5) = (  -0.4221504  -0.0150000  -0.4371504), wk =   0.0303030
        k(    6) = (  -0.4221504  -0.0137500  -0.4359004), wk =   0.0303030
        k(    7) = (  -0.4221504  -0.0125000  -0.4346504), wk =   0.0303030
        k(    8) = (  -0.4221504  -0.0112500  -0.4334004), wk =   0.0303030
        k(    9) = (  -0.4221504  -0.0100000  -0.4321504), wk =   0.0303030
        k(   10) = (  -0.4221504  -0.0087500  -0.4309004), wk =   0.0303030
        k(   11) = (  -0.4221504  -0.0075000  -0.4296504), wk =   0.0303030
        k(   12) = (  -0.4221504  -0.0062500  -0.4284004), wk =   0.0303030
        k(   13) = (  -0.4221504  -0.0050000  -0.4271504), wk =   0.0303030
        k(   14) = (  -0.4221504  -0.0037500  -0.4259004), wk =   0.0303030
        k(   15) = (  -0.4221504  -0.0025000  -0.4246504), wk =   0.0303030
        k(   16) = (  -0.4221504  -0.0012500  -0.4234004), wk =   0.0303030
        k(   17) = (  -0.4221504   0.0000000  -0.4221504), wk =   0.0303030
        k(   18) = (  -0.4221504   0.0012500  -0.4209004), wk =   0.0303030
        k(   19) = (  -0.4221504   0.0025000  -0.4196504), wk =   0.0303030
        k(   20) = (  -0.4221504   0.0037500  -0.4184004), wk =   0.0303030
        k(   21) = (  -0.4221504   0.0050000  -0.4171504), wk =   0.0303030
        k(   22) = (  -0.4221504   0.0062500  -0.4159004), wk =   0.0303030
        k(   23) = (  -0.4221504   0.0075000  -0.4146504), wk =   0.0303030
        k(   24) = (  -0.4221504   0.0087500  -0.4134004), wk =   0.0303030
        k(   25) = (  -0.4221504   0.0100000  -0.4121504), wk =   0.0303030
        k(   26) = (  -0.4221504   0.0112500  -0.4109004), wk =   0.0303030
        k(   27) = (  -0.4221504   0.0125000  -0.4096504), wk =   0.0303030
        k(   28) = (  -0.4221504   0.0137500  -0.4084004), wk =   0.0303030
        k(   29) = (  -0.4221504   0.0150000  -0.4071504), wk =   0.0303030
        k(   30) = (  -0.4221504   0.0162500  -0.4059004), wk =   0.0303030
        k(   31) = (  -0.4221504   0.0175000  -0.4046504), wk =   0.0303030
        k(   32) = (  -0.4221504   0.0187500  -0.4034004), wk =   0.0303030
        k(   33) = (  -0.4221504   0.0200000  -0.4021504), wk =   0.0303030
        k(   34) = (  -0.4421504  -0.0200000  -0.4221504), wk =   0.0303030
        k(   35) = (  -0.4409004  -0.0187500  -0.4221504), wk =   0.0303030
        k(   36) = (  -0.4396504  -0.0175000  -0.4221504), wk =   0.0303030
        k(   37) = (  -0.4384004  -0.0162500  -0.4221504), wk =   0.0303030
        k(   38) = (  -0.4371504  -0.0150000  -0.4221504), wk =   0.0303030
        k(   39) = (  -0.4359004  -0.0137500  -0.4221504), wk =   0.0303030
        k(   40) = (  -0.4346504  -0.0125000  -0.4221504), wk =   0.0303030
        k(   41) = (  -0.4334004  -0.0112500  -0.4221504), wk =   0.0303030
        k(   42) = (  -0.4321504  -0.0100000  -0.4221504), wk =   0.0303030
        k(   43) = (  -0.4309004  -0.0087500  -0.4221504), wk =   0.0303030
        k(   44) = (  -0.4296504  -0.0075000  -0.4221504), wk =   0.0303030
        k(   45) = (  -0.4284004  -0.0062500  -0.4221504), wk =   0.0303030
        k(   46) = (  -0.4271504  -0.0050000  -0.4221504), wk =   0.0303030
        k(   47) = (  -0.4259004  -0.0037500  -0.4221504), wk =   0.0303030
        k(   48) = (  -0.4246504  -0.0025000  -0.4221504), wk =   0.0303030
        k(   49) = (  -0.4234004  -0.0012500  -0.4221504), wk =   0.0303030
        k(   50) = (  -0.4221504   0.0000000  -0.4221504), wk =   0.0303030
        k(   51) = (  -0.4209004   0.0012500  -0.4221504), wk =   0.0303030
        k(   52) = (  -0.4196504   0.0025000  -0.4221504), wk =   0.0303030
        k(   53) = (  -0.4184004   0.0037500  -0.4221504), wk =   0.0303030
        k(   54) = (  -0.4171504   0.0050000  -0.4221504), wk =   0.0303030
        k(   55) = (  -0.4159004   0.0062500  -0.4221504), wk =   0.0303030
        k(   56) = (  -0.4146504   0.0075000  -0.4221504), wk =   0.0303030
        k(   57) = (  -0.4134004   0.0087500  -0.4221504), wk =   0.0303030
        k(   58) = (  -0.4121504   0.0100000  -0.4221504), wk =   0.0303030
        k(   59) = (  -0.4109004   0.0112500  -0.4221504), wk =   0.0303030
        k(   60) = (  -0.4096504   0.0125000  -0.4221504), wk =   0.0303030
        k(   61) = (  -0.4084004   0.0137500  -0.4221504), wk =   0.0303030
        k(   62) = (  -0.4071504   0.0150000  -0.4221504), wk =   0.0303030
        k(   63) = (  -0.4059004   0.0162500  -0.4221504), wk =   0.0303030
        k(   64) = (  -0.4046504   0.0175000  -0.4221504), wk =   0.0303030
        k(   65) = (  -0.4034004   0.0187500  -0.4221504), wk =   0.0303030
        k(   66) = (  -0.4021504   0.0200000  -0.4221504), wk =   0.0303030

     Dense  grid:    72377 G-vectors     FFT dimensions: (  60,  60,  60)

     Smooth grid:    16625 G-vectors     FFT dimensions: (  36,  36,  36)

     Dynamical RAM for                 wfc:       0.06 MB

     Dynamical RAM for     wfc (w. buffer):       0.06 MB

     Dynamical RAM for           str. fact:       0.28 MB

     Dynamical RAM for           local pot:       0.00 MB

     Dynamical RAM for          nlocal pot:       0.29 MB

     Dynamical RAM for                qrad:       2.03 MB

     Dynamical RAM for          rho,v,vnew:       2.06 MB

     Dynamical RAM for           G-vectors:       1.07 MB

     Dynamical RAM for          h,s,v(r/c):       0.01 MB

     Dynamical RAM for          <psi|beta>:       0.00 MB

     Dynamical RAM for                 psi:       0.13 MB

     Dynamical RAM for                hpsi:       0.13 MB

     Dynamical RAM for                spsi:       0.13 MB

     Dynamical RAM for      wfcinit/wfcrot:       0.13 MB

     Dynamical RAM for           addusdens:      51.91 MB

     Estimated static dynamical RAM per process >       8.40 MB

     Estimated max dynamical RAM per process >      60.31 MB

     Estimated total dynamical RAM >     241.22 MB

     The potential is recalculated from file :
     ./tmp/si.save/charge-density

     Starting wfcs are    8 randomized atomic wfcs

     Band Structure Calculation
     Davidson diagonalization with overlap

     Computing kpt #:     1  of    66
     total cpu time spent up to now is        1.2 secs

     Computing kpt #:     2  of    66
     total cpu time spent up to now is        1.3 secs

     Computing kpt #:     3  of    66
     total cpu time spent up to now is        1.5 secs

     Computing kpt #:     4  of    66
     total cpu time spent up to now is        1.7 secs

     Computing kpt #:     5  of    66
     total cpu time spent up to now is        1.9 secs

     Computing kpt #:     6  of    66
     total cpu time spent up to now is        2.1 secs

     Computing kpt #:     7  of    66
     total cpu time spent up to now is        2.3 secs

     Computing kpt #:     8  of    66
     total cpu time spent up to now is        2.5 secs

     Computing kpt #:     9  of    66
     total cpu time spent up to now is        2.7 secs

     Computing kpt #:    10  of    66
     total cpu time spent up to now is        2.9 secs

     Computing kpt #:    11  of    66
     total cpu time spent up to now is        3.1 secs

     Computing kpt #:    12  of    66
     total cpu time spent up to now is        3.3 secs

     Computing kpt #:    13  of    66
     total cpu time spent up to now is        3.5 secs

     Computing kpt #:    14  of    66
     total cpu time spent up to now is        3.7 secs

     Computing kpt #:    15  of    66
     total cpu time spent up to now is        3.9 secs

     Computing kpt #:    16  of    66
     total cpu time spent up to now is        4.0 secs

     Computing kpt #:    17  of    66
     total cpu time spent up to now is        4.2 secs

     Computing kpt #:    18  of    66
     total cpu time spent up to now is        4.4 secs

     Computing kpt #:    19  of    66
     total cpu time spent up to now is        4.6 secs

     Computing kpt #:    20  of    66
     total cpu time spent up to now is        4.8 secs

     Computing kpt #:    21  of    66
     total cpu time spent up to now is        5.0 secs

     Computing kpt #:    22  of    66
     total cpu time spent up to now is        5.2 secs

     Computing kpt #:    23  of    66
     total cpu time spent up to now is        5.3 secs

     Computing kpt #:    24  of    66
     total cpu time spent up to now is        5.5 secs

     Computing kpt #:    25  of    66
     total cpu time spent up to now is        5.7 secs

     Computing kpt #:    26  of    66
     total cpu time spent up to now is        5.9 secs

     Computing kpt #:    27  of    66
     total cpu time spent up to now is        6.1 secs

     Computing kpt #:    28  of    66
     total cpu time spent up to now is        6.3 secs

     Computing kpt #:    29  of    66
     total cpu time spent up to now is        6.5 secs

     Computing kpt #:    30  of    66
     total cpu time spent up to now is        6.7 secs

     Computing kpt #:    31  of    66
     total cpu time spent up to now is        6.9 secs

     Computing kpt #:    32  of    66
     total cpu time spent up to now is        7.1 secs

     Computing kpt #:    33  of    66
     total cpu time spent up to now is        7.3 secs

     Computing kpt #:    34  of    66
     total cpu time spent up to now is        7.5 secs

     Computing kpt #:    35  of    66
     total cpu time spent up to now is        7.7 secs

     Computing kpt #:    36  of    66
     total cpu time spent up to now is        7.9 secs

     Computing kpt #:    37  of    66
     total cpu time spent up to now is        8.0 secs

     Computing kpt #:    38  of    66
     total cpu time spent up to now is        8.2 secs

     Computing kpt #:    39  of    66
     total cpu time spent up to now is        8.4 secs

     Computing kpt #:    40  of    66
     total cpu time spent up to now is        8.6 secs

     Computing kpt #:    41  of    66
     total cpu time spent up to now is        8.8 secs

     Computing kpt #:    42  of    66
     total cpu time spent up to now is        9.0 secs

     Computing kpt #:    43  of    66
     total cpu time spent up to now is        9.2 secs

     Computing kpt #:    44  of    66
     total cpu time spent up to now is        9.4 secs

     Computing kpt #:    45  of    66
     total cpu time spent up to now is        9.6 secs

     Computing kpt #:    46  of    66
     total cpu time spent up to now is        9.8 secs

     Computing kpt #:    47  of    66
     total cpu time spent up to now is       10.0 secs

     Computing kpt #:    48  of    66
     total cpu time spent up to now is       10.1 secs

     Computing kpt #:    49  of    66
     total cpu time spent up to now is       10.3 secs

     Computing kpt #:    50  of    66
     total cpu time spent up to now is       10.5 secs

     Computing kpt #:    51  of    66
     total cpu time spent up to now is       10.8 secs

     Computing kpt #:    52  of    66
     total cpu time spent up to now is       10.9 secs

     Computing kpt #:    53  of    66
     total cpu time spent up to now is       11.1 secs

     Computing kpt #:    54  of    66
     total cpu time spent up to now is       11.3 secs

     Computing kpt #:    55  of    66
     total cpu time spent up to now is       11.5 secs

     Computing kpt #:    56  of    66
     total cpu time spent up to now is       11.7 secs

     Computing kpt #:    57  of    66
     total cpu time spent up to now is       11.9 secs

     Computing kpt #:    58  of    66
     total cpu time spent up to now is       12.1 secs

     Computing kpt #:    59  of    66
     total cpu time spent up to now is       12.3 secs

     Computing kpt #:    60  of    66
     total cpu time spent up to now is       12.5 secs

     Computing kpt #:    61  of    66
     total cpu time spent up to now is       12.7 secs

     Computing kpt #:    62  of    66
     total cpu time spent up to now is       12.9 secs

     Computing kpt #:    63  of    66
     total cpu time spent up to now is       13.1 secs

     Computing kpt #:    64  of    66
     total cpu time spent up to now is       13.3 secs

     Computing kpt #:    65  of    66
     total cpu time spent up to now is       13.5 secs

     Computing kpt #:    66  of    66
     total cpu time spent up to now is       13.7 secs

     ethr =  1.00E-13,  avg # of iterations = 40.7

     total cpu time spent up to now is       13.7 secs

     End of band structure calculation

          k = 0.8443-0.0400 0.0000 (  2092 PWs)   bands (ev):

    -2.6334  -0.2024   3.5632   3.5759   6.9782   7.5332  15.3077  15.4316

          k = 0.8443-0.0375 0.0000 (  2092 PWs)   bands (ev):

    -2.6340  -0.2022   3.5665   3.5776   6.9731   7.5289  15.3221  15.4316

          k = 0.8443-0.0350 0.0000 (  2092 PWs)   bands (ev):

    -2.6345  -0.2020   3.5695   3.5792   6.9683   7.5249  15.3357  15.4316

          k = 0.8443-0.0325 0.0000 (  2092 PWs)   bands (ev):

    -2.6350  -0.2019   3.5723   3.5807   6.9638   7.5211  15.3485  15.4316

          k = 0.8443-0.0300 0.0000 (  2092 PWs)   bands (ev):

    -2.6354  -0.2017   3.5749   3.5821   6.9596   7.5176  15.3604  15.4316

          k = 0.8443-0.0275 0.0000 (  2090 PWs)   bands (ev):

    -2.6358  -0.2016   3.5774   3.5834   6.9558   7.5144  15.3715  15.4316

          k = 0.8443-0.0250 0.0000 (  2090 PWs)   bands (ev):

    -2.6362  -0.2015   3.5796   3.5845   6.9523   7.5115  15.3818  15.4316

          k = 0.8443-0.0225 0.0000 (  2090 PWs)   bands (ev):

    -2.6365  -0.2014   3.5816   3.5856   6.9491   7.5089  15.3911  15.4316

          k = 0.8443-0.0200 0.0000 (  2090 PWs)   bands (ev):

    -2.6368  -0.2013   3.5834   3.5866   6.9463   7.5065  15.3995  15.4316

          k = 0.8443-0.0175 0.0000 (  2090 PWs)   bands (ev):

    -2.6371  -0.2012   3.5850   3.5874   6.9438   7.5044  15.4069  15.4316

          k = 0.8443-0.0150 0.0000 (  2090 PWs)   bands (ev):

    -2.6373  -0.2011   3.5864   3.5882   6.9416   7.5026  15.4134  15.4316

          k = 0.8443-0.0125 0.0000 (  2090 PWs)   bands (ev):

    -2.6375  -0.2010   3.5875   3.5888   6.9397   7.5010  15.4189  15.4316

          k = 0.8443-0.0100 0.0000 (  2088 PWs)   bands (ev):

    -2.6377  -0.2010   3.5885   3.5893   6.9382   7.4998  15.4235  15.4316

          k = 0.8443-0.0075 0.0000 (  2088 PWs)   bands (ev):

    -2.6378  -0.2010   3.5892   3.5897   6.9370   7.4988  15.4270  15.4316

          k = 0.8443-0.0050 0.0000 (  2088 PWs)   bands (ev):

    -2.6379  -0.2009   3.5898   3.5900   6.9362   7.4981  15.4296  15.4316

          k = 0.8443-0.0025 0.0000 (  2088 PWs)   bands (ev):

    -2.6379  -0.2009   3.5901   3.5901   6.9357   7.4977  15.4311  15.4316

          k = 0.8443 0.0000 0.0000 (  2088 PWs)   bands (ev):

    -2.6380  -0.2009   3.5902   3.5902   6.9355   7.4975  15.4316  15.4316

          k = 0.8443 0.0025 0.0000 (  2088 PWs)   bands (ev):

    -2.6379  -0.2009   3.5901   3.5901   6.9357   7.4977  15.4311  15.4316

          k = 0.8443 0.0050 0.0000 (  2088 PWs)   bands (ev):

    -2.6379  -0.2009   3.5898   3.5900   6.9362   7.4981  15.4296  15.4316

          k = 0.8443 0.0075 0.0000 (  2088 PWs)   bands (ev):

    -2.6378  -0.2010   3.5892   3.5897   6.9370   7.4988  15.4270  15.4316

          k = 0.8443 0.0100 0.0000 (  2088 PWs)   bands (ev):

    -2.6377  -0.2010   3.5885   3.5893   6.9382   7.4998  15.4235  15.4316

          k = 0.8443 0.0125 0.0000 (  2090 PWs)   bands (ev):

    -2.6375  -0.2010   3.5875   3.5888   6.9397   7.5010  15.4189  15.4316

          k = 0.8443 0.0150 0.0000 (  2090 PWs)   bands (ev):

    -2.6373  -0.2011   3.5864   3.5882   6.9416   7.5026  15.4134  15.4316

          k = 0.8443 0.0175 0.0000 (  2090 PWs)   bands (ev):

    -2.6371  -0.2012   3.5850   3.5874   6.9438   7.5044  15.4069  15.4316

          k = 0.8443 0.0200 0.0000 (  2090 PWs)   bands (ev):

    -2.6368  -0.2013   3.5834   3.5866   6.9463   7.5065  15.3995  15.4316

          k = 0.8443 0.0225 0.0000 (  2090 PWs)   bands (ev):

    -2.6365  -0.2014   3.5816   3.5856   6.9491   7.5089  15.3911  15.4316

          k = 0.8443 0.0250 0.0000 (  2090 PWs)   bands (ev):

    -2.6362  -0.2015   3.5796   3.5845   6.9523   7.5115  15.3818  15.4316

          k = 0.8443 0.0275 0.0000 (  2090 PWs)   bands (ev):

    -2.6358  -0.2016   3.5774   3.5834   6.9558   7.5144  15.3715  15.4316

          k = 0.8443 0.0300 0.0000 (  2092 PWs)   bands (ev):

    -2.6354  -0.2017   3.5749   3.5821   6.9596   7.5176  15.3604  15.4316

          k = 0.8443 0.0325 0.0000 (  2092 PWs)   bands (ev):

    -2.6350  -0.2019   3.5723   3.5807   6.9638   7.5211  15.3485  15.4316

          k = 0.8443 0.0350 0.0000 (  2092 PWs)   bands (ev):

    -2.6345  -0.2020   3.5695   3.5792   6.9683   7.5249  15.3357  15.4316

          k = 0.8443 0.0375 0.0000 (  2092 PWs)   bands (ev):

    -2.6340  -0.2022   3.5665   3.5776   6.9731   7.5289  15.3221  15.4316

          k = 0.8443 0.0400 0.0000 (  2092 PWs)   bands (ev):

    -2.6334  -0.2024   3.5632   3.5759   6.9782   7.5332  15.3077  15.4316

          k = 0.8443 0.0000-0.0400 (  2092 PWs)   bands (ev):

    -2.6334  -0.2024   3.5632   3.5759   6.9782   7.5332  15.3077  15.4316

          k = 0.8443 0.0000-0.0375 (  2092 PWs)   bands (ev):

    -2.6340  -0.2022   3.5665   3.5776   6.9731   7.5289  15.3221  15.4316

          k = 0.8443 0.0000-0.0350 (  2092 PWs)   bands (ev):

    -2.6345  -0.2020   3.5695   3.5792   6.9683   7.5249  15.3357  15.4316

          k = 0.8443 0.0000-0.0325 (  2092 PWs)   bands (ev):

    -2.6350  -0.2019   3.5723   3.5807   6.9638   7.5211  15.3485  15.4316

          k = 0.8443 0.0000-0.0300 (  2092 PWs)   bands (ev):

    -2.6354  -0.2017   3.5749   3.5821   6.9596   7.5176  15.3604  15.4316

          k = 0.8443 0.0000-0.0275 (  2090 PWs)   bands (ev):

    -2.6358  -0.2016   3.5774   3.5834   6.9558   7.5144  15.3715  15.4316

          k = 0.8443 0.0000-0.0250 (  2090 PWs)   bands (ev):

    -2.6362  -0.2015   3.5796   3.5845   6.9523   7.5115  15.3818  15.4316

          k = 0.8443 0.0000-0.0225 (  2090 PWs)   bands (ev):

    -2.6365  -0.2014   3.5816   3.5856   6.9491   7.5089  15.3911  15.4316

          k = 0.8443 0.0000-0.0200 (  2090 PWs)   bands (ev):

    -2.6368  -0.2013   3.5834   3.5866   6.9463   7.5065  15.3995  15.4316

          k = 0.8443 0.0000-0.0175 (  2090 PWs)   bands (ev):

    -2.6371  -0.2012   3.5850   3.5874   6.9438   7.5044  15.4069  15.4316

          k = 0.8443 0.0000-0.0150 (  2090 PWs)   bands (ev):

    -2.6373  -0.2011   3.5864   3.5882   6.9416   7.5026  15.4134  15.4316

          k = 0.8443 0.0000-0.0125 (  2090 PWs)   bands (ev):

    -2.6375  -0.2010   3.5875   3.5888   6.9397   7.5010  15.4189  15.4316

          k = 0.8443 0.0000-0.0100 (  2088 PWs)   bands (ev):

    -2.6377  -0.2010   3.5885   3.5893   6.9382   7.4998  15.4235  15.4316

          k = 0.8443 0.0000-0.0075 (  2088 PWs)   bands (ev):

    -2.6378  -0.2010   3.5892   3.5897   6.9370   7.4988  15.4270  15.4316

          k = 0.8443 0.0000-0.0050 (  2088 PWs)   bands (ev):

    -2.6379  -0.2009   3.5898   3.5900   6.9362   7.4981  15.4296  15.4316

          k = 0.8443 0.0000-0.0025 (  2088 PWs)   bands (ev):

    -2.6379  -0.2009   3.5901   3.5901   6.9357   7.4977  15.4311  15.4316

          k = 0.8443 0.0000 0.0000 (  2088 PWs)   bands (ev):

    -2.6380  -0.2009   3.5902   3.5902   6.9355   7.4975  15.4316  15.4316

          k = 0.8443 0.0000 0.0025 (  2088 PWs)   bands (ev):

    -2.6379  -0.2009   3.5901   3.5901   6.9357   7.4977  15.4311  15.4316

          k = 0.8443 0.0000 0.0050 (  2088 PWs)   bands (ev):

    -2.6379  -0.2009   3.5898   3.5900   6.9362   7.4981  15.4296  15.4316

          k = 0.8443 0.0000 0.0075 (  2088 PWs)   bands (ev):

    -2.6378  -0.2010   3.5892   3.5897   6.9370   7.4988  15.4270  15.4316

          k = 0.8443 0.0000 0.0100 (  2088 PWs)   bands (ev):

    -2.6377  -0.2010   3.5885   3.5893   6.9382   7.4998  15.4235  15.4316

          k = 0.8443 0.0000 0.0125 (  2090 PWs)   bands (ev):

    -2.6375  -0.2010   3.5875   3.5888   6.9397   7.5010  15.4189  15.4316

          k = 0.8443 0.0000 0.0150 (  2090 PWs)   bands (ev):

    -2.6373  -0.2011   3.5864   3.5882   6.9416   7.5026  15.4134  15.4316

          k = 0.8443 0.0000 0.0175 (  2090 PWs)   bands (ev):

    -2.6371  -0.2012   3.5850   3.5874   6.9438   7.5044  15.4069  15.4316

          k = 0.8443 0.0000 0.0200 (  2090 PWs)   bands (ev):

    -2.6368  -0.2013   3.5834   3.5866   6.9463   7.5065  15.3995  15.4316

          k = 0.8443 0.0000 0.0225 (  2090 PWs)   bands (ev):

    -2.6365  -0.2014   3.5816   3.5856   6.9491   7.5089  15.3911  15.4316

          k = 0.8443 0.0000 0.0250 (  2090 PWs)   bands (ev):

    -2.6362  -0.2015   3.5796   3.5845   6.9523   7.5115  15.3818  15.4316

          k = 0.8443 0.0000 0.0275 (  2090 PWs)   bands (ev):

    -2.6358  -0.2016   3.5774   3.5834   6.9558   7.5144  15.3715  15.4316

          k = 0.8443 0.0000 0.0300 (  2092 PWs)   bands (ev):

    -2.6354  -0.2017   3.5749   3.5821   6.9596   7.5176  15.3604  15.4316

          k = 0.8443 0.0000 0.0325 (  2092 PWs)   bands (ev):

    -2.6350  -0.2019   3.5723   3.5807   6.9638   7.5211  15.3485  15.4316

          k = 0.8443 0.0000 0.0350 (  2092 PWs)   bands (ev):

    -2.6345  -0.2020   3.5695   3.5792   6.9683   7.5249  15.3357  15.4316

          k = 0.8443 0.0000 0.0375 (  2092 PWs)   bands (ev):

    -2.6340  -0.2022   3.5665   3.5776   6.9731   7.5289  15.3221  15.4316

          k = 0.8443 0.0000 0.0400 (  2092 PWs)   bands (ev):

    -2.6334  -0.2024   3.5632   3.5759   6.9782   7.5332  15.3077  15.4316

     Writing all to output data dir ./tmp/si.save/ :
     XML data file, pseudopotentials, collected wavefunctions

     init_run     :      0.76s CPU      0.80s WALL (       1 calls)
     electrons    :     12.20s CPU     12.70s WALL (       1 calls)

     Called by init_run:
     wfcinit      :      0.00s CPU      0.00s WALL (       1 calls)
     wfcinit:atom :      0.01s CPU      0.01s WALL (      66 calls)
     wfcinit:wfcr :      0.31s CPU      0.32s WALL (      66 calls)
     potinit      :      0.15s CPU      0.16s WALL (       1 calls)
     hinit0       :      0.31s CPU      0.32s WALL (       1 calls)

     Called by electrons:
     c_bands      :     12.19s CPU     12.69s WALL (       1 calls)
     v_of_rho     :      0.02s CPU      0.03s WALL (       1 calls)
     v_h          :      0.00s CPU      0.00s WALL (       1 calls)
     v_xc         :      0.02s CPU      0.03s WALL (       1 calls)
     newd         :      0.07s CPU      0.09s WALL (       1 calls)

     Called by c_bands:
     init_us_2    :      0.01s CPU      0.02s WALL (      66 calls)
     cegterg      :     11.79s CPU     12.26s WALL (     171 calls)

     Called by sum_band:

     Called by *egterg:
     cdiaghg      :      0.34s CPU      0.35s WALL (    2752 calls)
     cegterg:over :      0.95s CPU      0.96s WALL (    2686 calls)
     cegterg:upda :      0.46s CPU      0.47s WALL (    2686 calls)
     cegterg:last :      1.15s CPU      1.15s WALL (    1991 calls)
     h_psi        :      7.78s CPU      8.23s WALL (    2923 calls)
     s_psi        :      1.15s CPU      1.17s WALL (    2923 calls)
     g_psi        :      0.04s CPU      0.04s WALL (    2686 calls)

     Called by h_psi:
     h_psi:calbec :      1.10s CPU      1.17s WALL (    2923 calls)
     vloc_psi     :      5.56s CPU      5.91s WALL (    2923 calls)
                                        0.00s GPU  (    2923 calls)
     add_vuspsi   :      1.09s CPU      1.12s WALL (    2923 calls)

     General routines
     calbec       :      1.09s CPU      1.16s WALL (    2923 calls)
     fft          :      0.20s CPU      0.20s WALL (      13 calls)
     ffts         :      0.12s CPU      0.12s WALL (       1 calls)
     fftw         :      5.01s CPU      5.32s WALL (   34138 calls)
     interpolate  :      0.12s CPU      0.12s WALL (       1 calls)
     davcio       :      0.00s CPU      0.00s WALL (     132 calls)

     Parallel routines

     PWSCF        :     13.14s CPU     13.71s WALL


   This run was terminated on:  21:47:48  22Sep2026            

=------------------------------------------------------------------------------=
   JOB DONE.
=------------------------------------------------------------------------------=
