8
Lattice="-3.956067800811 0.000000000000 3.956067800811 0.000000000000 3.956067800811 3.956067800811 -3.956067800811 3.956067800811 0.000000000000" Properties=species:S:1:pos:R:3 pbc="T T T" time_fs=0.0
Al 0.0000000000 0.0000000000 0.0000000000
Al -1.9780339004 0.0000000000 1.9780339004
Al 0.0000000000 1.9780339004 1.9780339004
Al -1.9780339004 1.9780339004 3.9560678008
Al -1.9780339004 1.9780339004 0.0000000000
Al -3.9560678008 1.9780339004 1.9780339004
Al -1.9780339004 3.9560678008 1.9780339004
Al -3.9560678008 3.9560678008 3.9560678008
8
Lattice="-3.956067800811 0.000000000000 3.956067800811 0.000000000000 3.956067800811 3.956067800811 -3.956067800811 3.956067800811 0.000000000000" Properties=species:S:1:pos:R:3 pbc="T T T" time_fs=0.48377686529999997
Al -0.0015699920 0.0028916569 0.0018658181
Al -1.9770646088 -0.0001184538 1.9796467473
Al -0.0019177078 1.9750556638 1.9760340571
Al -1.9777360231 1.9785228993 3.9555218484
Al -1.9763320534 1.9789702755 0.0001624183
Al -3.9545344610 1.9782198953 1.9771451302
Al -1.9788325735 3.9547791584 1.9786534697
Al -3.9562837835 3.9559501078 3.9552417141
8
Lattice="-3.956067800811 0.000000000000 3.956067800811 0.000000000000 3.956067800811 3.956067800811 -3.956067800811 3.956067800811 0.000000000000" Properties=species:S:1:pos:R:3 pbc="T T T" time_fs=0.9675537305999999
Al -0.0031391964 0.0057816499 0.0037301925
Al -1.9760967394 -0.0002375872 1.9812591689
Al -0.0038340559 1.9720793537 1.9740356059
Al -1.9774380723 1.9790118942 3.9549765567
Al -1.9746316920 1.9799065383 0.0003241187
Al -3.9530016746 1.9784054274 1.9762562504
Al -1.9796305512 3.9534913052 1.9792728289
Al -3.9564992223 3.9558326229 3.9544164815
8
Lattice="-3.956067800811 0.000000000000 3.956067800811 0.000000000000 3.956067800811 3.956067800811 -3.956067800811 3.956067800811 0.000000000000" Properties=species:S:1:pos:R:3 pbc="T T T" time_fs=1.4513305959
Al -0.0047068270 0.0086683166 0.0055916799
Al -1.9751317128 -0.0003580783 1.9828707424
Al -0.0057476870 1.9691068942 1.9720399379
Al -1.9771399739 1.9795008796 3.9544325851
Al -1.9729342988 1.9808425784 0.0004843853
Al -3.9514699924 1.9785900329 1.9753671511
Al -1.9804271383 3.9522050274 1.9798917660
Al -3.9567135731 3.9557155521 3.9535929560
8
Lattice="-3.956067800811 0.000000000000 3.956067800811 0.000000000000 3.956067800811 3.956067800811 -3.956067800811 3.956067800811 0.000000000000" Properties=species:S:1:pos:R:3 pbc="T T T" time_fs=1.9351074611999999
Al -0.0062720982 0.0115499959 0.0074488389
Al -1.9741709470 -0.0004806041 1.9844810440
Al -0.0076572462 1.9661402096 1.9700484438
Al -1.9768416559 1.9799898511 3.9538905923
Al -1.9712413545 1.9817782842 0.0006425026
Al -3.9499399653 1.9787732503 1.9744777230
Al -1.9812216425 3.9509211137 1.9805100713
Al -3.9569262944 3.9555991033 3.9527719881
8
Lattice="-3.956067800811 0.000000000000 3.956067800811 0.000000000000 3.956067800811 3.956067800811 -3.956067800811 3.956067800811 0.000000000000" Properties=species:S:1:pos:R:3 pbc="T T T" time_fs=2.4188843264999997
Al -0.0078342252 0.0144250262 0.0093002272
Al -1.9732158545 -0.0006058393 1.9860896508
Al -0.0095613807 1.9631812197 1.9680625136
Al -1.9765430452 1.9804788029 3.9533512359
Al -1.9695543365 1.9827135449 0.0007977569
Al -3.9484121450 1.9789546190 1.9735878578
Al -1.9820133703 3.9496403474 1.9811275324
Al -3.9571368455 3.9554834821 3.9519544279
8
Lattice="-3.956067800811 0.000000000000 3.956067800811 0.000000000000 3.956067800811 3.956067800811 -3.956067800811 3.956067800811 0.000000000000" Properties=species:S:1:pos:R:3 pbc="T T T" time_fs=2.9026611918
Al -0.0093924262 0.0172917496 0.0111444052
Al -1.9722678449 -0.0007344547 1.9876961419
Al -0.0114587433 1.9602318437 1.9660835382
Al -1.9762440693 1.9809677266 3.9528151693
Al -1.9678747167 1.9836482509 0.0009494393
Al -3.9468870813 1.9791336797 1.9726974498
Al -1.9828016319 3.9483635131 1.9817439376
Al -3.9573446897 3.9553688942 3.9511411221
8
Lattice="-3.956067800811 0.000000000000 3.956067800811 0.000000000000 3.956067800811 3.956067800811 -3.956067800811 3.956067800811 0.000000000000" Properties=species:S:1:pos:R:3 pbc="T T T" time_fs=3.3864380571
Al -0.0109459210 0.0201485089 0.0129799348
Al -1.9713283180 -0.0008671178 1.9893000947
Al -0.0133479919 1.9572939958 1.9641129061
Al -1.9759446563 1.9814566139 3.9522830450
Al -1.9662039617 1.9845822916 0.0010968420
Al -3.9453653228 1.9793099756 1.9718063930
Al -1.9835857399 3.9470913920 1.9823590757
Al -3.9575492920 3.9552555437 3.9503329120
8
Lattice="-3.956067800811 0.000000000000 3.956067800811 0.000000000000 3.956067800811 3.956067800811 -3.956067800811 3.956067800811 0.000000000000" Properties=species:S:1:pos:R:3 pbc="T T T" time_fs=3.8702149223999998
Al -0.0124939323 0.0229936483 0.0148053784
Al -1.9703986666 -0.0010044923 1.9909010893
Al -0.0152277907 1.9543695870 1.9621520067
Al -1.9756447353 1.9819454537 3.9517555120
Al -1.9645435284 1.9855155577 0.0012392620
Al -3.9438474188 1.9794830512 1.9709145841
Al -1.9843650093 3.9458247631 1.9829727342
Al -3.9577501222 3.9551436345 3.9495306369
8
Lattice="-3.956067800811 0.000000000000 3.956067800811 0.000000000000 3.956067800811 3.956067800811 -3.956067800811 3.956067800811 0.000000000000" Properties=species:S:1:pos:R:3 pbc="T T T" time_fs=4.3539917877
Al -0.0140356863 0.0258255168 0.0166193024
Al -1.9694802734 -0.0011472347 1.9924987065
Al -0.0170968116 1.9514605214 1.9602022262
Al -1.9753442360 1.9824342342 3.9512332146
Al -1.9628948676 1.9864479404 0.0013760015
Al -3.9423339154 1.9796524555 1.9700219224
Al -1.9851387588 3.9445644026 1.9835846995
Al -3.9579466541 3.9550333674 3.9487351298
8
Lattice="-3.956067800811 0.000000000000 3.956067800811 0.000000000000 3.956067800811 3.956067800811 -3.956067800811 3.956067800811 0.000000000000" Properties=species:S:1:pos:R:3 pbc="T T T" time_fs=4.8377686529999995
Al -0.0155704135 0.0286424653 0.0184202757
Al -1.9685745107 -0.0012959963 1.9940925291
Al -0.0189537360 1.9485686988 1.9582649521
Al -1.9750430882 1.9829229388 3.9507167938
Al -1.9612594189 1.9873793312 0.0015063678
Al -3.9408253592 1.9798177400 1.9691283099
Al -1.9859063096 3.9433110824 1.9841947576
Al -3.9581383671 3.9549249435 3.9479472176
8
Lattice="-3.956067800811 0.000000000000 3.956067800811 0.000000000000 3.956067800811 3.956067800811 -3.956067800811 3.956067800811 0.000000000000" Properties=species:S:1:pos:R:3 pbc="T T T" time_fs=5.3215455183
Al -0.0170973473 0.0314428490 0.0202068696
Al -1.9676827367 -0.0014514204 1.9956821404
Al -0.0207972553 1.9456960108 1.9563415681
Al -1.9747412236 1.9834115495 3.9502068844
Al -1.9596386100 1.9883096219 0.0016296744
Al -3.9393222935 1.9799784592 1.9682336503
Al -1.9866669902 3.9420655722 1.9848026944
Al -3.9583247462 3.9548185612 3.9471677215
8
Lattice="-3.956067800811 0.000000000000 3.956067800811 0.000000000000 3.956067800811 3.956067800811 -3.956067800811 3.956067800811 0.000000000000" Properties=species:S:1:pos:R:3 pbc="T T T" time_fs=5.8053223836
Al -0.0186157280 0.0342250285 0.0219776605
Al -1.9668062963 -0.0016141437 1.9972671251
Al -0.0226260711 1.9428443414 1.9544334565
Al -1.9744385754 1.9839000464 3.9497041176
Al -1.9580338576 1.9892387061 0.0017452427
Al -3.9378252613 1.9801341732 1.9673378518
Al -1.9874201302 3.9408286344 1.9854082932
Al -3.9585052825 3.9547144170 3.9463974550
8
Lattice="-3.956067800811 0.000000000000 3.956067800811 0.000000000000 3.956067800811 3.956067800811 -3.956067800811 3.956067800811 0.000000000000" Properties=species:S:1:pos:R:3 pbc="T T T" time_fs=6.2890992488999995
Al -0.0201248002 0.0369873687 0.0237312295
Al -1.9659465194 -0.0017847923 1.9988470706
Al -0.0244388988 1.9400155666 1.9525419976
Al -1.9741350761 1.9843884031 3.9492091170
Al -1.9564465633 1.9901664760 0.0018524011
Al -3.9363348025 1.9802844453 1.9664408253
Al -1.9881650684 3.9396010310 1.9860113392
Al -3.9586794745 3.9546127053 3.9456372226
8
Lattice="-3.956067800811 0.000000000000 3.956067800811 0.000000000000 3.956067800811 3.956067800811 -3.956067800811 3.956067800811 0.000000000000" Properties=species:S:1:pos:R:3 pbc="T T T" time_fs=6.7728761142
Al -0.0216238148 0.0397282400 0.0254661618
Al -1.9651047172 -0.0019639835 2.0004215646
Al -0.0262344658 1.9372115505 1.9506685677
Al -1.9738306614 1.9848765930 3.9487225001
Al -1.9548781142 1.9910928256 0.0019504866
Al -3.9348514551 1.9804288449 1.9655424870
Al -1.9889011467 3.9383835151 1.9866116140
Al -3.9588468285 3.9545136172 3.9448878215
8
Lattice="-3.956067800811 0.000000000000 3.956067800811 0.000000000000 3.956067800811 3.956067800811 -3.956067800811 3.956067800811 0.000000000000" Properties=species:S:1:pos:R:3 pbc="T T T" time_fs=7.2566529795
Al -0.0231120285 0.0424460214 0.0271810496
Al -1.9642821842 -0.0021523244 2.0019901973
Al -0.0280115156 1.9344341488 1.9488145399
Al -1.9735252676 1.9853645834 3.9482448773
Al -1.9533298806 1.9920176486 0.0020388462
Al -3.9333757556 1.9805669473 1.9646427569
Al -1.9896277141 3.9371768361 1.9872088987
Al -3.9590068577 3.9544173428 3.9441500382
8
Lattice="-3.956067800811 0.000000000000 3.956067800811 0.000000000000 3.956067800811 3.956067800811 -3.956067800811 3.956067800811 0.000000000000" Properties=species:S:1:pos:R:3 pbc="T T T" time_fs=7.7404298447999995
Al -0.0245887064 0.0451390980 0.0288744923
Al -1.9634801940 -0.0023504091 2.0035525601
Al -0.0297688065 1.9316852023 1.9469812830
Al -1.9732188326 1.9858523381 3.9477768519
Al -1.9518032150 1.9929408386 0.0021168357
Al -3.9319082364 1.9806983322 1.9637415583
Al -1.9903441267 3.9359817361 1.9878029735
Al -3.9591590852 3.9543240674 3.9434246484
8
Lattice="-3.956067800811 0.000000000000 3.956067800811 0.000000000000 3.956067800811 3.956067800811 -3.956067800811 3.956067800811 0.000000000000" Properties=species:S:1:pos:R:3 pbc="T T T" time_fs=8.224206710099999
Al -0.0260531193 0.0478058627 0.0305450954
Al -1.9626999996 -0.0025588207 2.0051082461
Al -0.0315051152 1.9289665399 1.9451701616
Al -1.9729112974 1.9863398171 3.9473190190
Al -1.9502994523 1.9938622895 0.0021838238
Al -3.9304494281 1.9808225884 1.9628388220
Al -1.9910497484 3.9347989525 1.9883936176
Al -3.9593030430 3.9542339739 3.9427124178
8
Lattice="-3.956067800811 0.000000000000 3.956067800811 0.000000000000 3.956067800811 3.956067800811 -3.956067800811 3.956067800811 0.000000000000" Properties=species:S:1:pos:R:3 pbc="T T T" time_fs=8.7079835754
Al -0.0275045479 0.0504447190 0.0321914743
Al -1.9619428308 -0.0027781276 2.0066568509
Al -0.0332192350 1.9262799758 1.9433825332
Al -1.9726026027 1.9868269744 3.9468719631
Al -1.9488199055 1.9947818952 0.0022391898
Al -3.9289998580 1.9809393098 1.9619344827
Al -1.9917439501 3.9336292137 1.9889806082
Al -3.9594382733 3.9541472422 3.9420141002
8
Lattice="-3.956067800811 0.000000000000 3.956067800811 0.000000000000 3.956067800811 3.956067800811 -3.956067800811 3.956067800811 0.000000000000" Properties=species:S:1:pos:R:3 pbc="T T T" time_fs=9.1917604407
Al -0.0289422815 0.0530540811 0.0338122543
Al -1.9612098937 -0.0030088855 2.0081979711
Al -0.0349099797 1.9236273081 1.9416197509
Al -1.9722926930 1.9873137606 3.9464362632
Al -1.9473658678 1.9956995495 0.0022823259
Al -3.9275600491 1.9810480989 1.9610284815
Al -1.9924261123 3.9324732432 1.9895637227
Al -3.9595643270 3.9540640477 3.9413304347
8
Lattice="-3.956067800811 0.000000000000 3.956067800811 0.000000000000 3.956067800811 3.956067800811 -3.956067800811 3.956067800811 0.000000000000" Properties=species:S:1:pos:R:3 pbc="T T T" time_fs=9.675537305999999
Al -0.0303656165 0.0556323728 0.0354060702
Al -1.9605023688 -0.0032516338 2.0097312041
Al -0.0365761833 1.9210103174 1.9398831574
Al -1.9719815147 1.9878001212 3.9460124849
Al -1.9459386088 1.9966151438 0.0023126369
Al -3.9261305216 1.9811485660 1.9601207653
Al -1.9930956225 3.9313317538 1.9901427348
Al -3.9596807676 3.9539845620 3.9406621500
8
Lattice="-3.956067800811 0.000000000000 3.956067800811 0.000000000000 3.956067800811 3.956067800811 -3.956067800811 3.956067800811 0.000000000000" Properties=species:S:1:pos:R:3 pbc="T T T" time_fs=10.1593141713
Al -0.0317738623 0.0581780316 0.0369715693
Al -1.9598214092 -0.0035068970 2.0112561500
Al -0.0382167017 1.9184307662 1.9381740911
Al -1.9716690162 1.9882859955 3.9456011855
Al -1.9445393749 1.9975285718 0.0023295436
Al -3.9247117910 1.9812403298 1.9592112870
Al -1.9937518800 3.9302054526 1.9907174189
Al -3.9597871684 3.9539089525 3.9400099578
8
Lattice="-3.956067800811 0.000000000000 3.956067800811 0.000000000000 3.956067800811 3.956067800811 -3.956067800811 3.956067800811 0.000000000000" Properties=species:S:1:pos:R:3 pbc="T T T" time_fs=10.6430910366
Al -0.0331663365 0.0606895092 0.0385074117
Al -1.9591681422 -0.0037751817 2.0127724111
Al -0.0398304134 1.9158903974 1.9364938775
Al -1.9713551481 1.9887713184 3.9452029112
Al -1.9431693870 1.9984397230 0.0023324798
Al -3.9233043701 1.9813230183 1.9583000080
Al -1.9943942920 3.9290950362 1.9912875468
Al -3.9598831141 3.9538373820 3.9393745568
8
Lattice="-3.956067800811 0.000000000000 3.956067800811 0.000000000000 3.956067800811 3.956067800811 -3.956067800811 3.956067800811 0.000000000000" Properties=species:S:1:pos:R:3 pbc="T T T" time_fs=11.126867901899999
Al -0.0345423676 0.0631652698 0.0400122719
Al -1.9585436626 -0.0040569776 2.0142795894
Al -0.0414162210 1.9133909309 1.9348438336
Al -1.9710398657 1.9892560194 3.9448181978
Al -1.9418298411 1.9993484876 0.0023208960
Al -3.9219087647 1.9813962700 1.9573868953
Al -1.9950222778 3.9280011934 1.9918528895
Al -3.9599682024 3.9537700094 3.9387566297
8
Lattice="-3.956067800811 0.000000000000 3.956067800811 0.000000000000 3.956067800811 3.956067800811 -3.956067800811 3.956067800811 0.000000000000" Properties=species:S:1:pos:R:3 pbc="T T T" time_fs=11.6106447672
Al -0.0359012967 0.0656037963 0.0414848390
Al -1.9579490371 -0.0043527558 2.0157772890
Al -0.0429730515 1.9109340648 1.9332252639
Al -1.9707231243 1.9897400217 3.9444475673
Al -1.9405219053 2.0002547535 0.0022942598
Al -3.9205254781 1.9814597333 1.9564719249
Al -1.9956352669 3.9269246025 1.9924132178
Al -3.9600420420 3.9537069869 3.9381568419
8
Lattice="-3.956067800811 0.000000000000 3.956067800811 0.000000000000 3.956067800811 3.956067800811 -3.956067800811 3.956067800811 0.000000000000" Properties=species:S:1:pos:R:3 pbc="T T T" time_fs=12.0944216325
Al -0.0372424761 0.0680035870 0.0429238191
Al -1.9573853003 -0.0046629677 2.0172651159
Al -0.0444998583 1.9085214731 1.9316394606
Al -1.9704048855 1.9902232443 3.9440915323
Al -1.9392467191 2.0011584064 0.0022520549
Al -3.9191550072 1.9815130658 1.9555550789
Al -1.9962327008 3.9258659319 1.9929682989
Al -3.9601042559 3.9536484632 3.9375758435
8
Lattice="-3.956067800811 0.000000000000 3.956067800811 0.000000000000 3.956067800811 3.956067800811 -3.956067800811 3.956067800811 0.000000000000" Properties=species:S:1:pos:R:3 pbc="T T T" time_fs=12.578198497799999
Al -0.0385652712 0.0703631603 0.0443279371
Al -1.9568534524 -0.0049880457 2.0187426760
Al -0.0459956222 1.9061548022 1.9300877017
Al -1.9700851110 1.9907055990 3.9437505904
Al -1.9380053929 2.0020593300 0.0021937832
Al -3.9177978437 1.9815559385 1.9546363490
Al -1.9968140323 3.9248258401 1.9935179007
Al -3.9601544774 3.9535945792 3.9370142654
8
Lattice="-3.956067800811 0.000000000000 3.956067800811 0.000000000000 3.956067800811 3.956067800811 -3.956067800811 3.956067800811 0.000000000000" Properties=species:S:1:pos:R:3 pbc="T T T" time_fs=13.0619753631
Al -0.0398690586 0.0726810533 0.0456959359
Al -1.9563544609 -0.0053284004 2.0202095772
Al -0.0474593511 1.9038356726 1.9285712500
Al -1.9697637688 1.9911869931 3.9434252280
Al -1.9367990070 2.0029574057 0.0021189664
Al -3.9164544735 1.9815880321 1.9537157348
Al -1.9973787278 3.9238049748 1.9940617900
Al -3.9601923560 3.9535454725 3.9364727217
8
Lattice="-3.956067800811 0.000000000000 3.956067800811 0.000000000000 3.956067800811 3.956067800811 -3.956067800811 3.956067800811 0.000000000000" Properties=species:S:1:pos:R:3 pbc="T T T" time_fs=13.5457522284
Al -0.0411532311 0.0749558263 0.0470265802
Al -1.9558892582 -0.0056844208 2.0216654280
Al -0.0488900828 1.9015656749 1.9270913511
Al -1.9694408286 1.9916673282 3.9431159177
Al -1.9356286103 2.0038525115 0.0020271445
Al -3.9151253759 1.9816090404 1.9527932443
Al -1.9979262650 3.9228039702 1.9945997314
Al -3.9602175518 3.9535012726 3.9359518065
8
Lattice="-3.956067800811 0.000000000000 3.956067800811 0.000000000000 3.956067800811 3.956067800811 -3.956067800811 3.956067800811 0.000000000000" Properties=species:S:1:pos:R:3 pbc="T T T" time_fs=14.029529093699999
Al -0.0424171936 0.0771860623 0.0483186581
Al -1.9554587403 -0.0060564740 2.0231098378
Al -0.0502868841 1.8993463676 1.9256492314
Al -1.9691162645 1.9921464994 3.9428231172
Al -1.9344952182 2.0047445225 0.0019178787
Al -3.9138110254 1.9816186707 1.9518688960
Al -1.9984561367 3.9218234521 1.9951314898
Al -3.9602297408 3.9534621035 3.9354520946
8
Lattice="-3.956067800811 0.000000000000 3.956067800811 0.000000000000 3.956067800811 3.956067800811 -3.956067800811 3.956067800811 0.000000000000" Properties=species:S:1:pos:R:3 pbc="T T T" time_fs=14.513305959
Al -0.0436603669 0.0793703679 0.0495709802
Al -1.9550637653 -0.0064449036 2.0245424173
Al -0.0516488542 1.8971792775 1.9242460996
Al -1.9687900547 1.9926243967 3.9425472709
Al -1.9333998151 2.0056333097 0.0017907505
Al -3.9125118876 1.9816166412 1.9509427157
Al -1.9989678486 3.9208640309 1.9956568283
Al -3.9602286113 3.9534280825 3.9349741407
8
Lattice="-3.956067800811 0.000000000000 3.956067800811 0.000000000000 3.956067800811 3.956067800811 -3.956067800811 3.956067800811 0.000000000000" Properties=species:S:1:pos:R:3 pbc="T T T" time_fs=14.9970828243
Al -0.0448821858 0.0815073772 0.0507823828
Al -1.9547051537 -0.0068500299 2.0259627762
Al -0.0529751224 1.8950658971 1.9228831405
Al -1.9684621817 1.9931009047 3.9422888091
Al -1.9323433484 2.0065187414 0.0016453634
Al -3.9112284225 1.9816026854 1.9500147408
Al -1.9994609214 3.9199263067 1.9961755103
Al -3.9602138675 3.9533993207 3.9345184800
8
Lattice="-3.956067800811 0.000000000000 3.956067800811 0.000000000000 3.956067800811 3.956067800811 -3.956067800811 3.956067800811 0.000000000000" Properties=species:S:1:pos:R:3 pbc="T T T" time_fs=15.480859689599999
Al -0.0460821015 0.0835957526 0.0519517312
Al -1.9543836872 -0.0072721483 2.0273705263
Al -0.0542648515 1.8930076816 1.9215615168
Al -1.9681326322 1.9935759022 3.9420481465
Al -1.9313267319 2.0074006798 0.0014813425
Al -3.9099610827 1.9815765504 1.9490850170
Al -1.9999348907 3.9190108655 1.9966872989
Al -3.9601852259 3.9533759202 3.9340856244
8
Lattice="-3.956067800811 0.000000000000 3.956067800811 0.000000000000 3.956067800811 3.956067800811 -3.956067800811 3.956067800811 0.000000000000" Properties=species:S:1:pos:R:3 pbc="T T T" time_fs=15.9646365549
Al -0.0472595808 0.0856341842 0.0530779172
Al -1.9541001068 -0.0077115289 2.0287652792
Al -0.0555172381 1.8910060497 1.9202823673
Al -1.9678013961 1.9940492619 3.9418256814
Al -1.9303508416 2.0082789823 0.0012983360
Al -3.9087103129 1.9815379974 1.9481536012
Al -2.0003893080 3.9181182793 1.9971919559
Al -3.9601424185 3.9533579770 3.9336760650
8
Lattice="-3.956067800811 0.000000000000 3.956067800811 0.000000000000 3.956067800811 3.956067800811 -3.956067800811 3.956067800811 0.000000000000" Properties=species:S:1:pos:R:3 pbc="T T T" time_fs=16.448413420199998
Al -0.0484141077 0.0876213961 0.0541598654
Al -1.9538551123 -0.0081684180 2.0301466459
Al -0.0567315128 1.8890623798 1.9190468027
Al -1.9674684709 1.9945208525 3.9416217987
Al -1.9294165188 2.0091535035 0.0010960163
Al -3.9074765491 1.9814868019 1.9472205595
Al -2.0008237385 3.9172491071 1.9976892431
Al -3.9600851928 3.9533455803 3.9332902713
8
Lattice="-3.956067800811 0.000000000000 3.956067800811 0.000000000000 3.956067800811 3.956067800811 -3.956067800811 3.956067800811 0.000000000000" Properties=species:S:1:pos:R:3 pbc="T T T" time_fs=16.9321902855
Al -0.0495451823 0.0895561431 0.0551965320
Al -1.9536493631 -0.0086430326 2.0315142388
Al -0.0579069416 1.8871780078 1.9178559060
Al -1.9671338556 1.9949905363 3.9414368656
Al -1.9285245648 2.0100240892 0.0008740793
Al -3.9062602196 1.9814227559 1.9462859689
Al -2.0012377663 3.9164038936 1.9981789232
Al -3.9600133099 3.9533388099 3.9329286894
8
Lattice="-3.956067800811 0.000000000000 3.956067800811 0.000000000000 3.956067800811 3.956067800811 -3.956067800811 3.956067800811 0.000000000000" Properties=species:S:1:pos:R:3 pbc="T T T" time_fs=17.4159671508
Al -0.0506523235 0.0914372166 0.0561869071
Al -1.9534834741 -0.0091355650 2.0328676685
Al -0.0590428252 1.8853542261 1.9167107300
Al -1.9667975562 1.9954581708 3.9412712337
Al -1.9276757434 2.0108905824 0.0006322457
Al -3.9050617451 1.9813456668 1.9453499182
Al -2.0016309895 3.9155831673 1.9986607580
Al -3.9599265458 3.9533377386 3.9325917420
8
Lattice="-3.956067800811 0.000000000000 3.956067800811 0.000000000000 3.956067800811 3.956067800811 -3.956067800811 3.956067800811 0.000000000000" Properties=species:S:1:pos:R:3 pbc="T T T" time_fs=17.899744016099998
Al -0.0517350664 0.0932634435 0.0571300166
Al -1.9533580193 -0.0096461790 2.0342065478
Al -0.0601385021 1.8835922833 1.9156122954
Al -1.9664595830 1.9959236081 3.9411252378
Al -1.9268707777 2.0117528169 0.0003702614
Al -3.9038815358 1.9812553561 1.9444125054
Al -2.0020030261 3.9147874439 1.9991345106
Al -3.9598246925 3.9533424305 3.9322798286
8
Lattice="-3.956067800811 0.000000000000 3.956067800811 0.000000000000 3.956067800811 3.956067800811 -3.956067800811 3.956067800811 0.000000000000" Properties=species:S:1:pos:R:3 pbc="T T T" time_fs=18.3835208814
Al -0.0527929668 0.0950336905 0.0580249254
Al -1.9532735260 -0.0101750111 2.0355304867
Al -0.0611933476 1.8818933797 1.9145615899
Al -1.9661199518 1.9963866955 3.9409991959
Al -1.9261103519 2.0126106217 0.0000878975
Al -3.9027199935 1.9811516644 1.9434738401
Al -2.0023535087 3.9140172208 1.9995999435
Al -3.9597075569 3.9533529414 3.9319933239
8
Lattice="-3.956067800811 0.000000000000 3.956067800811 0.000000000000 3.956067800811 3.956067800811 -3.956067800811 3.956067800811 0.000000000000" Properties=species:S:1:pos:R:3 pbc="T T T" time_fs=18.8672977467
Al -0.0538255978 0.0967468633 0.0588707367
Al -1.9532304788 -0.0107221689 2.0368390969
Al -0.0622067755 1.8802586672 1.9135595646
Al -1.9657786828 1.9968472760 3.9408934087
Al -1.9253951083 2.0134638182 -0.0002150471
Al -3.9015775104 1.9810344473 1.9425340433
Al -2.0026820895 3.9132729820 2.0000568215
Al -3.9595749605 3.9533693187 3.9317325787
8
Lattice="-3.956067800811 0.000000000000 3.956067800811 0.000000000000 3.956067800811 3.956067800811 -3.956067800811 3.956067800811 0.000000000000" Properties=species:S:1:pos:R:3 pbc="T T T" time_fs=19.351074611999998
Al -0.0548325520 0.0984019103 0.0596665951
Al -1.9532293165 -0.0112877319 2.0381319877
Al -0.0631782358 1.8786892468 1.9126071337
Al -1.9654358025 1.9973051865 3.9408081598
Al -1.9247256478 2.0143122207 -0.0005387480
Al -3.9004544690 1.9809035770 1.9415932473
Al -2.0029884378 3.9125551934 2.0005049083
Al -3.9594267413 3.9533916001 3.9314979186
8
Lattice="-3.956067800811 0.000000000000 3.956067800811 0.000000000000 3.956067800811 3.956067800811 -3.956067800811 3.956067800811 0.000000000000" Properties=species:S:1:pos:R:3 pbc="T T T" time_fs=19.8348514773
Al -0.0558134416 0.0999978233 0.0604116892
Al -1.9532704311 -0.0118717492 2.0394087695
Al -0.0641072206 1.8771861670 1.9117051724
Al -1.9650913433 1.9977602612 3.9407437146
Al -1.9241025296 2.0151556345 -0.0008833535
Al -3.8993512427 1.9807589451 1.9406515959
Al -2.0032722430 3.9118643058 2.0009439709
Al -3.9592627516 3.9534198159 3.9312896443
8
Lattice="-3.956067800811 0.000000000000 3.956067800811 0.000000000000 3.956067800811 3.956067800811 -3.956067800811 3.956067800811 0.000000000000" Properties=species:S:1:pos:R:3 pbc="T T T" time_fs=20.3186283426
Al -0.0567678987 0.1015336396 0.0611052504
Al -1.9533541704 -0.0124742409 2.0406690504
Al -0.0649932592 1.8757504229 1.9108545138
Al -1.9647453417 1.9982123282 3.9407003213
Al -1.9235262682 2.0159938576 -0.0012489840
Al -3.8982681928 1.9806004583 1.9397092440
Al -2.0035332109 3.9112007513 2.0013737759
Al -3.9590828609 3.9534539857 3.9311080307
8
Lattice="-3.956067800811 0.000000000000 3.956067800811 0.000000000000 3.956067800811 3.956067800811 -3.956067800811 3.956067800811 0.000000000000" Properties=species:S:1:pos:R:3 pbc="T T T" time_fs=20.802405207899998
Al -0.0576955772 0.1030084447 0.0617465590
Al -1.9534808330 -0.0130951964 2.0419124390
Al -0.0658359218 1.8743829527 1.9100559495
Al -1.9643978415 1.9986612126 3.9406782097
Al -1.9229973368 2.0168266803 -0.0016357312
Al -3.8972056717 1.9804280430 1.9387663587
Al -2.0037710691 3.9105649460 2.0017940923
Al -3.9588869525 3.9534941204 3.9309533259
8
Lattice="-3.956067800811 0.000000000000 3.956067800811 0.000000000000 3.956067800811 3.956067800811 -3.956067800811 3.956067800811 0.000000000000" Properties=species:S:1:pos:R:3 pbc="T T T" time_fs=21.2861820732
Al -0.0585961492 0.1044213717 0.0623349418
Al -1.9536506718 -0.0137345761 2.0431385423
Al -0.0666348184 1.8730846381 1.9093102260
Al -1.9640488910 1.9991067342 3.9406775906
Al -1.9225161626 2.0176538818 -0.0020436607
Al -3.8961640201 1.9802416430 1.9378231186
Al -2.0039855624 3.9099572876 2.0022046902
Al -3.9586749278 3.9535402224 3.9308257542
8
Lattice="-3.956067800811 0.000000000000 3.956067800811 0.000000000000 3.956067800811 3.956067800811 -3.956067800811 3.956067800811 0.000000000000" Properties=species:S:1:pos:R:3 pbc="T T T" time_fs=21.7699589385
Al -0.0594693099 0.1057716057 0.0628697761
Al -1.9538638912 -0.0143923084 2.0443469671
Al -0.0673896006 1.8718563024 1.9086180435
Al -1.9636985456 1.9995487097 3.9406986578
Al -1.9220831298 2.0184752347 -0.0024728066
Al -3.8951435686 1.9800412199 1.9368797131
Al -2.0041764569 3.9093781561 2.0026053421
Al -3.9584467015 3.9535922835 3.9307255114
8
Lattice="-3.956067800811 0.000000000000 3.956067800811 0.000000000000 3.956067800811 3.956067800811 -3.956067800811 3.956067800811 0.000000000000" Properties=species:S:1:pos:R:3 pbc="T T T" time_fs=22.253735803799998
Al -0.0603147742 0.1070583821 0.0633504890
Al -1.9541206487 -0.0150682916 2.0455373182
Al -0.0680999596 1.8706987079 1.9079800543
Al -1.9633468654 1.9999869514 3.9407415847
Al -1.9216985771 2.0192905012 -0.0029231765
Al -3.8941446362 1.9798267551 1.9359363453
Al -2.0043435370 3.9088279126 2.0029958211
Al -3.9582022050 3.9536502846 3.9306527664
8
Lattice="-3.956067800811 0.000000000000 3.956067800811 0.000000000000 3.956067800811 3.956067800811 -3.956067800811 3.956067800811 0.000000000000" Properties=species:S:1:pos:R:3 pbc="T T T" time_fs=22.7375126691
Al -0.0611322794 0.1082809914 0.0637765626
Al -1.9544210527 -0.0157623932 2.0467092012
Al -0.0687656289 1.8696125545 1.9073968619
Al -1.9629939173 2.0004212683 3.9408065279
Al -1.9213627983 2.0200994343 -0.0033947469
Al -3.8931675298 1.9795982475 1.9349932282
Al -2.0044866094 3.9083069004 2.0033759050
Al -3.9579413874 3.9537142004 3.9306076637
8
Lattice="-3.956067800811 0.000000000000 3.956067800811 0.000000000000 3.956067800811 3.956067800811 -3.956067800811 3.956067800811 0.000000000000" Properties=species:S:1:pos:R:3 pbc="T T T" time_fs=23.2212895344
Al -0.0619215842 0.1094387777 0.0641475310
Al -1.9547651641 -0.0164744486 2.0478622190
Al -0.0693863834 1.8685984814 1.9068690188
Al -1.9626397740 2.0008514654 3.9408936231
Al -1.9210760400 2.0209017763 -0.0038874668
Al -3.8922125473 1.9793557156 1.9340505882
Al -2.0046054996 3.9078154432 2.0037453713
Al -3.9576642114 3.9537839921 3.9305903187
8
Lattice="-3.956067800811 0.000000000000 3.956067800811 0.000000000000 3.956067800811 3.956067800811 -3.956067800811 3.956067800811 0.000000000000" Properties=species:S:1:pos:R:3 pbc="T T T" time_fs=23.705066399699998
Al -0.0626824662 0.1105311430 0.0644629851
Al -1.9551529944 -0.0172042628 2.0489959734
Al -0.0699620372 1.8676570615 1.9063970243
Al -1.9622845156 2.0012773436 3.9410029886
Al -1.9208385054 2.0216972605 -0.0044012540
Al -3.8912799727 1.9790991975 1.9331086651
Al -2.0047000543 3.9073538481 2.0041040011
Al -3.9573706574 3.9538596120 3.9306008197
8
Lattice="-3.956067800811 0.000000000000 3.956067800811 0.000000000000 3.956067800811 3.956067800811 -3.956067800811 3.956067800811 0.000000000000" Properties=species:S:1:pos:R:3 pbc="T T T" time_fs=24.188843265
Al -0.0634147292 0.1115575456 0.0647225716
Al -1.9555845077 -0.0179516091 2.0501100666
Al -0.0704924478 1.8667888031 1.9059813251
Al -1.9619282274 2.0016987016 3.9411347229
Al -1.9206503497 2.0224856102 -0.0049359973
Al -3.8903700795 1.9788287492 1.9321677076
Al -2.0047701416 3.9069223997 2.0044515777
Al -3.9570607208 3.9539410029 3.9306392287
8
Lattice="-3.956067800811 0.000000000000 3.956067800811 0.000000000000 3.956067800811 3.956067800811 -3.956067800811 3.956067800811 0.000000000000" Properties=species:S:1:pos:R:3 pbc="T T T" time_fs=24.6726201303
Al -0.0641181971 0.1125175036 0.0649259965
Al -1.9560596180 -0.0187162300 2.0512040997
Al -0.0709775155 1.8659941485 1.9056223127
Al -1.9615710004 2.0021153349 3.9412889055
Al -1.9205116816 2.0232665376 -0.0054915562
Al -3.8894831275 1.9785444472 1.9312279778
Al -2.0048156494 3.9065213640 2.0047878877
Al -3.9567344137 3.9540280974 3.9307055795
8
Lattice="-3.956067800811 0.000000000000 3.956067800811 0.000000000000 3.956067800811 3.956067800811 -3.956067800811 3.956067800811 0.000000000000" Properties=species:S:1:pos:R:3 pbc="T T T" time_fs=25.156396995599998
Al -0.0647927166 0.1134105950 0.0650730238
Al -1.9565781916 -0.0194978350 2.0522776725
Al -0.0714171818 1.8652734721 1.9053203243
Al -1.9612129315 2.0025270345 3.9414655946
Al -1.9204225645 2.0240397455 -0.0060677594
Al -3.8886193648 1.9782463856 1.9302897480
Al -2.0048364880 3.9061509867 2.0051127209
Al -3.9563917640 3.9541208177 3.9307998787
8
Lattice="-3.956067800811 0.000000000000 3.956067800811 0.000000000000 3.956067800811 3.956067800811 -3.956067800811 3.956067800811 0.000000000000" Properties=species:S:1:pos:R:3 pbc="T T T" time_fs=25.6401738609
Al -0.0654381566 0.1142364574 0.0651634765
Al -1.9571400458 -0.0202961050 2.0533303849
Al -0.0718114289 1.8646270806 1.9050756379
Al -1.9608541249 2.0029335917 3.9416648316
Al -1.9203830141 2.0248049266 -0.0066644065
Al -3.8877790280 1.9779346810 1.9293533044
Al -2.0048325889 3.9058114947 2.0054258693
Al -3.9560328165 3.9542190769 3.9309221054
8
Lattice="-3.956067800811 0.000000000000 3.956067800811 0.000000000000 3.956067800811 3.956067800811 -3.956067800811 3.956067800811 0.000000000000" Properties=species:S:1:pos:R:3 pbc="T T T" time_fs=26.1239507262
Al -0.0660544075 0.1149947893 0.0651972396
Al -1.9577449499 -0.0211106879 2.0543618346
Al -0.0721602805 1.8640552124 1.9048884776
Al -1.9604946892 2.0033347912 3.9418866369
Al -1.9203930012 2.0255617623 -0.0072812666
Al -3.8869623409 1.9776094666 1.9284189429
Al -2.0048039035 3.9055030935 2.0057271282
Al -3.9556576306 3.9543227761 3.9310722105
8
Lattice="-3.956067800811 0.000000000000 3.956067800811 0.000000000000 3.956067800811 3.956067800811 -3.956067800811 3.956067800811 0.000000000000" Properties=species:S:1:pos:R:3 pbc="T T T" time_fs=26.607727591499998
Al -0.0666413815 0.1156853530 0.0651742580
Al -1.9583926259 -0.0219412014 2.0553716209
Al -0.0724638023 1.8635580372 1.9047590057
Al -1.9601347413 2.0037304177 3.9421310115
Al -1.9204524490 2.0263099240 -0.0079180808
Al -3.8861695145 1.9772708964 1.9274869733
Al -2.0047504056 3.9052259690 2.0060162974
Al -3.9552662825 3.9544318073 3.9312501172
8
Lattice="-3.956067800811 0.000000000000 3.956067800811 0.000000000000 3.956067800811 3.956067800811 -3.956067800811 3.956067800811 0.000000000000" Properties=species:S:1:pos:R:3 pbc="T T T" time_fs=27.0915044568
Al -0.0671990146 0.1163079724 0.0650945385
Al -1.9590827465 -0.0227872338 2.0563593411
Al -0.0727220995 1.8631356553 1.9046873277
Al -1.9597744040 2.0041202530 3.9423979377
Al -1.9205612349 2.0270490737 -0.0085745594
Al -3.8854007476 1.9769191438 1.9265577147
Al -2.0046720916 3.9049802861 2.0062931783
Al -3.9548588645 3.9545460523 3.9314557235
8
Lattice="-3.956067800811 0.000000000000 3.956067800811 0.000000000000 3.956067800811 3.956067800811 -3.956067800811 3.956067800811 0.000000000000" Properties=species:S:1:pos:R:3 pbc="T T T" time_fs=27.5752813221
Al -0.0677272624 0.1168625344 0.0649581506
Al -1.9598149383 -0.0236483408 2.0573245935
Al -0.0729353189 1.8627880978 1.9046734906
Al -1.9594138049 2.0045040755 3.9426873774
Al -1.9207191900 2.0277788634 -0.0092503839
Al -3.8846562256 1.9765544011 1.9256314995
Al -2.0045689775 3.9047661893 2.0065575773
Al -3.9544354853 3.9546653827 3.9316888977
8
Lattice="-3.956067800811 0.000000000000 3.956067800811 0.000000000000 3.956067800811 3.956067800811 -3.956067800811 3.956067800811 0.000000000000" Properties=species:S:1:pos:R:3 pbc="T T T" time_fs=28.059058187399998
Al -0.0682261032 0.1173489899 0.0647652255
Al -1.9605887808 -0.0245240508 2.0582669767
Al -0.0731036472 1.8625153249 1.9047174793
Al -1.9590530791 2.0048816628 3.9429992738
Al -1.9209260999 2.0284989338 -0.0099452071
Al -3.8839361227 1.9761768802 1.9247086700
Al -2.0044411024 3.9045838031 2.0068093039
Al -3.9539962688 3.9547896590 3.9319494816
8
Lattice="-3.956067800811 0.000000000000 3.956067800811 0.000000000000 3.956067800811 3.956067800811 -3.956067800811 3.956067800811 0.000000000000" Properties=species:S:1:pos:R:3 pbc="T T T" time_fs=28.5428350527
Al -0.0686955373 0.1177673532 0.0645159572
Al -1.9614038067 -0.0254138607 2.0591860884
Al -0.0732273099 1.8623172288 1.9048192214
Al -1.9586923677 2.0052527894 3.9433335501
Al -1.9211817034 2.0292089174 -0.0106586535
Al -3.8832405985 1.9757868128 1.9237895805
Al -2.0042885256 3.9044332296 2.0070481697
Al -3.9535413546 3.9549187332 3.9322372894
8
Lattice="-3.956067800811 0.000000000000 3.956067800811 0.000000000000 3.956067800811 3.956067800811 -3.956067800811 3.956067800811 0.000000000000" Properties=species:S:1:pos:R:3 pbc="T T T" time_fs=29.026611918
Al -0.0691355858 0.1181177021 0.0642106030
Al -1.9622595022 -0.0263172394 2.0600815277
Al -0.0733065733 1.8621936305 1.9049785837
Al -1.9583318176 2.0056172275 3.9436901105
Al -1.9214856960 2.0299084372 -0.0113903175
Al -3.8825698005 1.9753844482 1.9228745958
Al -2.0041113289 3.9043145515 2.0072739919
Al -3.9530708995 3.9550524455 3.9325521086
8
Lattice="-3.956067800811 0.000000000000 3.956067800811 0.000000000000 3.956067800811 3.956067800811 -3.956067800811 3.956067800811 0.000000000000" Properties=species:S:1:pos:R:3 pbc="T T T" time_fs=29.510388783299998
Al -0.0695462913 0.1184001792 0.0638494816
Al -1.9631553082 -0.0272336277 2.0609528956
Al -0.0733417427 1.8621442826 1.9051953739
Al -1.9579715816 2.0059747480 3.9440688399
Al -1.9218377259 2.0305971075 -0.0121397681
Al -3.8819238633 1.9749700568 1.9219640914
Al -2.0039096158 3.9042278302 2.0074865902
Al -3.9525850745 3.9551906262 3.9328936992
8
Lattice="-3.956067800811 0.000000000000 3.956067800811 0.000000000000 3.956067800811 3.956067800811 -3.956067800811 3.956067800811 0.000000000000" Properties=species:S:1:pos:R:3 pbc="T T T" time_fs=29.9941656486
Al -0.0699277175 0.1186149894 0.0634329750
Al -1.9640906200 -0.0281624369 2.0617997928
Al -0.0733331604 1.8621688683 1.9054693391
Al -1.9576118196 2.0063251191 3.9444696038
Al -1.9222373975 2.0312745323 -0.0129065450
Al -3.8813029094 1.9745439266 1.9210584541
Al -2.0036835110 3.9041731067 2.0076857889
Al -3.9520840678 3.9553330981 3.9332617951
8
Lattice="-3.956067800811 0.000000000000 3.956067800811 0.000000000000 3.956067800811 3.956067800811 -3.956067800811 3.956067800811 0.000000000000" Properties=species:S:1:pos:R:3 pbc="T T T" time_fs=30.4779425139
Al -0.0702799472 0.1187623984 0.0629615248
Al -1.9650647894 -0.0291030513 2.0626218213
Al -0.0732812074 1.8622670041 1.9058001696
Al -1.9572526956 2.0066681075 3.9448922483
Al -1.9226842725 2.0319403084 -0.0136901605
Al -3.8807070476 1.9741063646 1.9201580808
Al -2.0034331596 3.9041504004 2.0078714151
Al -3.9515680834 3.9554796712 3.9336561035
8
Lattice="-3.956067800811 0.000000000000 3.956067800811 0.000000000000 3.956067800811 3.956067800811 -3.956067800811 3.956067800811 0.000000000000" Properties=species:S:1:pos:R:3 pbc="T T T" time_fs=30.961719379199998
Al -0.0706030844 0.1188427366 0.0624356360
Al -1.9660771242 -0.0300548278 2.0634185849
Al -0.0731863009 1.8624382386 1.9061874975
Al -1.9568943819 2.0070034784 3.9453366018
Al -1.9231778684 2.0325940229 -0.0144901012
Al -3.8801363758 1.9736576962 1.9192633796
Al -2.0031587288 3.9041597110 2.0080432995
Al -3.9510373390 3.9556301474 3.9340763051
8
Lattice="-3.956067800811 0.000000000000 3.956067800811 0.000000000000 3.956067800811 3.956067800811 -3.956067800811 3.956067800811 0.000000000000" Properties=species:S:1:pos:R:3 pbc="T T T" time_fs=31.4454962445
Al -0.0708972532 0.1188563942 0.0618558727
Al -1.9671268882 -0.0310170974 2.0641896885
Al -0.0730488940 1.8626820538 1.9066308956
Al -1.9565370536 2.0073309949 3.9458024719
Al -1.9237176600 2.0332352572 -0.0153058261
Al -3.8795909776 1.9731982654 1.9183747673
Al -2.0028604060 3.9042010163 2.0082012776
Al -3.9504920706 3.9557843189 3.9345220551
8
Lattice="-3.956067800811 0.000000000000 3.956067800811 0.000000000000 3.956067800811 3.956067800811 -3.956067800811 3.956067800811 0.000000000000" Properties=species:S:1:pos:R:3 pbc="T T T" time_fs=31.9292731098
Al -0.0711625962 0.1188038224 0.0612228579
Al -1.9682133039 -0.0319891654 2.0649347411
Al -0.0728694772 1.8629978675 1.9071298827
Al -1.9561808940 2.0076504185 3.9462896490
Al -1.9243030797 2.0338635840 -0.0161367701
Al -3.8790709252 1.9727284329 1.9174926718
Al -2.0025384003 3.9042742748 2.0083451882
Al -3.9499325271 3.9559419690 3.9349929834
8
Lattice="-3.956067800811 0.000000000000 3.956067800811 0.000000000000 3.956067800811 3.956067800811 -3.956067800811 3.956067800811 0.000000000000" Properties=species:S:1:pos:R:3 pbc="T T T" time_fs=32.4130499751
Al -0.0713992751 0.1186855312 0.0605372738
Al -1.9693355513 -0.0329703121 2.0656533517
Al -0.0726485740 1.8633850308 1.9076839197
Al -1.9558260909 2.0079615106 3.9467979044
Al -1.9249335186 2.0344785698 -0.0169823432
Al -3.8785762787 1.9722485789 1.9166175294
Al -2.0021929407 3.9043794231 2.0084748737
Al -3.9493589748 3.9561028710 3.9354886937
8
Lattice="-3.956067800811 0.000000000000 3.956067800811 0.000000000000 3.956067800811 3.956067800811 -3.956067800811 3.956067800811 0.000000000000" Properties=species:S:1:pos:R:3 pbc="T T T" time_fs=32.896826840399996
Al -0.0716074706 0.1185020911 0.0597998603
Al -1.9704927720 -0.0339597927 2.0663451355
Al -0.0723867420 1.8638428333 1.9082924140
Al -1.9554728374 2.0082640287 3.9473269909
Al -1.9256083273 2.0350797742 -0.0178419303
Al -3.8781070835 1.9717590994 1.9157497865
Al -2.0018242775 3.9045163790 2.0085901816
Al -3.9487716930 3.9562667894 3.9360087647
8
Lattice="-3.956067800811 0.000000000000 3.956067800811 0.000000000000 3.956067800811 3.956067800811 -3.956067800811 3.956067800811 0.000000000000" Properties=species:S:1:pos:R:3 pbc="T T T" time_fs=33.3806037057
Al -0.0717873815 0.1182541283 0.0590114133
Al -1.9716840650 -0.0349568417 2.0670097086
Al -0.0720845740 1.8643705035 1.9089547207
Al -1.9551213325 2.0085577323 3.9478766430
Al -1.9263268164 2.0356667534 -0.0187148928
Al -3.8776633761 1.9712604085 1.9148898984
Al -2.0014326802 3.9046850384 2.0086909608
Al -3.9481709780 3.9564334803 3.9365527518
8
Lattice="-3.956067800811 0.000000000000 3.956067800811 0.000000000000 3.956067800811 3.956067800811 -3.956067800811 3.956067800811 0.000000000000" Properties=species:S:1:pos:R:3 pbc="T T T" time_fs=33.864380571
Al -0.0719392241 0.1179423261 0.0581727831
Al -1.9729084929 -0.0359606678 2.0676466921
Al -0.0717426930 1.8649672083 1.9096701415
Al -1.9547717794 2.0088423762 3.9484465774
Al -1.9270882578 2.0362390560 -0.0196005701
Al -3.8772451782 1.9707529364 1.9140383287
Al -2.0010184383 3.9048852772 2.0087770666
Al -3.9475571391 3.9566026905 3.9371201840
8
Lattice="-3.956067800811 0.000000000000 3.956067800811 0.000000000000 3.956067800811 3.956067800811 -3.956067800811 3.956067800811 0.000000000000" Properties=species:S:1:pos:R:3 pbc="T T T" time_fs=34.3481574363
Al -0.0720632322 0.1175674206 0.0572848733
Al -1.9741650793 -0.0369704608 2.0682557109
Al -0.0713617545 1.8656320556 1.9104379280
Al -1.9544243880 2.0091177173 3.9490364936
Al -1.9278918847 2.0367962286 -0.0204982787
Al -3.8768525012 1.9702371293 1.9131955494
Al -2.0005818621 3.9051169528 2.0088483573
Al -3.9469305015 3.9567741595 3.9377105694
8
Lattice="-3.956067800811 0.000000000000 3.956067800811 0.000000000000 3.956067800811 3.956067800811 -3.956067800811 3.956067800811 0.000000000000" Properties=species:S:1:pos:R:3 pbc="T T T" time_fs=34.8319343016
Al -0.0721596558 0.1171302039 0.0563486406
Al -1.9754528110 -0.0379853884 2.0688363952
Al -0.0709424446 1.8663640970 1.9112572839
Al -1.9540793711 2.0093835101 3.9496460730
Al -1.9287368925 2.0373378119 -0.0214073146
Al -3.8764853441 1.9697134503 1.9123620407
Al -2.0001232795 3.9053799004 2.0089046945
Al -3.9462914047 3.9569476176 3.9383233904
8
Lattice="-3.956067800811 0.000000000000 3.956067800811 0.000000000000 3.956067800811 3.956067800811 -3.956067800811 3.956067800811 0.000000000000" Properties=species:S:1:pos:R:3 pbc="T T T" time_fs=35.3157111669
Al -0.0722287612 0.1166315174 0.0553650898
Al -1.9767706393 -0.0390045989 2.0693883802
Al -0.0704854792 1.8671623287 1.9121273648
Al -1.9537369481 2.0096395084 3.9502749798
Al -1.9296224409 2.0378633454 -0.0223269532
Al -3.8761436942 1.9691823775 1.9115382901
Al -1.9996430390 3.9056739379 2.0089459448
Al -3.9456402015 3.9571227876 3.9389581078
8
Lattice="-3.956067800811 0.000000000000 3.956067800811 0.000000000000 3.956067800811 3.956067800811 -3.956067800811 3.956067800811 0.000000000000" Properties=species:S:1:pos:R:3 pbc="T T T" time_fs=35.799488032199996
Al -0.0722708308 0.1160722529 0.0543352755
Al -1.9781174802 -0.0400272226 2.0699113059
Al -0.0699916021 1.8680256918 1.9130472807
Al -1.9533973410 2.0098854647 3.9509228607
Al -1.9305476548 2.0383723651 -0.0232564503
Al -3.8758275272 1.9686444029 1.9107247932
Al -1.9991415069 3.9059988628 2.0089719777
Al -3.9449772599 3.9572993848 3.9396141596
8
Lattice="-3.956067800811 0.000000000000 3.956067800811 0.000000000000 3.956067800811 3.956067800811 -3.956067800811 3.956067800811 0.000000000000" Properties=species:S:1:pos:R:3 pbc="T T T" time_fs=36.2832648975
Al -0.0722861614 0.1154533502 0.0532602991
Al -1.9794922174 -0.0410523703 2.0704048202
Al -0.0694615855 1.8689530776 1.9140160984
Al -1.9530607774 2.0101211331 3.9515893469
Al -1.9315116243 2.0388644074 -0.0241950424
Al -3.8755368080 1.9681000349 1.9099220508
Al -1.9986190678 3.9063544528 2.0089826682
Al -3.9443029612 3.9574771175 3.9402909625
8
Lattice="-3.956067800811 0.000000000000 3.956067800811 0.000000000000 3.956067800811 3.956067800811 -3.956067800811 3.956067800811 0.000000000000" Properties=species:S:1:pos:R:3 pbc="T T T" time_fs=36.7670417628
Al -0.0722750658 0.1147757957 0.0521413055
Al -1.9808936991 -0.0420791377 2.0708685762
Al -0.0688962294 1.8699433264 1.9150328426
Al -1.9527274897 2.0103462651 3.9522740528
Al -1.9325134051 2.0393390054 -0.0251419498
Al -3.8752714900 1.9675497938 1.9091305714
Al -1.9980761248 3.9067404685 2.0089778936
Al -3.9436177002 3.9576556869 3.9409879116
8
Lattice="-3.956067800811 0.000000000000 3.956067800811 0.000000000000 3.956067800811 3.956067800811 -3.956067800811 3.956067800811 0.000000000000" Properties=species:S:1:pos:R:3 pbc="T T T" time_fs=37.2508186281
Al -0.0722378681 0.1140406194 0.0509794828
Al -1.9823207457 -0.0431066040 2.0713022348
Al -0.0682963578 1.8709952306 1.9160964983
Al -1.9523977119 2.0105606123 3.9529765757
Al -1.9335520220 2.0397956939 -0.0260963753
Al -3.8750315157 1.9669942151 1.9083508696
Al -1.9975130976 3.9071566492 2.0089575361
Al -3.9429218848 3.9578347868 3.9417043816
8
Lattice="-3.956067800811 0.000000000000 3.956067800811 0.000000000000 3.956067800811 3.956067800811 -3.956067800811 3.956067800811 0.000000000000" Properties=species:S:1:pos:R:3 pbc="T T T" time_fs=37.7345954934
Al -0.0721749088 0.1132488943 0.0497760600
Al -1.9837721439 -0.0441338346 2.0717054637
Al -0.0676628204 1.8721075368 1.9172060123
Al -1.9520716837 2.0107639273 3.9536964986
Al -1.9346264679 2.0402340076 -0.0270575063
Al -3.8748168175 1.9664338468 1.9075834653
Al -1.9969304238 3.9076027192 2.0089214829
Al -3.9422159364 3.9580141059 3.9424397268
8
Lattice="-3.956067800811 0.000000000000 3.956067800811 0.000000000000 3.956067800811 3.956067800811 -3.956067800811 3.956067800811 0.000000000000" Properties=species:S:1:pos:R:3 pbc="T T T" time_fs=38.2183723587
Al -0.0720865402 0.1124017325 0.0485323043
Al -1.9852466535 -0.0451598804 2.0720779402
Al -0.0669964920 1.8732789483 1.9183602956
Al -1.9517496487 2.0109559628 3.9544333890
Al -1.9357357062 2.0406534845 -0.0280245145
Al -3.8746273164 1.9658692483 1.9068288821
Al -1.9963285579 3.9080783813 2.0088696240
Al -3.9415002889 3.9581933260 3.9431932829
8
Lattice="-3.956067800811 0.000000000000 3.956067800811 0.000000000000 3.956067800811 3.956067800811 -3.956067800811 3.956067800811 0.000000000000" Properties=species:S:1:pos:R:3 pbc="T T T" time_fs=38.702149223999996
Al -0.0719731268 0.1115002863 0.0472495193
Al -1.9867430049 -0.0461837811 2.0724193484
Al -0.0662982678 1.8745081259 1.9195582254
Al -1.9514318510 2.0111364702 3.9551867980
Al -1.9368786711 2.0410536629 -0.0289965591
Al -3.8744629239 1.9653009920 1.9060876511
Al -1.9957079696 3.9085833235 2.0088018542
Al -3.9407753881 3.9583721237 3.9439643661
8
Lattice="-3.956067800811 0.000000000000 3.956067800811 0.000000000000 3.956067800811 3.956067800811 -3.956067800811 3.956067800811 0.000000000000" Properties=species:S:1:pos:R:3 pbc="T T T" time_fs=39.1859260893
Al -0.0718350450 0.1105457425 0.0459290432
Al -1.9882599029 -0.0472045641 2.0727293843
Al -0.0655690672 1.8757936908 1.9207986469
Al -1.9511185407 2.0113052024 3.9559562630
Al -1.9380542689 2.0414340859 -0.0299727865
Al -3.8743235414 1.9647296610 1.9053603055
Al -1.9950691449 3.9091172139 2.0087180730
Al -3.9400416926 3.9585501708 3.9447522743
8
Lattice="-3.956067800811 0.000000000000 3.956067800811 0.000000000000 3.956067800811 3.956067800811 -3.956067800811 3.956067800811 0.000000000000" Properties=species:S:1:pos:R:3 pbc="T T T" time_fs=39.6697029546
Al -0.0716726829 0.1095393224 0.0445722457
Al -1.9897960254 -0.0482212474 2.0730077510
Al -0.0648098282 1.8771342274 1.9220803748
Al -1.9508099698 2.0114619138 3.9567413079
Al -1.9392613795 2.0417943005 -0.0309523303
Al -3.8742090595 1.9641558488 1.9046473817
Al -1.9944125852 3.9096797050 2.0086181834
Al -3.9392996728 3.9587271333 3.9455562885
8
Lattice="-3.956067800811 0.000000000000 3.956067800811 0.000000000000 3.956067800811 3.956067800811 -3.956067800811 3.956067800811 0.000000000000" Properties=species:S:1:pos:R:3 pbc="T T T" time_fs=40.1534798199
Al -0.0714864391 0.1084822793 0.0431805271
Al -1.9913500270 -0.0492328405 2.0732541634
Al -0.0640215112 1.8785282843 1.9234021980
Al -1.9505063918 2.0116063581 3.9575414408
Al -1.9404988577 2.0421338577 -0.0319343153
Al -3.8741193604 1.9635801583 1.9039494210
Al -1.9937388068 3.9102704322 2.0085020950
Al -3.9385498096 3.9589026735 3.9463756732
8
Lattice="-3.956067800811 0.000000000000 3.956067800811 0.000000000000 3.956067800811 3.956067800811 -3.956067800811 3.956067800811 0.000000000000" Properties=species:S:1:pos:R:3 pbc="T T T" time_fs=40.6372566852
Al -0.0712767224 0.1073758973 0.0417553145
Al -1.9929205388 -0.0502383439 2.0734683469
Al -0.0632050932 1.8799743767 1.9247628784
Al -1.9502080636 2.0117382910 3.9583561574
Al -1.9417655328 2.0424523152 -0.0329178559
Al -3.8740543163 1.9630032033 1.9032669657
Al -1.9930483408 3.9108890144 2.0083697198
Al -3.9377925949 3.9590764493 3.9472096760
8
Lattice="-3.956067800811 0.000000000000 3.956067800811 0.000000000000 3.956067800811 3.956067800811 -3.956067800811 3.956067800811 0.000000000000" Properties=species:S:1:pos:R:3 pbc="T T T" time_fs=41.1210335505
Al -0.0710439521 0.1062214870 0.0402980617
Al -1.9945061704 -0.0512367538 2.0736500376
Al -0.0623615693 1.8814709880 1.9261611529
Al -1.9499152438 2.0118574703 3.9591849409
Al -1.9430602134 2.0427492379 -0.0339020579
Al -3.8740137908 1.9624256048 1.9026005617
Al -1.9923417309 3.9115350533 2.0082209760
Al -3.9370285322 3.9592481154 3.9480575294
8
Lattice="-3.956067800811 0.000000000000 3.956067800811 0.000000000000 3.956067800811 3.956067800811 -3.956067800811 3.956067800811 0.000000000000" Properties=species:S:1:pos:R:3 pbc="T T T" time_fs=41.604810415799996
Al -0.0707885551 0.1050203849 0.0388102440
Al -1.9961055101 -0.0522270588 2.0737989847
Al -0.0614919536 1.8830165746 1.9275957402
Al -1.9496281931 2.0119636539 3.9600272609
Al -1.9443816840 2.0430241965 -0.0348860206
Al -3.8739976377 1.9618479920 1.9019507550
Al -1.9916195345 3.9122081367 2.0080557857
Al -3.9362581347 3.9594173231 3.9489184524
8
Lattice="-3.956067800811 0.000000000000 3.956067800811 0.000000000000 3.956067800811 3.956067800811 -3.956067800811 3.956067800811 0.000000000000" Properties=species:S:1:pos:R:3 pbc="T T T" time_fs=42.0885872811
Al -0.0705109685 0.1037739517 0.0372933594
Al -1.9977171278 -0.0532082451 2.0739149494
Al -0.0605972723 1.8846095632 1.9290653359
Al -1.9493471734 2.0120566037 3.9608825755
Al -1.9457287105 2.0432767712 -0.0358688368
Al -3.8740057030 1.9612710015 1.9013180935
Al -1.9908823225 3.9129078357 2.0078740771
Al -3.9354819249 3.9595837205 3.9497916488
8
Lattice="-3.956067800811 0.000000000000 3.956067800811 0.000000000000 3.956067800811 3.956067800811 -3.956067800811 3.956067800811 0.000000000000" Properties=species:S:1:pos:R:3 pbc="T T T" time_fs=42.5723641464
Al -0.0702116374 0.1024835694 0.0357489240
Al -1.9993395749 -0.0541792952 2.0739977044
Al -0.0596785689 1.8862483576 1.9305686199
Al -1.9490724478 2.0121360819 3.9617503306
Al -1.9471000379 2.0435065515 -0.0368495942
Al -3.8740378239 1.9606952765 1.9007031252
Al -1.9901306779 3.9136337077 2.0076757836
Al -3.9347004346 3.9597469542 3.9506763102
8
Lattice="-3.956067800811 0.000000000000 3.956067800811 0.000000000000 3.956067800811 3.956067800811 -3.956067800811 3.956067800811 0.000000000000" Properties=species:S:1:pos:R:3 pbc="T T T" time_fs=43.0561410117
Al -0.0698910135 0.1011506389 0.0341784707
Al -2.0009713864 -0.0551391900 2.0740470381
Al -0.0587369009 1.8879313385 1.9321042559
Al -1.9488042802 2.0122018539 3.9626299607
Al -1.9484943939 2.0437131358 -0.0378273771
Al -3.8740938295 1.9601214663 1.9001063978
Al -1.9893651942 3.9143852930 2.0074608425
Al -3.9339142045 3.9599066673 3.9515716150
8
Lattice="-3.956067800811 0.000000000000 3.956067800811 0.000000000000 3.956067800811 3.956067800811 -3.956067800811 3.956067800811 0.000000000000" Properties=species:S:1:pos:R:3 pbc="T T T" time_fs=43.539917877
Al -0.0695495570 0.0997765794 0.0325835476
Al -2.0026110812 -0.0560869103 2.0740627504
Al -0.0577733369 1.8896568637 1.9336708931
Al -1.9485429357 2.0122536879 3.9635208897
Al -1.9499104898 2.0438961336 -0.0388012657
Al -3.8741735403 1.9595502255 1.8995284587
Al -1.9885864775 3.9151621191 2.0072291985
Al -3.9331237845 3.9600625044 3.9524767313
8
Lattice="-3.956067800811 0.000000000000 3.956067800811 0.000000000000 3.956067800811 3.956067800811 -3.956067800811 3.956067800811 0.000000000000" Properties=species:S:1:pos:R:3 pbc="T T T" time_fs=44.0236947423
Al -0.0691877343 0.0983628256 0.0309657136
Al -2.0042571646 -0.0570214376 2.0740446573
Al -0.0567889597 1.8914232749 1.9352671697
Al -1.9482886792 2.0122913556 3.9644225310
Al -1.9513470199 2.0440551656 -0.0397703393
Al -3.8742767700 1.9589822117 1.8989698540
Al -1.9877951444 3.9159637011 2.0069808014
Al -3.9323297309 3.9602141056 3.9533908152
8
Lattice="-3.956067800811 0.000000000000 3.956067800811 0.000000000000 3.956067800811 3.956067800811 -3.956067800811 3.956067800811 0.000000000000" Properties=species:S:1:pos:R:3 pbc="T T T" time_fs=44.507471607599996
Al -0.0688060184 0.0969108261 0.0293265411
Al -2.0059081290 -0.0579417539 2.0739925896
Al -0.0557848610 1.8932288938 1.9368917119
Al -1.9480417755 2.0123146315 3.9653342883
Al -1.9528026653 2.0441898653 -0.0407336762
Al -3.8744033242 1.9584180891 1.8984311281
Al -1.9869918209 3.9167895378 2.0067156064
Al -3.9315326093 3.9603611135 3.9543130145
8
Lattice="-3.956067800811 0.000000000000 3.956067800811 0.000000000000 3.956067800811 3.956067800811 -3.956067800811 3.956067800811 0.000000000000" Properties=species:S:1:pos:R:3 pbc="T T T" time_fs=44.9912484729
Al -0.0684048886 0.0954220410 0.0276676091
Al -2.0075624541 -0.0588468460 2.0739063912
Al -0.0547621443 1.8950720282 1.9385431380
Al -1.9478024907 2.0123232945 3.9662555564
Al -1.9542760925 2.0442998784 -0.0416903551
Al -3.8745530000 1.9578585219 1.8979128223
Al -1.9861771432 3.9176391168 2.0064335751
Al -3.9307329899 3.9605031684 3.9552424662
8
Lattice="-3.956067800811 0.000000000000 3.956067800811 0.000000000000 3.956067800811 3.956067800811 -3.956067800811 3.956067800811 0.000000000000" Properties=species:S:1:pos:R:3 pbc="T T T" time_fs=45.4750253382
Al -0.0679848281 0.0938979406 0.0259905042
Al -2.0092186101 -0.0597357036 2.0737859242
Al -0.0537219208 1.8969509721 1.9402200589
Al -1.9475710888 2.0123171266 3.9671857197
Al -1.9557659579 2.0443848642 -0.0426394553
Al -3.8747255902 1.9573041795 1.8974154762
Al -1.9853517555 3.9185119120 2.0061346756
Al -3.9299314518 3.9606399118 3.9561782989
8
Lattice="-3.956067800811 0.000000000000 3.956067800811 0.000000000000 3.956067800811 3.956067800811 -3.956067800811 3.956067800811 0.000000000000" Properties=species:S:1:pos:R:3 pbc="T T T" time_fs=45.9588022035
Al -0.0675463285 0.0923400051 0.0242968190
Al -2.0108750580 -0.0606073215 2.0736310655
Al -0.0526653116 1.8988640074 1.9419210803
Al -1.9473478337 2.0122959146 3.9681241556
Al -1.9572709042 2.0444444960 -0.0435800587
Al -3.8749208779 1.9567557312 1.8969396253
Al -1.9845163115 3.9194073849 2.0058188821
Al -3.9291285781 3.9607709859 3.9571196350
8
Lattice="-3.956067800811 0.000000000000 3.956067800811 0.000000000000 3.956067800811 3.956067800811 -3.956067800811 3.956067800811 0.000000000000" Properties=species:S:1:pos:R:3 pbc="T T T" time_fs=46.4425790688
Al -0.0670898833 0.0907497192 0.0225881467
Al -2.0125302495 -0.0614607015 2.0734417079
Al -0.0515934451 1.9008094049 1.9436448019
Al -1.9471329880 2.0122594495 3.9690702318
Al -1.9587895659 2.0444784616 -0.0445112502
Al -3.8751386409 1.9562138488 1.8964858014
Al -1.9836714723 3.9203249866 2.0054861752
Al -3.9283249579 3.9608960336 3.9580655878
8
Lattice="-3.956067800811 0.000000000000 3.956067800811 0.000000000000 3.956067800811 3.956067800811 -3.956067800811 3.956067800811 0.000000000000" Properties=species:S:1:pos:R:3 pbc="T T T" time_fs=46.9263559341
Al -0.0666159911 0.0891285749 0.0208660850
Al -2.0141826302 -0.0622948510 2.0732177620
Al -0.0505074563 1.9027854276 1.9453898234
Al -1.9469268135 2.0122075285 3.9700233102
Al -1.9603205692 2.0444864648 -0.0454321196
Al -3.8753786504 1.9556792041 1.8960545323
Al -1.9828179067 3.9212641539 2.0051365431
Al -3.9275211862 3.9610147002 3.9590152668
8
Lattice="-3.956067800811 0.000000000000 3.956067800811 0.000000000000 3.956067800811 3.956067800811 -3.956067800811 3.956067800811 0.000000000000" Properties=species:S:1:pos:R:3 pbc="T T T" time_fs=47.410132799399996
Al -0.0661251562 0.0874780678 0.0191322307
Al -2.0158306390 -0.0631087879 2.0729591547
Al -0.0494084871 1.9047903303 1.9471547404
Al -1.9467295695 2.0121399521 3.9709827441
Al -1.9618625309 2.0444682245 -0.0463417596
Al -3.8756406698 1.9551524687 1.8956463393
Al -1.9819562894 3.9222243153 2.0047699802
Al -3.9267178612 3.9611266328 3.9599677739
8
Lattice="-3.956067800811 0.000000000000 3.956067800811 0.000000000000 3.956067800811 3.956067800811 -3.956067800811 3.956067800811 0.000000000000" Properties=species:S:1:pos:R:3 pbc="T T T" time_fs=47.8939096647
Al -0.0656178851 0.0857996950 0.0173881780
Al -2.0174727121 -0.0639015368 2.0726658312
Al -0.0482976834 1.9068223625 1.9489381488
Al -1.9465415143 2.0120565274 3.9719478811
Al -1.9634140624 2.0444234755 -0.0472392719
Al -3.8759244580 1.9546343128 1.8952617398
Al -1.9810873019 3.9232048864 2.0043864881
Al -3.9259155853 3.9612314801 3.9609222077
8
Lattice="-3.956067800811 0.000000000000 3.956067800811 0.000000000000 3.956067800811 3.956067800811 -3.956067800811 3.956067800811 0.000000000000" Properties=species:S:1:pos:R:3 pbc="T T T" time_fs=48.37768653
Al -0.0650946892 0.0840949557 0.0156355209
Al -2.0191072798 -0.0646721345 2.0723377533
Al -0.0471761971 1.9088797686 1.9507386467
Al -1.9463629038 2.0119570671 3.9729180620
Al -1.9649737694 2.0443519707 -0.0481237616
Al -3.8762297667 1.9541254070 1.8949012443
Al -1.9802116315 3.9242052731 2.0039860751
Al -3.9251149650 3.9613288947 3.9618776618
