
     Program PWSCF v.7.5 starts on 22Sep2026 at 22:43:48 

     This program is part of the open-source Quantum ESPRESSO suite
     for quantum simulation of materials; please cite
         "P. Giannozzi et al., J. Phys.:Condens. Matter 21 395502 (2009);
         "P. Giannozzi et al., J. Phys.:Condens. Matter 29 465901 (2017);
         "P. Giannozzi et al., J. Chem. Phys. 152 154105 (2020);
          URL http://www.quantum-espresso.org", 
     in publications or presentations arising from this work. More details at
     http://www.quantum-espresso.org/quote

     Parallel version (MPI), running on     4 processors

     MPI processes distributed on     1 nodes
     4794 MiB available memory on the printing compute node when the environment starts

     Reading input from scf.in

     Current dimensions of program PWSCF are:
     Max number of different atomic species (ntypx) = 10
     Max number of k-points (npk) =  40000
     Max angular momentum in pseudopotentials (lmaxx) =  4
     Message from routine setup:
     using ibrav=0 with symmetry is DISCOURAGED, use correct ibrav instead

     R & G space division:  proc/nbgrp/npool/nimage =       4
     Subspace diagonalization in iterative solution of the eigenvalue problem:
     a serial algorithm will be used


     Parallelization info
     --------------------
     sticks:   dense  smooth     PW     G-vecs:    dense   smooth      PW
     Min         586     219     66                18825     4315     722
     Max         587     220     67                18830     4316     724
     Sum        2347     877    265                75313    17261    2891

     Using Slab Decomposition



     bravais-lattice index     =            0
     lattice parameter (alat)  =       7.3085  a.u.
     unit-cell volume          =     276.0338 (a.u.)^3
     number of atoms/cell      =            2
     number of atomic types    =            1
     number of electrons       =         8.00
     number of Kohn-Sham states=            8
     kinetic-energy cutoff     =      60.0000  Ry
     charge density cutoff     =     640.0000  Ry
     scf convergence threshold =      1.0E-10
     mixing beta               =       0.7000
     number of iterations used =            8  plain     mixing
     Exchange-correlation= PBE
                           (   1   4   3   4   0   0   0)

     celldm(1)=   7.308458  celldm(2)=   0.000000  celldm(3)=   0.000000
     celldm(4)=   0.000000  celldm(5)=   0.000000  celldm(6)=   0.000000

     crystal axes: (cart. coord. in units of alat)
               a(1) = (  -0.707107   0.000000   0.707107 )  
               a(2) = (   0.000000   0.707107   0.707107 )  
               a(3) = (  -0.707107   0.707107   0.000000 )  

     reciprocal axes: (cart. coord. in units 2 pi/alat)
               b(1) = ( -0.707107 -0.707107  0.707107 )  
               b(2) = (  0.707107  0.707107  0.707107 )  
               b(3) = ( -0.707107  0.707107 -0.707107 )  


     PseudoPot. # 1 for Si read from file:
     ../../pseudo/Si.pbe-n-rrkjus_psl.1.0.0.UPF
     MD5 check sum: fa25574f73a70a4139f2adfbefec430c
     Pseudo is Ultrasoft + core correction, Zval =  4.0
     Generated using &quot;atomic&quot; code by A. Dal Corso  v.6.3
     Using radial grid of 1141 points,  6 beta functions with: 
                l(1) =   0
                l(2) =   0
                l(3) =   1
                l(4) =   1
                l(5) =   2
                l(6) =   2
     Q(r) pseudized with 0 coefficients 


     atomic species   valence    mass     pseudopotential
     Si                4.00    28.08500     Si( 1.00)

     48 Sym. Ops., with inversion, found (24 have fractional translation)



   Cartesian axes

     site n.     atom                  positions (alat units)
         1        Si     tau(   1) = (  -0.0000000   0.0000000   0.0000000  )
         2        Si     tau(   2) = (   0.3535534   0.3535534   0.3535534  )

     number of k points=    72  Marzari-Vanderbilt smearing, width (Ry)=  0.0100
                       cart. coord. in units 2pi/alat
        k(    1) = (   0.0000000   0.0000000   0.0000000), wk =   0.0011574
        k(    2) = (  -0.0589256   0.0589256  -0.0589256), wk =   0.0092593
        k(    3) = (  -0.1178511   0.1178511  -0.1178511), wk =   0.0092593
        k(    4) = (  -0.1767767   0.1767767  -0.1767767), wk =   0.0092593
        k(    5) = (  -0.2357023   0.2357023  -0.2357023), wk =   0.0092593
        k(    6) = (  -0.2946278   0.2946278  -0.2946278), wk =   0.0092593
        k(    7) = (   0.3535534  -0.3535534   0.3535534), wk =   0.0046296
        k(    8) = (   0.0000000   0.1178511   0.0000000), wk =   0.0069444
        k(    9) = (  -0.0589256   0.1767767  -0.0589256), wk =   0.0277778
        k(   10) = (  -0.1178511   0.2357023  -0.1178511), wk =   0.0277778
        k(   11) = (  -0.1767767   0.2946278  -0.1767767), wk =   0.0277778
        k(   12) = (  -0.2357023   0.3535534  -0.2357023), wk =   0.0277778
        k(   13) = (   0.4124790  -0.2946278   0.4124790), wk =   0.0277778
        k(   14) = (   0.3535534  -0.2357023   0.3535534), wk =   0.0277778
        k(   15) = (   0.2946278  -0.1767767   0.2946278), wk =   0.0277778
        k(   16) = (   0.2357023  -0.1178511   0.2357023), wk =   0.0277778
        k(   17) = (   0.1767767  -0.0589256   0.1767767), wk =   0.0277778
        k(   18) = (   0.1178511  -0.0000000   0.1178511), wk =   0.0138889
        k(   19) = (   0.0000000   0.2357023   0.0000000), wk =   0.0069444
        k(   20) = (  -0.0589256   0.2946278  -0.0589256), wk =   0.0277778
        k(   21) = (  -0.1178511   0.3535534  -0.1178511), wk =   0.0277778
        k(   22) = (  -0.1767767   0.4124790  -0.1767767), wk =   0.0277778
        k(   23) = (   0.4714045  -0.2357023   0.4714045), wk =   0.0277778
        k(   24) = (   0.4124790  -0.1767767   0.4124790), wk =   0.0277778
        k(   25) = (   0.3535534  -0.1178511   0.3535534), wk =   0.0277778
        k(   26) = (   0.2946278  -0.0589256   0.2946278), wk =   0.0277778
        k(   27) = (   0.2357023   0.0000000   0.2357023), wk =   0.0138889
        k(   28) = (   0.0000000   0.3535534   0.0000000), wk =   0.0069444
        k(   29) = (  -0.0589256   0.4124790  -0.0589256), wk =   0.0277778
        k(   30) = (  -0.1178511   0.4714045  -0.1178511), wk =   0.0277778
        k(   31) = (   0.5303301  -0.1767767   0.5303301), wk =   0.0277778
        k(   32) = (   0.4714045  -0.1178511   0.4714045), wk =   0.0277778
        k(   33) = (   0.4124790  -0.0589256   0.4124790), wk =   0.0277778
        k(   34) = (   0.3535534   0.0000000   0.3535534), wk =   0.0138889
        k(   35) = (   0.0000000   0.4714045   0.0000000), wk =   0.0069444
        k(   36) = (  -0.0589256   0.5303301  -0.0589256), wk =   0.0277778
        k(   37) = (   0.5892557  -0.1178511   0.5892557), wk =   0.0277778
        k(   38) = (   0.5303301  -0.0589256   0.5303301), wk =   0.0277778
        k(   39) = (   0.4714045  -0.0000000   0.4714045), wk =   0.0138889
        k(   40) = (   0.0000000   0.5892557   0.0000000), wk =   0.0069444
        k(   41) = (   0.6481812  -0.0589256   0.6481812), wk =   0.0277778
        k(   42) = (   0.5892557   0.0000000   0.5892557), wk =   0.0138889
        k(   43) = (   0.0000000  -0.7071068   0.0000000), wk =   0.0034722
        k(   44) = (  -0.1178511   0.2357023  -0.0000000), wk =   0.0277778
        k(   45) = (  -0.1767767   0.2946278  -0.0589256), wk =   0.0555556
        k(   46) = (  -0.2357023   0.3535534  -0.1178511), wk =   0.0555556
        k(   47) = (   0.4124790  -0.2946278   0.5303301), wk =   0.0555556
        k(   48) = (   0.3535534  -0.2357023   0.4714045), wk =   0.0277778
        k(   49) = (  -0.1178511   0.3535534   0.0000000), wk =   0.0277778
        k(   50) = (  -0.1767767   0.4124790  -0.0589256), wk =   0.0555556
        k(   51) = (   0.4714045  -0.2357023   0.5892557), wk =   0.0555556
        k(   52) = (   0.4124790  -0.1767767   0.5303301), wk =   0.0555556
        k(   53) = (   0.3535534  -0.1178511   0.4714045), wk =   0.0555556
        k(   54) = (   0.2946278  -0.0589256   0.4124790), wk =   0.0555556
        k(   55) = (   0.2357023   0.0000000   0.3535534), wk =   0.0277778
        k(   56) = (  -0.1178511   0.4714045   0.0000000), wk =   0.0277778
        k(   57) = (   0.5303301  -0.1767767   0.6481812), wk =   0.0555556
        k(   58) = (   0.4714045  -0.1178511   0.5892557), wk =   0.0555556
        k(   59) = (   0.4124790  -0.0589256   0.5303301), wk =   0.0555556
        k(   60) = (   0.3535534  -0.0000000   0.4714045), wk =   0.0277778
        k(   61) = (   0.5892557  -0.1178511   0.7071068), wk =   0.0277778
        k(   62) = (   0.5303301  -0.0589256   0.6481812), wk =   0.0555556
        k(   63) = (   0.4714045  -0.0000000   0.5892557), wk =   0.0277778
        k(   64) = (  -0.1178511  -0.7071068   0.0000000), wk =   0.0138889
        k(   65) = (   0.4714045  -0.2357023   0.7071068), wk =   0.0277778
        k(   66) = (   0.4124790  -0.1767767   0.6481812), wk =   0.0555556
        k(   67) = (   0.3535534  -0.1178511   0.5892557), wk =   0.0277778
        k(   68) = (   0.4714045  -0.1178511   0.7071068), wk =   0.0277778
        k(   69) = (   0.4124790  -0.0589256   0.6481812), wk =   0.0555556
        k(   70) = (   0.3535534   0.0000000   0.5892557), wk =   0.0277778
        k(   71) = (  -0.2357023  -0.7071068   0.0000000), wk =   0.0138889
        k(   72) = (  -0.3535534  -0.7071068   0.0000000), wk =   0.0069444

     Dense  grid:    75313 G-vectors     FFT dimensions: (  60,  60,  60)

     Smooth grid:    17261 G-vectors     FFT dimensions: (  40,  40,  40)

     Estimated max dynamical RAM per process >      76.33 MB

     Estimated total dynamical RAM >     305.30 MB

     Initial potential from superposition of free atoms

     starting charge       7.9989, renormalised to       8.0000
     Starting wfcs are    8 randomized atomic wfcs

     total cpu time spent up to now is        1.4 secs

     per-process dynamical memory:    27.7 Mb

     Self-consistent Calculation

     iteration #  1     ecut=    60.00 Ry     beta= 0.70
     CG style diagonalization
     ethr =  1.00E-10,  avg # of iterations = 33.9

     total cpu time spent up to now is       20.9 secs

     total energy              =     -22.83793820 Ry
     estimated scf accuracy    <       0.05476578 Ry

     iteration #  2     ecut=    60.00 Ry     beta= 0.70
     CG style diagonalization
     ethr =  6.85E-04,  avg # of iterations =  3.0

     total cpu time spent up to now is       22.8 secs

     WARNING: integrated charge=     8.00001783, expected=     8.00000000

     total energy              =     -22.84008891 Ry
     estimated scf accuracy    <       0.00210890 Ry

     iteration #  3     ecut=    60.00 Ry     beta= 0.70
     CG style diagonalization
     ethr =  2.64E-05,  avg # of iterations =  3.0

     total cpu time spent up to now is       24.8 secs

     WARNING: integrated charge=     8.00002586, expected=     8.00000000

     total energy              =     -22.84017878 Ry
     estimated scf accuracy    <       0.00004119 Ry

     iteration #  4     ecut=    60.00 Ry     beta= 0.70
     CG style diagonalization
     ethr =  5.15E-07,  avg # of iterations =  4.3

     total cpu time spent up to now is       27.4 secs

     WARNING: integrated charge=     8.00002596, expected=     8.00000000

     total energy              =     -22.84021008 Ry
     estimated scf accuracy    <       0.00000455 Ry

     iteration #  5     ecut=    60.00 Ry     beta= 0.70
     CG style diagonalization
     ethr =  5.69E-08,  avg # of iterations =  3.5

     total cpu time spent up to now is       29.6 secs

     WARNING: integrated charge=     8.00002403, expected=     8.00000000

     total energy              =     -22.84021180 Ry
     estimated scf accuracy    <       0.00000304 Ry

     iteration #  6     ecut=    60.00 Ry     beta= 0.70
     CG style diagonalization
     ethr =  3.80E-08,  avg # of iterations =  3.1

     total cpu time spent up to now is       31.6 secs

     WARNING: integrated charge=     8.00002390, expected=     8.00000000

     total energy              =     -22.84021156 Ry
     estimated scf accuracy    <       0.00000003 Ry

     iteration #  7     ecut=    60.00 Ry     beta= 0.70
     CG style diagonalization
     ethr =  3.54E-10,  avg # of iterations =  3.8

     total cpu time spent up to now is       34.0 secs

     WARNING: integrated charge=     8.00002389, expected=     8.00000000

     total energy              =     -22.84021161 Ry
     estimated scf accuracy    <       0.00000001 Ry

     iteration #  8     ecut=    60.00 Ry     beta= 0.70
     CG style diagonalization
     ethr =  1.84E-10,  avg # of iterations =  3.5

     total cpu time spent up to now is       36.3 secs

     WARNING: integrated charge=     8.00002389, expected=     8.00000000

     total energy              =     -22.84021170 Ry
     estimated scf accuracy    <       0.00000001 Ry

     iteration #  9     ecut=    60.00 Ry     beta= 0.70
     CG style diagonalization
     ethr =  1.55E-10,  avg # of iterations =  3.0

     total cpu time spent up to now is       38.2 secs

     End of self-consistent calculation

          k = 0.0000 0.0000 0.0000 (  2109 PWs)   bands (ev):

    -5.8351   5.9810   5.9810   5.9810   8.5351   8.5351   8.5351   9.0980

          k =-0.0589 0.0589-0.0589 (  2139 PWs)   bands (ev):

    -5.7458   5.1215   5.8404   5.8404   8.5408   8.7420   8.7420   9.8047

          k =-0.1179 0.1179-0.1179 (  2151 PWs)   bands (ev):

    -5.4807   3.6149   5.5393   5.5393   8.2616   9.1712   9.1712  11.2490

          k =-0.1768 0.1768-0.1768 (  2160 PWs)   bands (ev):

    -5.0508   2.0914   5.2345   5.2345   7.9355   9.4701   9.4701  12.7228

          k =-0.2357 0.2357-0.2357 (  2151 PWs)   bands (ev):

    -4.4859   0.7082   4.9966   4.9966   7.6689   9.4847   9.4847  13.7625

          k =-0.2946 0.2946-0.2946 (  2165 PWs)   bands (ev):

    -3.8811  -0.3986   4.8497   4.8497   7.5003   9.3828   9.3828  13.7637

          k = 0.3536-0.3536 0.3536 (  2138 PWs)   bands (ev):

    -3.5579  -0.8907   4.8004   4.8004   7.4431   9.3319   9.3319  13.6881

          k = 0.0000 0.1179 0.0000 (  2141 PWs)   bands (ev):

    -5.7159   5.2697   5.5619   5.5619   8.2667   9.1009   9.1009   9.7594

          k =-0.0589 0.1768-0.0589 (  2152 PWs)   bands (ev):

    -5.5088   4.0550   5.2052   5.3833   8.2856   9.1370   9.6298  10.7374

          k =-0.1179 0.2357-0.1179 (  2153 PWs)   bands (ev):

    -5.1323   2.5766   4.8969   5.0636   8.3833   9.1442  10.0153  11.3409

          k =-0.1768 0.2946-0.1768 (  2158 PWs)   bands (ev):

    -4.6073   1.1648   4.6892   4.7154   8.2188   9.2591  10.0514  11.9197

          k =-0.2357 0.3536-0.2357 (  2154 PWs)   bands (ev):

    -3.9963  -0.0415   4.4239   4.5993   8.0470   9.2448   9.8698  12.9490

          k = 0.4125-0.2946 0.4125 (  2165 PWs)   bands (ev):

    -3.5203  -0.7923   4.2231   4.6282   7.9631   9.2539   9.6780  13.8511

          k = 0.3536-0.2357 0.3536 (  2161 PWs)   bands (ev):

    -3.6371  -0.6195   4.1310   4.7677   7.9868   9.3701   9.5686  13.9591

          k = 0.2946-0.1768 0.2946 (  2162 PWs)   bands (ev):

    -4.2030   0.3309   4.1602   5.0026   8.1172   9.5308   9.5718  13.3840

          k = 0.2357-0.1179 0.2357 (  2167 PWs)   bands (ev):

    -4.7975   1.6209   4.3203   5.3073   8.3418   9.4385   9.7091  12.4055

          k = 0.1768-0.0589 0.1768 (  2150 PWs)   bands (ev):

    -5.2765   3.0548   4.6230   5.6311   8.6259   9.1343   9.4813  11.5906

          k = 0.1179-0.0000 0.1179 (  2151 PWs)   bands (ev):

    -5.5977   4.3891   5.1390   5.8632   8.7810   8.8394   8.9284  10.6308

          k = 0.0000 0.2357 0.0000 (  2145 PWs)   bands (ev):

    -5.3600   3.9232   4.8146   4.8146   7.6947  10.1868  10.2812  10.2812

          k =-0.0589 0.2946-0.0589 (  2162 PWs)   bands (ev):

    -5.0390   2.8578   4.4667   4.4859   7.7137   9.8243  10.6308  10.8377

          k =-0.1179 0.3536-0.1179 (  2158 PWs)   bands (ev):

    -4.5606   1.5743   4.0184   4.2702   7.9500   9.9843  10.4862  11.0144

          k =-0.1768 0.4125-0.1768 (  2158 PWs)   bands (ev):

    -3.9661   0.3654   3.5854   4.1865   7.9940  10.1703  10.8493  11.0077

          k = 0.4714-0.2357 0.4714 (  2175 PWs)   bands (ev):

    -3.3983  -0.5462   3.2472   4.2380   8.0209  10.0417  10.5870  12.3469

          k = 0.4125-0.1768 0.4125 (  2170 PWs)   bands (ev):

    -3.2879  -0.7011   3.0389   4.4174   8.1557  10.0023  10.3648  13.8775

          k = 0.3536-0.1179 0.3536 (  2160 PWs)   bands (ev):

    -3.7728   0.0382   2.9870   4.7059   8.4054  10.0645  10.1954  13.1732

          k = 0.2946-0.0589 0.2946 (  2161 PWs)   bands (ev):

    -4.3827   1.1596   3.1351   5.0663   8.7185   9.9580  10.1245  12.0229

          k = 0.2357 0.0000 0.2357 (  2149 PWs)   bands (ev):

    -4.9038   2.2802   3.6221   5.4230   8.9545   9.5156   9.7940  11.5608

          k = 0.0000 0.3536 0.0000 (  2181 PWs)   bands (ev):

    -4.7733   2.4583   4.1302   4.1302   7.1329   9.1190  11.6694  11.6694

          k =-0.0589 0.4125-0.0589 (  2161 PWs)   bands (ev):

    -4.3451   1.5644   3.6734   3.8876   7.2161   8.7754  11.9415  12.1510

          k =-0.1179 0.4714-0.1179 (  2154 PWs)   bands (ev):

    -3.7817   0.5573   3.0532   3.7816   7.4360   9.2342  11.7984  12.1240

          k = 0.5303-0.1768 0.5303 (  2166 PWs)   bands (ev):

    -3.1728  -0.3463   2.5163   3.8187   7.5245  10.4162  11.6237  11.8592

          k = 0.4714-0.1179 0.4714 (  2176 PWs)   bands (ev):

    -2.8596  -0.7479   2.1611   3.9946   7.6982  11.3908  11.5671  12.0621

          k = 0.4125-0.0589 0.4125 (  2168 PWs)   bands (ev):

    -3.2250  -0.2678   2.0478   4.2928   8.0111  11.2622  11.3593  13.0589

          k = 0.3536 0.0000 0.3536 (  2151 PWs)   bands (ev):

    -3.8323   0.5376   2.3099   4.6766   8.4183  10.7273  11.0679  12.0168

          k = 0.0000 0.4714 0.0000 (  2181 PWs)   bands (ev):

    -3.9665   0.9864   3.6114   3.6114   6.7405   8.0058  13.1519  13.1519

          k =-0.0589 0.5303-0.0589 (  2156 PWs)   bands (ev):

    -3.4422   0.2138   3.1384   3.4709   6.9026   7.8731  13.4595  13.5269

          k = 0.5893-0.1179 0.5893 (  2161 PWs)   bands (ev):

    -2.8270  -0.5405   2.4297   3.4765   7.0792   8.7058  13.3443  13.3591

          k = 0.5303-0.0589 0.5303 (  2175 PWs)   bands (ev):

    -2.3722  -1.0188   1.8658   3.6269   7.2525  10.1311  13.0105  13.1782

          k = 0.4714-0.0000 0.4714 (  2185 PWs)   bands (ev):

    -2.6404  -0.7363   1.6687   3.9095   7.5705  11.7643  12.3854  12.9490

          k = 0.0000 0.5893 0.0000 (  2160 PWs)   bands (ev):

    -2.9565  -0.4394   3.2917   3.2917   6.5930   7.1998  14.6858  14.6858

          k = 0.6482-0.0589 0.6482 (  2173 PWs)   bands (ev):

    -2.3552  -1.1153   2.8732   3.2584   6.7950   7.3550  14.9335  15.0125

          k = 0.5893 0.0000 0.5893 (  2173 PWs)   bands (ev):

    -1.9131  -1.5097   2.2224   3.3731   6.9529   8.5324  14.3878  14.8633

          k = 0.0000-0.7071 0.0000 (  2200 PWs)   bands (ev):

    -1.7689  -1.7689   3.1839   3.1839   6.7351   6.7351  15.9018  15.9018

          k =-0.1179 0.2357-0.0000 (  2162 PWs)   bands (ev):

    -5.2452   3.2566   4.3843   5.2834   8.3146   9.4425  10.0969  10.8520

          k =-0.1768 0.2946-0.0589 (  2158 PWs)   bands (ev):

    -4.8173   2.0370   3.8572   5.0141   8.5836   9.4263  10.5035  10.8668

          k =-0.2357 0.3536-0.1179 (  2159 PWs)   bands (ev):

    -4.2542   0.7613   3.5865   4.6944   8.6045   9.3493  10.5646  11.4997

          k = 0.4125-0.2946 0.5303 (  2160 PWs)   bands (ev):

    -3.6479  -0.3046   3.4573   4.4542   8.5349   9.1895  10.4900  12.6891

          k = 0.3536-0.2357 0.4714 (  2168 PWs)   bands (ev):

    -3.3203  -0.7893   3.4208   4.3651   8.5072   9.1153  10.4469  13.9700

          k =-0.1179 0.3536 0.0000 (  2160 PWs)   bands (ev):

    -4.6651   2.0691   3.7016   4.3842   7.7792   9.4964  10.7464  11.5529

          k =-0.1768 0.4125-0.0589 (  2160 PWs)   bands (ev):

    -4.1433   1.0387   3.1711   4.1036   8.1088   9.7189  10.4892  11.9378

          k = 0.4714-0.2357 0.5893 (  2171 PWs)   bands (ev):

    -3.5321   0.0087   2.8160   3.8989   8.2302  10.1610  10.7491  11.9236

          k = 0.4125-0.1768 0.5303 (  2177 PWs)   bands (ev):

    -3.0496  -0.6783   2.5734   3.8813   8.3539   9.8897  11.8175  12.2020

          k = 0.3536-0.1179 0.4714 (  2174 PWs)   bands (ev):

    -3.1814  -0.4963   2.4597   4.0495   8.5936   9.7075  11.7281  12.5979

          k = 0.2946-0.0589 0.4125 (  2171 PWs)   bands (ev):

    -3.7563   0.3582   2.5379   4.3586   8.9361   9.5708  11.2228  11.7025

          k = 0.2357 0.0000 0.3536 (  2156 PWs)   bands (ev):

    -4.3458   1.3180   2.9496   4.7310   9.1766   9.2916  10.6381  11.2621

          k =-0.1179 0.4714 0.0000 (  2158 PWs)   bands (ev):

    -3.8702   0.8154   3.2012   3.6198   7.3919   8.4811  11.9670  13.1026

          k = 0.5303-0.1768 0.6482 (  2171 PWs)   bands (ev):

    -3.2774  -0.0050   2.6268   3.4085   7.7258   8.9958  11.6735  13.4672

          k = 0.4714-0.1179 0.5893 (  2173 PWs)   bands (ev):

    -2.7032  -0.7026   2.1174   3.4159   7.8788  10.2728  11.3814  13.3949

          k = 0.4125-0.0589 0.5303 (  2175 PWs)   bands (ev):

    -2.6358  -0.7702   1.8364   3.6097   8.1290  11.0073  11.9802  12.6321

          k = 0.3536-0.0000 0.4714 (  2171 PWs)   bands (ev):

    -3.1600  -0.1920   1.9222   3.9469   8.5091  10.5918  11.4359  12.7574

          k = 0.5893-0.1179 0.7071 (  2165 PWs)   bands (ev):

    -2.8815  -0.4764   2.9229   3.1164   7.2287   7.7447  13.3281  14.6788

          k = 0.5303-0.0589 0.6482 (  2173 PWs)   bands (ev):

    -2.2668  -1.1082   2.3133   3.0731   7.5204   8.6291  13.0162  14.4608

          k = 0.4714-0.0000 0.5893 (  2172 PWs)   bands (ev):

    -2.1202  -1.2163   1.8290   3.2659   7.7529  10.1385  12.5618  12.9522

          k =-0.1179-0.7071 0.0000 (  2162 PWs)   bands (ev):

    -1.7329  -1.7329   2.8887   2.8887   7.3349   7.3349  14.7716  14.7716

          k = 0.4714-0.2357 0.7071 (  2166 PWs)   bands (ev):

    -3.5908   0.3690   2.4889   3.7357   8.8270   9.7047  10.1567  12.9635

          k = 0.4125-0.1768 0.6482 (  2178 PWs)   bands (ev):

    -2.9813  -0.3854   2.1473   3.4079   9.2039   9.7282  10.6926  13.3897

          k = 0.3536-0.1179 0.5893 (  2194 PWs)   bands (ev):

    -2.6312  -0.8025   2.0544   3.2820   9.3502   9.4979  12.0412  12.4177

          k = 0.4714-0.1179 0.7071 (  2178 PWs)   bands (ev):

    -2.6743  -0.6191   2.2959   2.9036   8.6636   9.0735  11.3032  14.1870

          k = 0.4125-0.0589 0.6482 (  2181 PWs)   bands (ev):

    -2.1645  -1.1159   1.9902   2.7527   9.0050  10.2626  11.0256  12.4054

          k = 0.3536 0.0000 0.5893 (  2185 PWs)   bands (ev):

    -2.3917  -0.8891   1.8682   2.9722   9.3034  10.4356  10.9307  12.1566

          k =-0.2357-0.7071 0.0000 (  2174 PWs)   bands (ev):

    -1.6558  -1.6558   2.4190   2.4190   8.7348   8.7348  12.6681  12.6681

          k =-0.3536-0.7071 0.0000 (  2180 PWs)   bands (ev):

    -1.6145  -1.6145   2.2180   2.2180  10.2570  10.2570  10.9092  10.9092

     the Fermi energy is     6.3622 ev

     WARNING: integrated charge=     8.00002388, expected=     8.00000000

!    total energy              =     -22.84021166 Ry
     estimated scf accuracy    <          3.8E-11 Ry
     smearing contrib. (-TS)   =       0.00000019 Ry
     internal energy E=F+TS    =     -22.84021185 Ry

     The total energy is F=E-TS. E is the sum of the following terms:
     one-electron contribution =       5.00132671 Ry
     hartree contribution      =       1.11933717 Ry
     xc contribution           =     -12.28303139 Ry
     ewald contribution        =     -16.67784435 Ry

     convergence has been achieved in   9 iterations

     Forces acting on atoms (cartesian axes, Ry/au):

     atom    1 type  1   force =     0.00000000    0.00000000    0.00000000
     atom    2 type  1   force =     0.00000000    0.00000000    0.00000000

     Total force =     0.000000     Total SCF correction =     0.000000


     Computing stress (Cartesian axis) and pressure

          total   stress  (Ry/bohr**3)                   (kbar)     P=        0.01
   0.00000008   0.00000000   0.00000000            0.01        0.00        0.00
   0.00000000   0.00000008  -0.00000000            0.00        0.01       -0.00
   0.00000000  -0.00000000   0.00000008            0.00       -0.00        0.01


     Writing all to output data dir ./tmp/si-diamond.save/ :
     XML data file, charge density, pseudopotentials, collected wavefunctions

     init_run     :      1.25s CPU      1.30s WALL (       1 calls)
     electrons    :     34.59s CPU     36.81s WALL (       1 calls)
     forces       :      0.33s CPU      0.37s WALL (       1 calls)
     stress       :      1.54s CPU      1.62s WALL (       1 calls)

     Called by init_run:
     wfcinit      :      0.43s CPU      0.45s WALL (       1 calls)
     potinit      :      0.17s CPU      0.18s WALL (       1 calls)
     hinit0       :      0.31s CPU      0.31s WALL (       1 calls)

     Called by electrons:
     c_bands      :     31.18s CPU     32.81s WALL (       9 calls)
     sum_band     :      2.45s CPU      2.77s WALL (       9 calls)
     v_of_rho     :      0.28s CPU      0.32s WALL (      10 calls)
     newd         :      0.72s CPU      0.98s WALL (      10 calls)
     mix_rho      :      0.03s CPU      0.03s WALL (       9 calls)

     Called by c_bands:
     init_us_2    :      0.34s CPU      0.36s WALL (    1512 calls)
     ccgdiagg     :     27.94s CPU     29.40s WALL (     648 calls)
     wfcrot       :      3.44s CPU      3.62s WALL (     648 calls)

     Called by *cgdiagg:
     h_psi        :     21.28s CPU     22.42s WALL (   31223 calls)
     s_psi        :      4.63s CPU      4.86s WALL (   61798 calls)

     Called by h_psi:
     h_psi:calbec :      3.37s CPU      3.54s WALL (   31223 calls)
     vloc_psi     :     15.24s CPU     16.08s WALL (   31223 calls)
                                        0.00s GPU  (   31223 calls)
     add_vuspsi   :      2.49s CPU      2.61s WALL (   31223 calls)
     hs_1psi      :     20.82s CPU     21.92s WALL (   30575 calls)
     s_1psi       :      5.17s CPU      5.43s WALL (   30575 calls)

     General routines
     calbec       :      7.21s CPU      7.57s WALL (   63670 calls)
     fft          :      0.34s CPU      0.38s WALL (     153 calls)
     ffts         :      0.14s CPU      0.14s WALL (      19 calls)
     fftw         :     14.28s CPU     15.08s WALL (   76702 calls)
     interpolate  :      0.15s CPU      0.15s WALL (      10 calls)

     Parallel routines

     PWSCF        :     37.87s CPU     40.29s WALL


   This run was terminated on:  22:44:28  22Sep2026            

=------------------------------------------------------------------------------=
   JOB DONE.
=------------------------------------------------------------------------------=
