
     Program PWSCF v.7.5 starts on 22Sep2026 at 23:21:49 

     This program is part of the open-source Quantum ESPRESSO suite
     for quantum simulation of materials; please cite
         "P. Giannozzi et al., J. Phys.:Condens. Matter 21 395502 (2009);
         "P. Giannozzi et al., J. Phys.:Condens. Matter 29 465901 (2017);
         "P. Giannozzi et al., J. Chem. Phys. 152 154105 (2020);
          URL http://www.quantum-espresso.org", 
     in publications or presentations arising from this work. More details at
     http://www.quantum-espresso.org/quote

     Parallel version (MPI), running on     4 processors

     MPI processes distributed on     1 nodes
     2366 MiB available memory on the printing compute node when the environment starts

     Reading input from scf.in

     Current dimensions of program PWSCF are:
     Max number of different atomic species (ntypx) = 10
     Max number of k-points (npk) =  40000
     Max angular momentum in pseudopotentials (lmaxx) =  4
     Message from routine setup:
     using ibrav=0 with symmetry is DISCOURAGED, use correct ibrav instead

     R & G space division:  proc/nbgrp/npool/nimage =       4
     Subspace diagonalization in iterative solution of the eigenvalue problem:
     a serial algorithm will be used


     Parallelization info
     --------------------
     sticks:   dense  smooth     PW     G-vecs:    dense   smooth      PW
     Min         689     342    101                27281     9658    1545
     Max         690     343    102                27283     9663    1548
     Sum        2757    1369    405               109127    38641    6187

     Using Slab Decomposition



     bravais-lattice index     =            0
     lattice parameter (alat)  =       7.3715  a.u.
     unit-cell volume          =     400.5661 (a.u.)^3
     number of atoms/cell      =            4
     number of atomic types    =            2
     number of electrons       =        15.00
     number of Kohn-Sham states=           14
     kinetic-energy cutoff     =      80.0000  Ry
     charge density cutoff     =     640.0000  Ry
     scf convergence threshold =      1.0E-10
     mixing beta               =       0.7000
     number of iterations used =            8  plain     mixing
     Exchange-correlation= PBE
                           (   1   4   3   4   0   0   0)

     celldm(1)=   7.371537  celldm(2)=   0.000000  celldm(3)=   0.000000
     celldm(4)=   0.000000  celldm(5)=   0.000000  celldm(6)=   0.000000

     crystal axes: (cart. coord. in units of alat)
               a(1) = (   1.000000   0.000000   0.000000 )  
               a(2) = (   0.000000   1.000000   0.000000 )  
               a(3) = (   0.000000   0.000000   1.000000 )  

     reciprocal axes: (cart. coord. in units 2 pi/alat)
               b(1) = (  1.000000  0.000000  0.000000 )  
               b(2) = (  0.000000  1.000000  0.000000 )  
               b(3) = (  0.000000  0.000000  1.000000 )  


     PseudoPot. # 1 for Al read from file:
     ../../pseudo/Al.pbe-n-rrkjus_psl.1.0.0.UPF
     MD5 check sum: bbe9f3f15d9b3b5ab9a58e4859ebdbfe
     Pseudo is Ultrasoft + core correction, Zval =  3.0
     Generated using &quot;atomic&quot; code by A. Dal Corso  v.6.3
     Using radial grid of 1135 points,  6 beta functions with: 
                l(1) =   0
                l(2) =   0
                l(3) =   1
                l(4) =   1
                l(5) =   2
                l(6) =   2
     Q(r) pseudized with 0 coefficients 


     PseudoPot. # 2 for Si read from file:
     ../../pseudo/Si.pbe-n-rrkjus_psl.1.0.0.UPF
     MD5 check sum: fa25574f73a70a4139f2adfbefec430c
     Pseudo is Ultrasoft + core correction, Zval =  4.0
     Generated using &quot;atomic&quot; code by A. Dal Corso  v.6.3
     Using radial grid of 1141 points,  6 beta functions with: 
                l(1) =   0
                l(2) =   0
                l(3) =   1
                l(4) =   1
                l(5) =   2
                l(6) =   2
     Q(r) pseudized with 0 coefficients 


     atomic species   valence    mass     pseudopotential
     Al                3.00    26.98154     Al( 1.00)
     Si                4.00    28.08500     Si( 1.00)

     48 Sym. Ops., with inversion, found



   Cartesian axes

     site n.     atom                  positions (alat units)
         1        Al     tau(   1) = (   0.0000000   0.0000000   0.0000000  )
         2        Si     tau(   2) = (   0.0000000   0.5000000   0.5000000  )
         3        Si     tau(   3) = (   0.5000000   0.0000000   0.5000000  )
         4        Si     tau(   4) = (   0.5000000   0.5000000   0.0000000  )

     number of k points=   969  Marzari-Vanderbilt smearing, width (Ry)=  0.0050

     Number of k-points >= 100: set verbosity='high' to print them.

     Dense  grid:   109127 G-vectors     FFT dimensions: (  60,  60,  60)

     Smooth grid:    38641 G-vectors     FFT dimensions: (  45,  45,  45)

     Estimated max dynamical RAM per process >     355.54 MB

     Estimated total dynamical RAM >       1.39 GB

     The initial density is read from file :
     ./tmp/alsi3-l12.save/charge-density

     Starting wfcs are   16 randomized atomic wfcs

     total cpu time spent up to now is       32.4 secs

     per-process dynamical memory:   297.3 Mb

     Self-consistent Calculation

     iteration #  1     ecut=    80.00 Ry     beta= 0.70
     CG style diagonalization
     ethr =  1.00E-06,  avg # of iterations = 21.8

     Threshold (ethr) on eigenvalues was too large:
     Diagonalizing with lowered threshold

     CG style diagonalization
     ethr =  4.98E-08,  avg # of iterations =  5.1

     total cpu time spent up to now is     1114.3 secs

     total energy              =     -39.19239473 Ry
     estimated scf accuracy    <       0.00000727 Ry

     iteration #  2     ecut=    80.00 Ry     beta= 0.70
     CG style diagonalization
     ethr =  4.85E-08,  avg # of iterations =  3.5

     total cpu time spent up to now is     1241.1 secs

     total energy              =     -39.19239680 Ry
     estimated scf accuracy    <       0.00000214 Ry

     iteration #  3     ecut=    80.00 Ry     beta= 0.70
     CG style diagonalization
     ethr =  1.43E-08,  avg # of iterations =  3.3

     total cpu time spent up to now is     1362.3 secs

     total energy              =     -39.19239735 Ry
     estimated scf accuracy    <       0.00000002 Ry

     iteration #  4     ecut=    80.00 Ry     beta= 0.70
     CG style diagonalization
     ethr =  1.15E-10,  avg # of iterations =  4.1

     total cpu time spent up to now is     1510.7 secs

     total energy              =     -39.19239737 Ry
     estimated scf accuracy    <          3.6E-09 Ry

     iteration #  5     ecut=    80.00 Ry     beta= 0.70
     CG style diagonalization
     ethr =  2.42E-11,  avg # of iterations =  3.5

     total cpu time spent up to now is     1639.8 secs

     total energy              =     -39.19239737 Ry
     estimated scf accuracy    <          2.5E-09 Ry

     iteration #  6     ecut=    80.00 Ry     beta= 0.70
     CG style diagonalization
     ethr =  1.63E-11,  avg # of iterations =  3.1

     total cpu time spent up to now is     1751.9 secs

     End of self-consistent calculation

     Number of k-points >= 100: set verbosity='high' to print the bands.

     the Fermi energy is    10.0837 ev

!    total energy              =     -39.19239737 Ry
     estimated scf accuracy    <          2.9E-11 Ry
     smearing contrib. (-TS)   =       0.00000255 Ry
     internal energy E=F+TS    =     -39.19239992 Ry

     The total energy is F=E-TS. E is the sum of the following terms:
     one-electron contribution =      16.87499598 Ry
     hartree contribution      =       0.28595940 Ry
     xc contribution           =     -21.13823399 Ry
     ewald contribution        =     -35.21512132 Ry

     convergence has been achieved in   6 iterations

     Forces acting on atoms (cartesian axes, Ry/au):

     atom    1 type  1   force =     0.00000000    0.00000000    0.00000000
     atom    2 type  2   force =     0.00000000    0.00000000    0.00000000
     atom    3 type  2   force =     0.00000000    0.00000000    0.00000000
     atom    4 type  2   force =     0.00000000    0.00000000    0.00000000

     Total force =     0.000000     Total SCF correction =     0.000000


     Computing stress (Cartesian axis) and pressure

          total   stress  (Ry/bohr**3)                   (kbar)     P=       -0.45
  -0.00000308   0.00000000   0.00000000           -0.45        0.00        0.00
   0.00000000  -0.00000308   0.00000000            0.00       -0.45        0.00
   0.00000000   0.00000000  -0.00000308            0.00        0.00       -0.45


     Writing all to output data dir ./tmp/alsi3-l12.save/ :
     XML data file, charge density, pseudopotentials, collected wavefunctions

     init_run     :     31.15s CPU     32.08s WALL (       1 calls)
     electrons    :   1680.71s CPU   1719.57s WALL (       1 calls)
     forces       :     14.56s CPU     14.68s WALL (       1 calls)
     stress       :     53.11s CPU     53.45s WALL (       1 calls)

     Called by init_run:
     wfcinit      :     30.24s CPU     31.10s WALL (       1 calls)
     potinit      :      0.10s CPU      0.10s WALL (       1 calls)
     hinit0       :      0.45s CPU      0.45s WALL (       1 calls)

     Called by electrons:
     c_bands      :   1609.21s CPU   1645.24s WALL (       7 calls)
     sum_band     :     70.08s CPU     72.49s WALL (       7 calls)
     v_of_rho     :      0.21s CPU      0.22s WALL (       7 calls)
     newd         :      1.41s CPU      1.87s WALL (       7 calls)
     mix_rho      :      0.02s CPU      0.02s WALL (       7 calls)

     Called by c_bands:
     init_us_2    :     12.48s CPU     12.60s WALL (   16473 calls)
     ccgdiagg     :   1486.40s CPU   1519.69s WALL (    6783 calls)
     wfcrot       :    144.45s CPU    147.95s WALL (    5814 calls)

     Called by *cgdiagg:
     h_psi        :    983.68s CPU   1013.39s WALL (  539891 calls)
     s_psi        :    301.42s CPU    305.53s WALL ( 1073968 calls)

     Called by h_psi:
     h_psi:calbec :    242.34s CPU    249.31s WALL (  539891 calls)
     vloc_psi     :    549.10s CPU    567.84s WALL (  539891 calls)
                                        0.00s GPU  (  539891 calls)
     add_vuspsi   :    187.06s CPU    191.11s WALL (  539891 calls)
     hs_1psi      :   1012.53s CPU   1041.16s WALL (  534077 calls)
     s_1psi       :    363.40s CPU    366.70s WALL (  534077 calls)

     General routines
     calbec       :    529.97s CPU    539.72s WALL ( 1097224 calls)
     fft          :      0.34s CPU      0.35s WALL (     115 calls)
     ffts         :      0.07s CPU      0.07s WALL (      14 calls)
     fftw         :    524.23s CPU    542.73s WALL ( 1329784 calls)
     interpolate  :      0.07s CPU      0.07s WALL (       7 calls)

     Parallel routines

     PWSCF        :  29m40.43s CPU  30m21.34s WALL


   This run was terminated on:  23:52:10  22Sep2026            

=------------------------------------------------------------------------------=
   JOB DONE.
=------------------------------------------------------------------------------=
