 running on    4 total cores
 distrk:  each k-point on    4 cores,    1 groups
 distr:  one band on    1 cores,    4 groups
 using from now: INCAR     
 vasp.5.4.4.18Apr17-6-g9f103f2a35 (build Feb 26 2024 21:30:50) complex          
  
 POSCAR found type information on POSCAR  H 
 POSCAR found :  1 types and       1 ions
 scaLAPACK will be used
 LDA part: xc-table for Pade appr. of Perdew
 POSCAR, INCAR and KPOINTS ok, starting setup
 FFT: planning ...
 WAVECAR not read
 entering main loop
       N       E                     dE             d eps       ncg     rms          rms(c)
DAV:   1     0.112707737108E+01    0.11271E+01   -0.10569E+02    32   0.324E+01
DAV:   2    -0.110352170642E+01   -0.22306E+01   -0.22306E+01    56   0.929E+00
DAV:   3    -0.112066607075E+01   -0.17144E-01   -0.17144E-01    32   0.146E+00
DAV:   4    -0.112074019877E+01   -0.74128E-04   -0.74128E-04    48   0.918E-02
DAV:   5    -0.112074067381E+01   -0.47504E-06   -0.47504E-06    56   0.647E-03    0.644E-01
DAV:   6     0.443364692511E-02    0.11252E+01   -0.98229E-04    40   0.102E-01    0.359E-01
DAV:   7    -0.720489121636E+00   -0.72492E+00   -0.58247E-04    40   0.601E-02    0.181E-01
DAV:   8    -0.106323571603E+01   -0.34275E+00   -0.11467E-03    32   0.627E-02    0.286E-02
DAV:   9    -0.106365206492E+01   -0.41635E-03   -0.16744E-04    32   0.284E-02    0.163E-02
DAV:  10    -0.109818082128E+01   -0.34529E-01   -0.16773E-05    32   0.119E-02    0.741E-03
DAV:  11    -0.111213433522E+01   -0.13954E-01   -0.29104E-05    32   0.145E-02    0.403E-03
DAV:  12    -0.111128379624E+01    0.85054E-03   -0.97083E-06    32   0.119E-02    0.272E-03
DAV:  13    -0.111364282354E+01   -0.23590E-02   -0.13039E-05    32   0.746E-03    0.154E-03
DAV:  14    -0.111383296413E+01   -0.19014E-03   -0.11041E-06    32   0.253E-03    0.940E-04
DAV:  15    -0.111467495871E+01   -0.84199E-03   -0.15372E-06    32   0.260E-03    0.656E-04
DAV:  16    -0.111529137595E+01   -0.61642E-03   -0.18021E-06    32   0.231E-03    0.351E-04
DAV:  17    -0.111526225155E+01    0.29124E-04   -0.37153E-07    32   0.993E-04    0.176E-04
DAV:  18    -0.111535506834E+01   -0.92817E-04   -0.16717E-07    32   0.690E-04    0.172E-04
DAV:  19    -0.111546132853E+01   -0.10626E-03   -0.18565E-07    32   0.682E-04    0.568E-05
DAV:  20    -0.111550350604E+01   -0.42178E-04   -0.48766E-08    40   0.352E-04    0.534E-05
DAV:  21    -0.111550747793E+01   -0.39719E-05   -0.20484E-09    40   0.852E-05    0.182E-05
DAV:  22    -0.111552297994E+01   -0.15502E-04   -0.27004E-09    32   0.922E-05    0.100E-05
DAV:  23    -0.111553004983E+01   -0.70699E-05   -0.41058E-10    40   0.377E-05    0.429E-06
DAV:  24    -0.111553079560E+01   -0.74577E-06   -0.67990E-11    32   0.152E-05    0.206E-06
DAV:  25    -0.111553304774E+01   -0.22521E-05   -0.67928E-11    40   0.179E-05    0.175E-06
DAV:  26    -0.111553377391E+01   -0.72617E-06    0.36504E-12    32   0.535E-06    0.507E-07
DAV:  27    -0.111553340957E+01    0.36434E-06    0.98854E-12    32   0.301E-06    0.240E-07
DAV:  28    -0.111553415525E+01   -0.74568E-06    0.89706E-12    32   0.278E-06    0.220E-07
DAV:  29    -0.111553407899E+01    0.76252E-07    0.13012E-11    32   0.880E-07    0.268E-07
DAV:  30    -0.111553423441E+01   -0.15541E-06    0.22577E-11    32   0.126E-06    0.156E-07
DAV:  31    -0.111553427162E+01   -0.37212E-07    0.11147E-11    40   0.712E-07    0.109E-07
DAV:  32    -0.111553427860E+01   -0.69796E-08    0.21005E-11    32   0.517E-07
   1 F= -.11155343E+01 E0= -.11155343E+01  d E =-.379612E-12  mag=     1.0000
