
     Program PWSCF v.7.5 starts on 22Sep2026 at 23:54:27 

     This program is part of the open-source Quantum ESPRESSO suite
     for quantum simulation of materials; please cite
         "P. Giannozzi et al., J. Phys.:Condens. Matter 21 395502 (2009);
         "P. Giannozzi et al., J. Phys.:Condens. Matter 29 465901 (2017);
         "P. Giannozzi et al., J. Chem. Phys. 152 154105 (2020);
          URL http://www.quantum-espresso.org", 
     in publications or presentations arising from this work. More details at
     http://www.quantum-espresso.org/quote

     Parallel version (MPI), running on     8 processors

     MPI processes distributed on     1 nodes
     2470 MiB available memory on the printing compute node when the environment starts
 
     Reading input from mos2.relax.in

     Current dimensions of program PWSCF are:
     Max number of different atomic species (ntypx) = 10
     Max number of k-points (npk) =  40000
     Max angular momentum in pseudopotentials (lmaxx) =  4
     file Mo.pbe-spn-rrkjus_psl.1.0.0.UPF: wavefunction(s)  4S renormalized
     Message from routine setup:
     using ibrav=0 with symmetry is DISCOURAGED, use correct ibrav instead
 
     R & G space division:  proc/nbgrp/npool/nimage =       8
     Subspace diagonalization in iterative solution of the eigenvalue problem:
     a serial algorithm will be used

 
     Parallelization info
     --------------------
     sticks:   dense  smooth     PW     G-vecs:    dense   smooth      PW
     Min         148      74     21                30434    10762    1713
     Max         149      75     22                30463    10785    1735
     Sum        1189     595    169               243605    86143   13785
 
     Using Slab Decomposition
 


     bravais-lattice index     =            0
     lattice parameter (alat)  =       6.0145  a.u.
     unit-cell volume          =    1372.8624 (a.u.)^3
     number of atoms/cell      =            3
     number of atomic types    =            2
     number of electrons       =        26.00
     number of Kohn-Sham states=           16
     kinetic-energy cutoff     =      60.0000  Ry
     charge density cutoff     =     480.0000  Ry
     scf convergence threshold =      1.0E-12
     mixing beta               =       0.3000
     number of iterations used =            8  plain     mixing
     energy convergence thresh.=      1.0E-08
     force convergence thresh. =      1.0E-05
     Exchange-correlation= PBE
                           (   1   4   3   4   0   0   0)
     nstep                     =           40


     celldm(1)=   6.014484  celldm(2)=   0.000000  celldm(3)=   0.000000
     celldm(4)=   0.000000  celldm(5)=   0.000000  celldm(6)=   0.000000

     crystal axes: (cart. coord. in units of alat)
               a(1) = (   1.000000   0.000000   0.000000 )  
               a(2) = (  -0.500000   0.866025   0.000000 )  
               a(3) = (   0.000000   0.000000   7.286202 )  

     reciprocal axes: (cart. coord. in units 2 pi/alat)
               b(1) = (  1.000000  0.577350  0.000000 )  
               b(2) = (  0.000000  1.154701  0.000000 )  
               b(3) = (  0.000000  0.000000  0.137246 )  


     PseudoPot. # 1 for Mo read from file:
     ../pseudo/Mo.pbe-spn-rrkjus_psl.1.0.0.UPF
     MD5 check sum: 03f09b12e49601d1a456a78ce8b2d514
     Pseudo is Ultrasoft + core correction, Zval = 14.0
     Generated using &quot;atomic&quot; code by A. Dal Corso  v.6.3
     Using radial grid of 1229 points,  6 beta functions with: 
                l(1) =   0
                l(2) =   0
                l(3) =   1
                l(4) =   1
                l(5) =   2
                l(6) =   2
     Q(r) pseudized with 0 coefficients 


     PseudoPot. # 2 for S  read from file:
     ../pseudo/S.pbe-n-rrkjus_psl.1.0.0.UPF
     MD5 check sum: 9d0fe39aa2a799ea84730884c9b010f4
     Pseudo is Ultrasoft + core correction, Zval =  6.0
     Generated using &quot;atomic&quot; code by A. Dal Corso  v.6.3
     Using radial grid of 1151 points,  6 beta functions with: 
                l(1) =   0
                l(2) =   0
                l(3) =   1
                l(4) =   1
                l(5) =   2
                l(6) =   2
     Q(r) pseudized with 0 coefficients 


     atomic species   valence    mass     pseudopotential
     Mo               14.00    95.95000     Mo( 1.00)
     S                 6.00    32.06000     S ( 1.00)

     12 Sym. Ops. (no inversion) found


                                    s                        frac. trans.

      isym =  1     identity                                     

 cryst.   s( 1) = (     1          0          0      )
                  (     0          1          0      )
                  (     0          0          1      )

 cart.    s( 1) = (  1.0000000  0.0000000  0.0000000 )
                  (  0.0000000  1.0000000  0.0000000 )
                  (  0.0000000  0.0000000  1.0000000 )


      isym =  2     180 deg rotation - cart. axis [0,1,0]        

 cryst.   s( 2) = (    -1          0          0      )
                  (     1          1          0      )
                  (     0          0         -1      )

 cart.    s( 2) = ( -1.0000000 -0.0000000  0.0000000 )
                  (  0.0000000  1.0000000  0.0000000 )
                  (  0.0000000  0.0000000 -1.0000000 )


      isym =  3     120 deg rotation - cryst. axis [0,0,1]       

 cryst.   s( 3) = (     0          1          0      )
                  (    -1         -1          0      )
                  (     0          0          1      )

 cart.    s( 3) = ( -0.5000000 -0.8660254  0.0000000 )
                  (  0.8660254 -0.5000000  0.0000000 )
                  (  0.0000000  0.0000000  1.0000000 )


      isym =  4     120 deg rotation - cryst. axis [0,0,-1]      

 cryst.   s( 4) = (    -1         -1          0      )
                  (     1          0          0      )
                  (     0          0          1      )

 cart.    s( 4) = ( -0.5000000  0.8660254  0.0000000 )
                  ( -0.8660254 -0.5000000  0.0000000 )
                  (  0.0000000  0.0000000  1.0000000 )


      isym =  5     180 deg rotation - cryst. axis [1,-1,0]      

 cryst.   s( 5) = (     0         -1          0      )
                  (    -1          0          0      )
                  (     0          0         -1      )

 cart.    s( 5) = (  0.5000000 -0.8660254  0.0000000 )
                  ( -0.8660254 -0.5000000  0.0000000 )
                  (  0.0000000  0.0000000 -1.0000000 )


      isym =  6     180 deg rotation - cryst. axis [2,1,0]       

 cryst.   s( 6) = (     1          1          0      )
                  (     0         -1          0      )
                  (     0          0         -1      )

 cart.    s( 6) = (  0.5000000  0.8660254  0.0000000 )
                  (  0.8660254 -0.5000000  0.0000000 )
                  (  0.0000000  0.0000000 -1.0000000 )


      isym =  7     inv. 180 deg rotation - cart. axis [0,0,1]   

 cryst.   s( 7) = (     1          0          0      )
                  (     0          1          0      )
                  (     0          0         -1      )

 cart.    s( 7) = (  1.0000000  0.0000000  0.0000000 )
                  (  0.0000000  1.0000000  0.0000000 )
                  (  0.0000000  0.0000000 -1.0000000 )


      isym =  8     inv. 180 deg rotation - cart. axis [1,0,0]   

 cryst.   s( 8) = (    -1          0          0      )
                  (     1          1          0      )
                  (     0          0          1      )

 cart.    s( 8) = ( -1.0000000 -0.0000000  0.0000000 )
                  (  0.0000000  1.0000000  0.0000000 )
                  (  0.0000000  0.0000000  1.0000000 )


      isym =  9     inv.  60 deg rotation - cryst. axis [0,0,1]  

 cryst.   s( 9) = (    -1         -1          0      )
                  (     1          0          0      )
                  (     0          0         -1      )

 cart.    s( 9) = ( -0.5000000  0.8660254  0.0000000 )
                  ( -0.8660254 -0.5000000  0.0000000 )
                  (  0.0000000  0.0000000 -1.0000000 )


      isym = 10     inv.  60 deg rotation - cryst. axis [0,0,-1] 

 cryst.   s(10) = (     0          1          0      )
                  (    -1         -1          0      )
                  (     0          0         -1      )

 cart.    s(10) = ( -0.5000000 -0.8660254  0.0000000 )
                  (  0.8660254 -0.5000000  0.0000000 )
                  (  0.0000000  0.0000000 -1.0000000 )


      isym = 11     inv. 180 deg rotation - cryst. axis [0,1,0]  

 cryst.   s(11) = (     1          1          0      )
                  (     0         -1          0      )
                  (     0          0          1      )

 cart.    s(11) = (  0.5000000  0.8660254  0.0000000 )
                  (  0.8660254 -0.5000000  0.0000000 )
                  (  0.0000000  0.0000000  1.0000000 )


      isym = 12     inv. 180 deg rotation - cryst. axis [1,1,0]  

 cryst.   s(12) = (     0         -1          0      )
                  (    -1          0          0      )
                  (     0          0          1      )

 cart.    s(12) = (  0.5000000 -0.8660254  0.0000000 )
                  ( -0.8660254 -0.5000000  0.0000000 )
                  (  0.0000000  0.0000000  1.0000000 )


   Cartesian axes

     site n.     atom                  positions (alat units)
         1        Mo     tau(   1) = (   0.0000000   0.0000000   3.6431012  )
         2        S      tau(   2) = (   0.5000000   0.2886751   4.1347880  )
         3        S      tau(   3) = (   0.5000000   0.2886751   3.1514144  )

   Crystallographic axes

     site n.     atom                  positions (cryst. coord.)
         1        Mo     tau(   1) = (  0.0000000  0.0000000  0.5000000  )
         2        S      tau(   2) = (  0.6666667  0.3333333  0.5674819  )
         3        S      tau(   3) = (  0.6666667  0.3333333  0.4325181  )

     number of k points=    19
                       cart. coord. in units 2pi/alat
        k(    1) = (   0.0000000   0.0000000   0.0000000), wk =   0.0138889
        k(    2) = (   0.0000000   0.0962250   0.0000000), wk =   0.0833333
        k(    3) = (   0.0000000   0.1924501   0.0000000), wk =   0.0833333
        k(    4) = (   0.0000000   0.2886751   0.0000000), wk =   0.0833333
        k(    5) = (   0.0000000   0.3849002   0.0000000), wk =   0.0833333
        k(    6) = (   0.0000000   0.4811252   0.0000000), wk =   0.0833333
        k(    7) = (   0.0000000  -0.5773503   0.0000000), wk =   0.0416667
        k(    8) = (   0.0833333   0.1443376   0.0000000), wk =   0.0833333
        k(    9) = (   0.0833333   0.2405626   0.0000000), wk =   0.1666667
        k(   10) = (   0.0833333   0.3367877   0.0000000), wk =   0.1666667
        k(   11) = (   0.0833333   0.4330127   0.0000000), wk =   0.1666667
        k(   12) = (   0.0833333   0.5292377   0.0000000), wk =   0.1666667
        k(   13) = (   0.1666667   0.2886751   0.0000000), wk =   0.0833333
        k(   14) = (   0.1666667   0.3849002   0.0000000), wk =   0.1666667
        k(   15) = (   0.1666667   0.4811252   0.0000000), wk =   0.1666667
        k(   16) = (   0.1666667   0.5773503   0.0000000), wk =   0.0833333
        k(   17) = (   0.2500000   0.4330127   0.0000000), wk =   0.0833333
        k(   18) = (   0.2500000   0.5292377   0.0000000), wk =   0.1666667
        k(   19) = (   0.3333333   0.5773503   0.0000000), wk =   0.0277778

                       cryst. coord.
        k(    1) = (   0.0000000   0.0000000   0.0000000), wk =   0.0138889
        k(    2) = (   0.0000000   0.0833333   0.0000000), wk =   0.0833333
        k(    3) = (   0.0000000   0.1666667   0.0000000), wk =   0.0833333
        k(    4) = (   0.0000000   0.2500000   0.0000000), wk =   0.0833333
        k(    5) = (   0.0000000   0.3333333   0.0000000), wk =   0.0833333
        k(    6) = (   0.0000000   0.4166667   0.0000000), wk =   0.0833333
        k(    7) = (   0.0000000  -0.5000000   0.0000000), wk =   0.0416667
        k(    8) = (   0.0833333   0.0833333   0.0000000), wk =   0.0833333
        k(    9) = (   0.0833333   0.1666667   0.0000000), wk =   0.1666667
        k(   10) = (   0.0833333   0.2500000   0.0000000), wk =   0.1666667
        k(   11) = (   0.0833333   0.3333333   0.0000000), wk =   0.1666667
        k(   12) = (   0.0833333   0.4166667   0.0000000), wk =   0.1666667
        k(   13) = (   0.1666667   0.1666667   0.0000000), wk =   0.0833333
        k(   14) = (   0.1666667   0.2500000   0.0000000), wk =   0.1666667
        k(   15) = (   0.1666667   0.3333333   0.0000000), wk =   0.1666667
        k(   16) = (   0.1666667   0.4166667   0.0000000), wk =   0.0833333
        k(   17) = (   0.2500000   0.2500000   0.0000000), wk =   0.0833333
        k(   18) = (   0.2500000   0.3333333   0.0000000), wk =   0.1666667
        k(   19) = (   0.3333333   0.3333333   0.0000000), wk =   0.0277778

     Dense  grid:   243605 G-vectors     FFT dimensions: (  45,  45, 320)

     Smooth grid:    86143 G-vectors     FFT dimensions: (  30,  30, 225)

     Dynamical RAM for                 wfc:       0.33 MB

     Dynamical RAM for     wfc (w. buffer):       6.57 MB

     Dynamical RAM for           str. fact:       0.93 MB

     Dynamical RAM for           local pot:       0.00 MB

     Dynamical RAM for          nlocal pot:       1.11 MB

     Dynamical RAM for                qrad:       3.52 MB

     Dynamical RAM for          rho,v,vnew:       3.25 MB

     Dynamical RAM for               rhoin:       1.08 MB

     Dynamical RAM for            rho*nmix:       7.44 MB

     Dynamical RAM for           G-vectors:       1.83 MB

     Dynamical RAM for          h,s,v(r/c):       0.01 MB

     Dynamical RAM for          <psi|beta>:       0.01 MB

     Dynamical RAM for      wfcinit/wfcrot:       0.66 MB

     Dynamical RAM for           addusdens:      87.38 MB

     Dynamical RAM for          addusforce:      88.55 MB

     Dynamical RAM for         addusstress:      93.42 MB

     Estimated static dynamical RAM per process >      22.77 MB

     Estimated max dynamical RAM per process >     123.63 MB

     Estimated total dynamical RAM >     989.02 MB

     Initial potential from superposition of free atoms

     starting charge      25.9991, renormalised to      26.0000

     negative rho (up, down):  3.285E-04 0.000E+00
     Starting wfcs are   18 randomized atomic wfcs

     total cpu time spent up to now is        0.9 secs

     Self-consistent Calculation

     iteration #  1     ecut=    60.00 Ry     beta= 0.30
     CG style diagonalization

---- Real-time Memory Report at c_bands before calling an iterative solver
           160 MiB given to the printing process from OS
             0 MiB allocation reported by mallinfo(arena+hblkhd)
          1577 MiB available memory on the node where the printing process lives
------------------
     c_bands:  1 eigenvalues not converged
     c_bands:  1 eigenvalues not converged
     ethr =  1.00E-10,  avg # of iterations = 35.5

     negative rho (up, down):  3.495E-04 0.000E+00

     total cpu time spent up to now is       23.5 secs

     total energy              =    -181.56804551 Ry
     estimated scf accuracy    <       0.11966264 Ry

     iteration #  2     ecut=    60.00 Ry     beta= 0.30
     CG style diagonalization

---- Real-time Memory Report at c_bands before calling an iterative solver
           181 MiB given to the printing process from OS
             0 MiB allocation reported by mallinfo(arena+hblkhd)
          1506 MiB available memory on the node where the printing process lives
------------------
     ethr =  4.60E-04,  avg # of iterations =  3.5

     negative rho (up, down):  3.622E-04 0.000E+00

     total cpu time spent up to now is       27.4 secs

     total energy              =    -181.57474301 Ry
     estimated scf accuracy    <       0.03292463 Ry

     iteration #  3     ecut=    60.00 Ry     beta= 0.30
     CG style diagonalization

---- Real-time Memory Report at c_bands before calling an iterative solver
           182 MiB given to the printing process from OS
             0 MiB allocation reported by mallinfo(arena+hblkhd)
          1478 MiB available memory on the node where the printing process lives
------------------
     ethr =  1.27E-04,  avg # of iterations =  3.3

     negative rho (up, down):  3.713E-04 0.000E+00

     total cpu time spent up to now is       31.2 secs

     total energy              =    -181.57857636 Ry
     estimated scf accuracy    <       0.00981466 Ry

     iteration #  4     ecut=    60.00 Ry     beta= 0.30
     CG style diagonalization

---- Real-time Memory Report at c_bands before calling an iterative solver
           182 MiB given to the printing process from OS
             0 MiB allocation reported by mallinfo(arena+hblkhd)
          1525 MiB available memory on the node where the printing process lives
------------------
     ethr =  3.77E-05,  avg # of iterations =  3.6

     negative rho (up, down):  3.828E-04 0.000E+00

     total cpu time spent up to now is       35.1 secs

     total energy              =    -181.57919828 Ry
     estimated scf accuracy    <       0.00199344 Ry

     iteration #  5     ecut=    60.00 Ry     beta= 0.30
     CG style diagonalization

---- Real-time Memory Report at c_bands before calling an iterative solver
           183 MiB given to the printing process from OS
             0 MiB allocation reported by mallinfo(arena+hblkhd)
          1526 MiB available memory on the node where the printing process lives
------------------
     ethr =  7.67E-06,  avg # of iterations =  3.9

     negative rho (up, down):  3.820E-04 0.000E+00

     total cpu time spent up to now is       39.3 secs

     total energy              =    -181.57944338 Ry
     estimated scf accuracy    <       0.00153974 Ry

     iteration #  6     ecut=    60.00 Ry     beta= 0.30
     CG style diagonalization

---- Real-time Memory Report at c_bands before calling an iterative solver
           183 MiB given to the printing process from OS
             0 MiB allocation reported by mallinfo(arena+hblkhd)
          1529 MiB available memory on the node where the printing process lives
------------------
     ethr =  5.92E-06,  avg # of iterations =  3.2

     negative rho (up, down):  3.813E-04 0.000E+00

     total cpu time spent up to now is       43.0 secs

     total energy              =    -181.57957102 Ry
     estimated scf accuracy    <       0.00007117 Ry

     iteration #  7     ecut=    60.00 Ry     beta= 0.30
     CG style diagonalization

---- Real-time Memory Report at c_bands before calling an iterative solver
           183 MiB given to the printing process from OS
             0 MiB allocation reported by mallinfo(arena+hblkhd)
          1597 MiB available memory on the node where the printing process lives
------------------
     ethr =  2.74E-07,  avg # of iterations =  4.7

     negative rho (up, down):  3.818E-04 0.000E+00

     total cpu time spent up to now is       47.8 secs

     total energy              =    -181.57962381 Ry
     estimated scf accuracy    <       0.00013189 Ry

     iteration #  8     ecut=    60.00 Ry     beta= 0.30
     CG style diagonalization

---- Real-time Memory Report at c_bands before calling an iterative solver
           184 MiB given to the printing process from OS
             0 MiB allocation reported by mallinfo(arena+hblkhd)
          1515 MiB available memory on the node where the printing process lives
------------------
     ethr =  2.74E-07,  avg # of iterations =  3.0

     negative rho (up, down):  3.825E-04 0.000E+00

     total cpu time spent up to now is       51.3 secs

     total energy              =    -181.57961428 Ry
     estimated scf accuracy    <       0.00005995 Ry

     iteration #  9     ecut=    60.00 Ry     beta= 0.30
     CG style diagonalization

---- Real-time Memory Report at c_bands before calling an iterative solver
           184 MiB given to the printing process from OS
             0 MiB allocation reported by mallinfo(arena+hblkhd)
          1513 MiB available memory on the node where the printing process lives
------------------
     ethr =  2.31E-07,  avg # of iterations =  3.3

     negative rho (up, down):  3.832E-04 0.000E+00

     total cpu time spent up to now is       55.2 secs

     total energy              =    -181.57961805 Ry
     estimated scf accuracy    <       0.00000513 Ry

     iteration # 10     ecut=    60.00 Ry     beta= 0.30
     CG style diagonalization

---- Real-time Memory Report at c_bands before calling an iterative solver
           184 MiB given to the printing process from OS
             0 MiB allocation reported by mallinfo(arena+hblkhd)
          1558 MiB available memory on the node where the printing process lives
------------------
     ethr =  1.97E-08,  avg # of iterations =  4.1

     negative rho (up, down):  3.837E-04 0.000E+00

     total cpu time spent up to now is       59.5 secs

     total energy              =    -181.57961966 Ry
     estimated scf accuracy    <       0.00000007 Ry

     iteration # 11     ecut=    60.00 Ry     beta= 0.30
     CG style diagonalization

---- Real-time Memory Report at c_bands before calling an iterative solver
           184 MiB given to the printing process from OS
             0 MiB allocation reported by mallinfo(arena+hblkhd)
          1540 MiB available memory on the node where the printing process lives
------------------
     ethr =  2.58E-10,  avg # of iterations =  5.2

     negative rho (up, down):  3.840E-04 0.000E+00

     total cpu time spent up to now is       64.4 secs

     total energy              =    -181.57961969 Ry
     estimated scf accuracy    <       0.00000010 Ry

     iteration # 12     ecut=    60.00 Ry     beta= 0.30
     CG style diagonalization

---- Real-time Memory Report at c_bands before calling an iterative solver
           184 MiB given to the printing process from OS
             0 MiB allocation reported by mallinfo(arena+hblkhd)
          2037 MiB available memory on the node where the printing process lives
------------------
     ethr =  2.58E-10,  avg # of iterations =  4.7

     negative rho (up, down):  3.843E-04 0.000E+00

     total cpu time spent up to now is       69.3 secs

     total energy              =    -181.57961969 Ry
     estimated scf accuracy    <       0.00000043 Ry

     iteration # 13     ecut=    60.00 Ry     beta= 0.30
     CG style diagonalization

---- Real-time Memory Report at c_bands before calling an iterative solver
           184 MiB given to the printing process from OS
             0 MiB allocation reported by mallinfo(arena+hblkhd)
          1534 MiB available memory on the node where the printing process lives
------------------
     ethr =  2.58E-10,  avg # of iterations =  4.1

     negative rho (up, down):  3.846E-04 0.000E+00

     total cpu time spent up to now is       73.5 secs

     total energy              =    -181.57961973 Ry
     estimated scf accuracy    <          9.2E-09 Ry

     iteration # 14     ecut=    60.00 Ry     beta= 0.30
     CG style diagonalization

---- Real-time Memory Report at c_bands before calling an iterative solver
           184 MiB given to the printing process from OS
             0 MiB allocation reported by mallinfo(arena+hblkhd)
          1463 MiB available memory on the node where the printing process lives
------------------
     ethr =  3.56E-11,  avg # of iterations =  3.5

     negative rho (up, down):  3.847E-04 0.000E+00

     total cpu time spent up to now is       77.4 secs

     total energy              =    -181.57961973 Ry
     estimated scf accuracy    <          1.7E-09 Ry

     iteration # 15     ecut=    60.00 Ry     beta= 0.30
     CG style diagonalization

---- Real-time Memory Report at c_bands before calling an iterative solver
           184 MiB given to the printing process from OS
             0 MiB allocation reported by mallinfo(arena+hblkhd)
          1570 MiB available memory on the node where the printing process lives
------------------
     ethr =  6.48E-12,  avg # of iterations =  4.3

     negative rho (up, down):  3.848E-04 0.000E+00

     total cpu time spent up to now is       81.8 secs

     total energy              =    -181.57961974 Ry
     estimated scf accuracy    <          3.7E-10 Ry

     iteration # 16     ecut=    60.00 Ry     beta= 0.30
     CG style diagonalization

---- Real-time Memory Report at c_bands before calling an iterative solver
           184 MiB given to the printing process from OS
             0 MiB allocation reported by mallinfo(arena+hblkhd)
          2647 MiB available memory on the node where the printing process lives
------------------
     ethr =  1.42E-12,  avg # of iterations =  3.6

     negative rho (up, down):  3.849E-04 0.000E+00

     total cpu time spent up to now is       85.8 secs

     total energy              =    -181.57961974 Ry
     estimated scf accuracy    <          3.0E-10 Ry

     iteration # 17     ecut=    60.00 Ry     beta= 0.30
     CG style diagonalization

---- Real-time Memory Report at c_bands before calling an iterative solver
           185 MiB given to the printing process from OS
             0 MiB allocation reported by mallinfo(arena+hblkhd)
          1486 MiB available memory on the node where the printing process lives
------------------
     ethr =  1.15E-12,  avg # of iterations =  3.0

     negative rho (up, down):  3.850E-04 0.000E+00

     total cpu time spent up to now is       89.3 secs

     total energy              =    -181.57961974 Ry
     estimated scf accuracy    <          7.7E-11 Ry

     iteration # 18     ecut=    60.00 Ry     beta= 0.30
     CG style diagonalization

---- Real-time Memory Report at c_bands before calling an iterative solver
           185 MiB given to the printing process from OS
             0 MiB allocation reported by mallinfo(arena+hblkhd)
          1875 MiB available memory on the node where the printing process lives
------------------
     ethr =  2.95E-13,  avg # of iterations =  4.2

     negative rho (up, down):  3.850E-04 0.000E+00

     total cpu time spent up to now is       93.7 secs

     total energy              =    -181.57961974 Ry
     estimated scf accuracy    <          2.7E-11 Ry

     iteration # 19     ecut=    60.00 Ry     beta= 0.30
     CG style diagonalization

---- Real-time Memory Report at c_bands before calling an iterative solver
           185 MiB given to the printing process from OS
             0 MiB allocation reported by mallinfo(arena+hblkhd)
          1780 MiB available memory on the node where the printing process lives
------------------
     ethr =  1.04E-13,  avg # of iterations =  3.4

     negative rho (up, down):  3.851E-04 0.000E+00

     total cpu time spent up to now is       97.9 secs

     total energy              =    -181.57961974 Ry
     estimated scf accuracy    <          3.0E-12 Ry

     iteration # 20     ecut=    60.00 Ry     beta= 0.30
     CG style diagonalization

---- Real-time Memory Report at c_bands before calling an iterative solver
           185 MiB given to the printing process from OS
             0 MiB allocation reported by mallinfo(arena+hblkhd)
          1996 MiB available memory on the node where the printing process lives
------------------
     ethr =  1.00E-13,  avg # of iterations =  3.0

     negative rho (up, down):  3.851E-04 0.000E+00

     total cpu time spent up to now is      101.4 secs

     End of self-consistent calculation

          k = 0.0000 0.0000 0.0000 ( 10831 PWs)   bands (ev):

   -62.5359 -36.6775 -36.4709 -36.4709 -15.7277 -14.4311  -7.2501  -4.2476
    -4.2476  -3.4264  -3.1431  -3.1431  -1.6623   1.1099   1.1099   1.3504

     occupation numbers 
     1.0000   1.0000   1.0000   1.0000   1.0000   1.0000   1.0000   1.0000
     1.0000   1.0000   1.0000   1.0000   1.0000   0.0000   0.0000   0.0000

          k = 0.0000 0.0962 0.0000 ( 10855 PWs)   bands (ev):

   -62.5334 -36.6726 -36.4963 -36.4767 -15.6255 -14.3888  -7.1332  -4.4762
    -4.1407  -3.9095  -3.3062  -2.8184  -1.7134   0.9759   1.0734   1.2354

     occupation numbers 
     1.0000   1.0000   1.0000   1.0000   1.0000   1.0000   1.0000   1.0000
     1.0000   1.0000   1.0000   1.0000   1.0000   0.0000   0.0000   0.0000

          k = 0.0000 0.1925 0.0000 ( 10815 PWs)   bands (ev):

   -62.5265 -36.6590 -36.5653 -36.4924 -15.3351 -14.2686  -6.8387  -5.0018
    -4.5535  -3.8429  -3.6903  -2.7319  -1.9449   0.6415   0.9215   0.9678

     occupation numbers 
     1.0000   1.0000   1.0000   1.0000   1.0000   1.0000   1.0000   1.0000
     1.0000   1.0000   1.0000   1.0000   1.0000   0.0000   0.0000   0.0000

          k = 0.0000 0.2887 0.0000 ( 10821 PWs)   bands (ev):

   -62.5172 -36.6583 -36.6403 -36.5139 -14.9054 -14.0920  -6.6259  -5.4520
    -5.2097  -4.1212  -3.4256  -2.9771  -2.3715   0.5142   0.7021   1.2448

     occupation numbers 
     1.0000   1.0000   1.0000   1.0000   1.0000   1.0000   1.0000   1.0000
     1.0000   1.0000   1.0000   1.0000   1.0000   0.0000   0.0000   0.0000

          k = 0.0000 0.3849 0.0000 ( 10779 PWs)   bands (ev):

   -62.5078 -36.7500 -36.6216 -36.5353 -14.4236 -13.8980  -6.8705  -5.8169
    -5.5428  -4.4839  -3.2748  -3.0082  -2.6175   0.5601   0.6801   1.7330

     occupation numbers 
     1.0000   1.0000   1.0000   1.0000   1.0000   1.0000   1.0000   1.0000
     1.0000   1.0000   1.0000   1.0000   1.0000   0.0000   0.0000   0.0000

          k = 0.0000 0.4811 0.0000 ( 10747 PWs)   bands (ev):

   -62.5009 -36.8163 -36.6079 -36.5508 -14.0233 -13.7421  -7.2461  -6.2610
    -5.6337  -4.7194  -3.4636  -2.7188  -2.4489   0.5609   0.9487   2.0949

     occupation numbers 
     1.0000   1.0000   1.0000   1.0000   1.0000   1.0000   1.0000   1.0000
     1.0000   1.0000   1.0000   1.0000   1.0000   0.0000   0.0000   0.0000

          k = 0.0000-0.5774 0.0000 ( 10724 PWs)   bands (ev):

   -62.4984 -36.8404 -36.6029 -36.5565 -13.8629 -13.6815  -7.4062  -6.4254
    -5.7064  -4.8005  -3.5241  -2.6204  -2.2840   0.5910   1.0990   2.2123

     occupation numbers 
     1.0000   1.0000   1.0000   1.0000   1.0000   1.0000   1.0000   1.0000
     1.0000   1.0000   1.0000   1.0000   1.0000   0.0000   0.0000   0.0000

          k = 0.0833 0.1443 0.0000 ( 10813 PWs)   bands (ev):

   -62.5287 -36.6633 -36.5422 -36.4887 -15.4291 -14.3074  -6.9239  -4.8460
    -4.3370  -3.9467  -3.6853  -2.6291  -1.8554   0.7390   0.8354   1.0317

     occupation numbers 
     1.0000   1.0000   1.0000   1.0000   1.0000   1.0000   1.0000   1.0000
     1.0000   1.0000   1.0000   1.0000   1.0000   0.0000   0.0000   0.0000

          k = 0.0833 0.2406 0.0000 ( 10796 PWs)   bands (ev):

   -62.5206 -36.6472 -36.6199 -36.5107 -15.0681 -14.1580  -6.6390  -5.3188
    -4.8792  -4.2274  -3.6376  -2.6598  -2.1973   0.4471   0.8117   0.9119

     occupation numbers 
     1.0000   1.0000   1.0000   1.0000   1.0000   1.0000   1.0000   1.0000
     1.0000   1.0000   1.0000   1.0000   1.0000   0.0000   0.0000   0.0000

          k = 0.0833 0.3368 0.0000 ( 10814 PWs)   bands (ev):

   -62.5113 -36.7083 -36.6285 -36.5361 -14.6088 -13.9696  -6.6630  -5.5290
    -5.4988  -4.5868  -3.3919  -2.9523  -2.4951   0.3858   0.7654   1.3086

     occupation numbers 
     1.0000   1.0000   1.0000   1.0000   1.0000   1.0000   1.0000   1.0000
     1.0000   1.0000   1.0000   1.0000   1.0000   0.0000   0.0000   0.0000

          k = 0.0833 0.4330 0.0000 ( 10766 PWs)   bands (ev):

   -62.5031 -36.7838 -36.6123 -36.5580 -14.1598 -13.7893  -7.0064  -6.1171
    -5.5283  -4.7528  -3.2798  -3.2711  -2.3927   0.5211   0.8747   1.7902

     occupation numbers 
     1.0000   1.0000   1.0000   1.0000   1.0000   1.0000   1.0000   1.0000
     1.0000   1.0000   1.0000   1.0000   1.0000   0.0000   0.0000   0.0000

          k = 0.0833 0.5292 0.0000 ( 10730 PWs)   bands (ev):

   -62.4984 -36.8269 -36.6029 -36.5706 -13.8700 -13.6761  -7.2678  -6.4596
    -5.6487  -4.8084  -3.4814  -3.1448  -2.1529   0.6028   1.0977   2.1844

     occupation numbers 
     1.0000   1.0000   1.0000   1.0000   1.0000   1.0000   1.0000   1.0000
     1.0000   1.0000   1.0000   1.0000   1.0000   0.0000   0.0000   0.0000

          k = 0.1667 0.2887 0.0000 ( 10805 PWs)   bands (ev):

   -62.5125 -36.6869 -36.6310 -36.5425 -14.6749 -13.9944  -6.5593  -5.4622
    -5.3062  -4.8228  -3.6097  -2.6970  -2.4351   0.2790   0.8200   1.0167

     occupation numbers 
     1.0000   1.0000   1.0000   1.0000   1.0000   1.0000   1.0000   1.0000
     1.0000   1.0000   1.0000   1.0000   1.0000   0.0000   0.0000   0.0000

          k = 0.1667 0.3849 0.0000 ( 10771 PWs)   bands (ev):

   -62.5044 -36.7498 -36.6148 -36.5776 -14.2393 -13.8128  -6.7472  -5.9972
    -5.3685  -4.9280  -3.8783  -2.9969  -2.3919   0.4270   0.9010   1.3422

     occupation numbers 
     1.0000   1.0000   1.0000   1.0000   1.0000   1.0000   1.0000   1.0000
     1.0000   1.0000   1.0000   1.0000   1.0000   0.0000   0.0000   0.0000

          k = 0.1667 0.4811 0.0000 ( 10728 PWs)   bands (ev):

   -62.4984 -36.7943 -36.6045 -36.6029 -13.8839 -13.6654  -6.9433  -6.5223
    -5.4700  -4.8467  -4.0033  -3.3618  -2.1436   0.5585   1.1353   1.6840

     occupation numbers 
     1.0000   1.0000   1.0000   1.0000   1.0000   1.0000   1.0000   1.0000
     1.0000   1.0000   1.0000   1.0000   1.0000   0.0000   0.0000   0.0000

          k = 0.1667 0.5774 0.0000 ( 10730 PWs)   bands (ev):

   -62.4962 -36.8103 -36.6145 -36.5986 -13.7439 -13.6077  -7.0147  -6.7130
    -5.5890  -4.7762  -4.0003  -3.5365  -1.9668   0.4804   1.3814   1.8363

     occupation numbers 
     1.0000   1.0000   1.0000   1.0000   1.0000   1.0000   1.0000   1.0000
     1.0000   1.0000   1.0000   1.0000   1.0000   0.0000   0.0000   0.0000

          k = 0.2500 0.4330 0.0000 ( 10759 PWs)   bands (ev):

   -62.4984 -36.7725 -36.6269 -36.6029 -13.8908 -13.6600  -6.7472  -6.5512
    -5.2491  -4.8743  -4.5532  -3.2864  -2.1657   0.5190   1.1630   1.4395

     occupation numbers 
     1.0000   1.0000   1.0000   1.0000   1.0000   1.0000   1.0000   1.0000
     1.0000   1.0000   1.0000   1.0000   1.0000   0.0000   0.0000   0.0000

          k = 0.2500 0.5292 0.0000 ( 10718 PWs)   bands (ev):

   -62.4949 -36.7771 -36.6638 -36.5961 -13.6752 -13.5627  -6.8928  -6.6201
    -5.4579  -4.8544  -4.6798  -3.6166  -1.8559   0.2615   1.4912   1.6248

     occupation numbers 
     1.0000   1.0000   1.0000   1.0000   1.0000   1.0000   1.0000   1.0000
     1.0000   1.0000   1.0000   1.0000   1.0000   0.0000   0.0000   0.0000

          k = 0.3333 0.5774 0.0000 ( 10692 PWs)   bands (ev):

   -62.4936 -36.7494 -36.7069 -36.5936 -13.5976 -13.5221  -7.0383  -6.2260
    -5.7083  -5.1978  -4.5223  -3.8040  -1.6646   0.0222   1.3985   1.8790

     occupation numbers 
     1.0000   1.0000   1.0000   1.0000   1.0000   1.0000   1.0000   1.0000
     1.0000   1.0000   1.0000   1.0000   1.0000   0.0000   0.0000   0.0000

     highest occupied, lowest unoccupied level (ev):    -1.6623    0.0222

!    total energy              =    -181.57961974 Ry
     estimated scf accuracy    <          5.0E-13 Ry

     The total energy is the sum of the following terms:
     one-electron contribution =   -1379.80329186 Ry
     hartree contribution      =     689.46896498 Ry
     xc contribution           =     -29.68769570 Ry
     ewald contribution        =     538.44240285 Ry

     convergence has been achieved in  20 iterations

     negative rho (up, down):  3.851E-04 0.000E+00

     Forces acting on atoms (cartesian axes, Ry/au):

     atom    1 type  1   force =     0.00000000    0.00000000    0.00000000
     atom    2 type  2   force =     0.00000000    0.00000000    0.00000103
     atom    3 type  2   force =     0.00000000    0.00000000   -0.00000103
     The non-local contrib.  to forces
     atom    1 type  1   force =     0.00000000   -0.00000000    0.00000000
     atom    2 type  2   force =    -0.00000000   -0.00000000   -0.27347725
     atom    3 type  2   force =     0.00000000    0.00000000    0.27347725
     The ionic contribution  to forces
     atom    1 type  1   force =     0.00000000   -0.00000000    0.00000000
     atom    2 type  2   force =    -0.00000000    0.00000000   37.23272980
     atom    3 type  2   force =    -0.00000000    0.00000000  -37.23272980
     The local contribution  to forces
     atom    1 type  1   force =     0.00000000    0.00000000    0.00000000
     atom    2 type  2   force =    -0.00000000    0.00000000  -36.96175078
     atom    3 type  2   force =    -0.00000000    0.00000000   36.96175078
     The core correction contribution to forces
     atom    1 type  1   force =    -0.00000000    0.00000000   -0.00000000
     atom    2 type  2   force =     0.00000000   -0.00000000    0.00249762
     atom    3 type  2   force =     0.00000000   -0.00000000   -0.00249762
     The Hubbard contrib.    to forces
     atom    1 type  1   force =     0.00000000    0.00000000    0.00000000
     atom    2 type  2   force =     0.00000000    0.00000000    0.00000000
     atom    3 type  2   force =     0.00000000    0.00000000    0.00000000
     The SCF correction term to forces
     atom    1 type  1   force =    -0.00000000    0.00000000   -0.00000000
     atom    2 type  2   force =     0.00000000    0.00000000    0.00000163
     atom    3 type  2   force =     0.00000000    0.00000000   -0.00000163

     Total force =     0.000001     Total SCF correction =     0.000002
     SCF correction compared to forces is large: reduce conv_thr to get better values


     Computing stress (Cartesian axis) and pressure


     negative rho (up, down):  3.851E-04 0.000E+00
          total   stress  (Ry/bohr**3)                   (kbar)     P=       -0.26
   0.00000004   0.00000000   0.00000000            0.01        0.00        0.00
   0.00000000   0.00000004  -0.00000000            0.00        0.01       -0.00
   0.00000000   0.00000000  -0.00000530            0.00        0.00       -0.78

     kinetic stress (kbar)   4868.77      0.00      0.00
                                0.00   4868.77      0.00
                                0.00     -0.00   4915.07

     local   stress (kbar)-146988.19      0.00      0.00
                                0.00-146988.19     -0.00
                                0.00     -0.00 143962.09

     nonloc. stress (kbar)   2227.71      0.00      0.00
                                0.00   2227.71      0.00
                                0.00      0.00   2217.64

     hartree stress (kbar)  72087.58      0.00     -0.00
                                0.00  72087.58      0.00
                               -0.00      0.00 -70297.12

     exc-cor stress (kbar)   -413.46     -0.00     -0.00
                               -0.00   -413.46     -0.00
                               -0.00     -0.00   -414.55

     corecor stress (kbar)   -547.84      0.00      0.00
                                0.00   -547.84      0.00
                                0.00      0.00   -548.27

     ewald   stress (kbar)  68765.43     -0.00      0.00
                               -0.00  68765.43      0.00
                                0.00      0.00 -79835.63

     hubbard stress (kbar)      0.00      0.00      0.00
                                0.00      0.00      0.00
                                0.00      0.00      0.00

     DFT-D   stress (kbar)      0.00      0.00      0.00
                                0.00      0.00      0.00
                                0.00      0.00      0.00

     XDM     stress (kbar)      0.00      0.00      0.00
                                0.00      0.00      0.00
                                0.00      0.00      0.00

     dft-nl  stress (kbar)      0.00      0.00      0.00
                                0.00      0.00      0.00
                                0.00      0.00      0.00

     TS-vdW  stress (kbar)      0.00      0.00      0.00
                                0.00      0.00      0.00
                                0.00      0.00      0.00

     MDB     stress (kbar)      0.00      0.00      0.00
                                0.00      0.00      0.00
                                0.00      0.00      0.00

     3D-RISM stress (kbar)      0.00      0.00      0.00
                                0.00      0.00      0.00
                                0.00      0.00      0.00


     BFGS Geometry Optimization
     Energy error            =      2.1E-12 Ry
     Gradient error          =      1.0E-06 Ry/Bohr

     bfgs converged in   1 scf cycles and   0 bfgs steps
     (criteria: energy <  1.0E-08 Ry, force <  1.0E-05 Ry/Bohr)

     End of BFGS Geometry Optimization

     Final energy             =    -181.5796197394 Ry
Begin final coordinates

ATOMIC_POSITIONS (crystal)
Mo               0.0000000000        0.0000000000        0.5000000000
S                0.6666666667        0.3333333333        0.5674818991
S                0.6666666667        0.3333333333        0.4325181009
End final coordinates



     Writing all to output data dir ./tmp/mos2.save/ :
     XML data file, charge density, pseudopotentials, collected wavefunctions
 
     init_run     :      0.60s CPU      0.73s WALL (       1 calls)
     electrons    :     88.83s CPU    100.55s WALL (       1 calls)
     forces       :      0.85s CPU      1.10s WALL (       1 calls)
     stress       :      3.15s CPU      4.17s WALL (       1 calls)

     Called by init_run:
     wfcinit      :      0.26s CPU      0.27s WALL (       1 calls)
     wfcinit:atom :      0.00s CPU      0.00s WALL (      19 calls)
     wfcinit:wfcr :      0.24s CPU      0.24s WALL (      19 calls)
     potinit      :      0.05s CPU      0.06s WALL (       1 calls)
     hinit0       :      0.07s CPU      0.08s WALL (       1 calls)

     Called by electrons:
     c_bands      :     65.51s CPU     67.09s WALL (      20 calls)
     sum_band     :     13.05s CPU     17.81s WALL (      20 calls)
     v_of_rho     :      2.14s CPU      2.21s WALL (      21 calls)
     v_h          :      0.19s CPU      0.19s WALL (      21 calls)
     v_xc         :      2.13s CPU      2.22s WALL (      23 calls)
     newd         :      7.60s CPU     12.98s WALL (      21 calls)
     mix_rho      :      0.44s CPU      0.44s WALL (      20 calls)

     Called by c_bands:
     init_us_2    :      1.05s CPU      1.08s WALL (     817 calls)
     ccgdiagg     :     57.27s CPU     58.69s WALL (     380 calls)
     wfcrot       :      7.67s CPU      7.76s WALL (     380 calls)

     Called by sum_band:
     sum_band:wei :      0.00s CPU      0.00s WALL (      20 calls)
     sum_band:loo :      3.82s CPU      3.87s WALL (      20 calls)
     sum_band:buf :      0.14s CPU      0.14s WALL (     380 calls)
     sum_band:ini :      0.62s CPU      0.64s WALL (     380 calls)
     sum_band:cal :      0.65s CPU      0.65s WALL (     380 calls)
     sum_band:bec :      0.02s CPU      0.02s WALL (     380 calls)
     addusdens    :      8.82s CPU     13.52s WALL (      20 calls)
                                        0.00s GPU  (      20 calls)
     addusd:skk   :      0.02s CPU      0.02s WALL (      40 calls)
                                        0.00s GPU  (      40 calls)

     Called by *cgdiagg:
     h_psi        :     44.41s CPU     45.37s WALL (   27177 calls)
     s_psi        :      7.79s CPU      7.97s WALL (   53974 calls)

     Called by h_psi:
     h_psi:calbec :      9.53s CPU      9.70s WALL (   27177 calls)
     vloc_psi     :     28.29s CPU     28.98s WALL (   27177 calls)
                                        0.00s GPU  (   27177 calls)
     add_vuspsi   :      6.01s CPU      6.11s WALL (   27177 calls)
     hs_1psi      :     42.33s CPU     43.29s WALL (   26797 calls)
     s_1psi       :      7.74s CPU      7.90s WALL (   26797 calls)

     General routines
     calbec       :     14.54s CPU     14.82s WALL (   54677 calls)
     fft          :      1.30s CPU      1.32s WALL (     296 calls)
     ffts         :      0.04s CPU      0.04s WALL (      41 calls)
     fftw         :     23.16s CPU     23.71s WALL (   71910 calls)
     interpolate  :      0.14s CPU      0.14s WALL (      21 calls)
 
     Parallel routines
 
     PWSCF        :   1m33.61s CPU   1m46.80s WALL

 
   This run was terminated on:  23:56:14  22Sep2026            

=------------------------------------------------------------------------------=
   JOB DONE.
=------------------------------------------------------------------------------=
