
     Program PWSCF v.7.5 starts on 23Sep2026 at  0:21:44 

     This program is part of the open-source Quantum ESPRESSO suite
     for quantum simulation of materials; please cite
         "P. Giannozzi et al., J. Phys.:Condens. Matter 21 395502 (2009);
         "P. Giannozzi et al., J. Phys.:Condens. Matter 29 465901 (2017);
         "P. Giannozzi et al., J. Chem. Phys. 152 154105 (2020);
          URL http://www.quantum-espresso.org", 
     in publications or presentations arising from this work. More details at
     http://www.quantum-espresso.org/quote

     Parallel version (MPI), running on     8 processors

     MPI processes distributed on     1 nodes
     2695 MiB available memory on the printing compute node when the environment starts
 
     Reading input from mos2.scf.in

     Current dimensions of program PWSCF are:
     Max number of different atomic species (ntypx) = 10
     Max number of k-points (npk) =  40000
     Max angular momentum in pseudopotentials (lmaxx) =  4
     file Mo.pbe-spn-rrkjus_psl.1.0.0.UPF: wavefunction(s)  4S renormalized
     Message from routine setup:
     using ibrav=0 with symmetry is DISCOURAGED, use correct ibrav instead
 
     R & G space division:  proc/nbgrp/npool/nimage =       8
     Subspace diagonalization in iterative solution of the eigenvalue problem:
     a serial algorithm will be used

 
     Parallelization info
     --------------------
     sticks:   dense  smooth     PW     G-vecs:    dense   smooth      PW
     Min         148      74     21                36822    13032    2080
     Max         149      76     23                36833    13038    2103
     Sum        1189     595    175               294611   104273   16713
 
     Using Slab Decomposition
 


     bravais-lattice index     =            0
     lattice parameter (alat)  =       5.9844  a.u.
     unit-cell volume          =    1660.5212 (a.u.)^3
     number of atoms/cell      =            3
     number of atomic types    =            2
     number of electrons       =        26.00
     number of Kohn-Sham states=           16
     kinetic-energy cutoff     =      60.0000  Ry
     charge density cutoff     =     480.0000  Ry
     scf convergence threshold =      1.0E-12
     mixing beta               =       0.3000
     number of iterations used =            8  plain     mixing
     Exchange-correlation= PBE
                           (   1   4   3   4   0   0   0)

     celldm(1)=   5.984412  celldm(2)=   0.000000  celldm(3)=   0.000000
     celldm(4)=   0.000000  celldm(5)=   0.000000  celldm(6)=   0.000000

     crystal axes: (cart. coord. in units of alat)
               a(1) = (   1.000000   0.000000   0.000000 )  
               a(2) = (  -0.500000   0.870377   0.000000 )  
               a(3) = (   0.000000   0.000000   8.901690 )  

     reciprocal axes: (cart. coord. in units 2 pi/alat)
               b(1) = (  1.000000  0.574464  0.000000 )  
               b(2) = (  0.000000  1.148927  0.000000 )  
               b(3) = (  0.000000  0.000000  0.112338 )  


     PseudoPot. # 1 for Mo read from file:
     ../pseudo/Mo.pbe-spn-rrkjus_psl.1.0.0.UPF
     MD5 check sum: 03f09b12e49601d1a456a78ce8b2d514
     Pseudo is Ultrasoft + core correction, Zval = 14.0
     Generated using &quot;atomic&quot; code by A. Dal Corso  v.6.3
     Using radial grid of 1229 points,  6 beta functions with: 
                l(1) =   0
                l(2) =   0
                l(3) =   1
                l(4) =   1
                l(5) =   2
                l(6) =   2
     Q(r) pseudized with 0 coefficients 


     PseudoPot. # 2 for S  read from file:
     ../pseudo/S.pbe-n-rrkjus_psl.1.0.0.UPF
     MD5 check sum: 9d0fe39aa2a799ea84730884c9b010f4
     Pseudo is Ultrasoft + core correction, Zval =  6.0
     Generated using &quot;atomic&quot; code by A. Dal Corso  v.6.3
     Using radial grid of 1151 points,  6 beta functions with: 
                l(1) =   0
                l(2) =   0
                l(3) =   1
                l(4) =   1
                l(5) =   2
                l(6) =   2
     Q(r) pseudized with 0 coefficients 


     atomic species   valence    mass     pseudopotential
     Mo               14.00    95.95000     Mo( 1.00)
     S                 6.00    32.06000     S ( 1.00)

      4 Sym. Ops. (no inversion) found


                                    s                        frac. trans.

      isym =  1     identity                                     

 cryst.   s( 1) = (     1          0          0      )
                  (     0          1          0      )
                  (     0          0          1      )

 cart.    s( 1) = (  1.0000000  0.0000000  0.0000000 )
                  (  0.0000000  1.0000000  0.0000000 )
                  (  0.0000000  0.0000000  1.0000000 )


      isym =  2     180 deg rotation - cart. axis [0,1,0]        

 cryst.   s( 2) = (    -1          0          0      )
                  (     1          1          0      )
                  (     0          0         -1      )

 cart.    s( 2) = ( -1.0000000 -0.0000000  0.0000000 )
                  (  0.0000000  1.0000000  0.0000000 )
                  (  0.0000000  0.0000000 -1.0000000 )


      isym =  3     inv. 180 deg rotation - cart. axis [0,0,1]   

 cryst.   s( 3) = (     1          0          0      )
                  (     0          1          0      )
                  (     0          0         -1      )

 cart.    s( 3) = (  1.0000000  0.0000000  0.0000000 )
                  (  0.0000000  1.0000000  0.0000000 )
                  (  0.0000000  0.0000000 -1.0000000 )


      isym =  4     inv. 180 deg rotation - cart. axis [1,0,0]   

 cryst.   s( 4) = (    -1          0          0      )
                  (     1          1          0      )
                  (     0          0          1      )

 cart.    s( 4) = ( -1.0000000 -0.0000000  0.0000000 )
                  (  0.0000000  1.0000000  0.0000000 )
                  (  0.0000000  0.0000000  1.0000000 )


   Cartesian axes

     site n.     atom                  positions (alat units)
         1        Mo     tau(   1) = (  -0.0000000  -0.0003263   4.4508451  )
         2        S      tau(   2) = (   0.5000000   0.2902889   4.9458409  )
         3        S      tau(   3) = (   0.5000000   0.2902889   3.9558493  )

   Crystallographic axes

     site n.     atom                  positions (cryst. coord.)
         1        Mo     tau(   1) = ( -0.0001874 -0.0003749  0.5000000  )
         2        S      tau(   2) = (  0.6667604  0.3335208  0.5556069  )
         3        S      tau(   3) = (  0.6667604  0.3335208  0.4443931  )

     number of k points=    43
                       cart. coord. in units 2pi/alat
        k(    1) = (   0.0000000   0.0000000   0.0000000), wk =   0.0138889
        k(    2) = (   0.0000000   0.0957439   0.0000000), wk =   0.0277778
        k(    3) = (   0.0000000   0.1914878   0.0000000), wk =   0.0277778
        k(    4) = (   0.0000000   0.2872318   0.0000000), wk =   0.0277778
        k(    5) = (   0.0000000   0.3829757   0.0000000), wk =   0.0277778
        k(    6) = (   0.0000000   0.4787196   0.0000000), wk =   0.0277778
        k(    7) = (   0.0000000  -0.5744635   0.0000000), wk =   0.0138889
        k(    8) = (   0.0833333   0.0478720   0.0000000), wk =   0.0555556
        k(    9) = (   0.0833333   0.1436159   0.0000000), wk =   0.0555556
        k(   10) = (   0.0833333   0.2393598   0.0000000), wk =   0.0555556
        k(   11) = (   0.0833333   0.3351037   0.0000000), wk =   0.0555556
        k(   12) = (   0.0833333   0.4308476   0.0000000), wk =   0.0555556
        k(   13) = (   0.0833333   0.5265916   0.0000000), wk =   0.0555556
        k(   14) = (   0.1666667   0.0957439   0.0000000), wk =   0.0555556
        k(   15) = (   0.1666667   0.1914878   0.0000000), wk =   0.0555556
        k(   16) = (   0.1666667   0.2872318   0.0000000), wk =   0.0555556
        k(   17) = (   0.1666667   0.3829757   0.0000000), wk =   0.0555556
        k(   18) = (   0.1666667   0.4787196   0.0000000), wk =   0.0555556
        k(   19) = (   0.1666667   0.5744635   0.0000000), wk =   0.0277778
        k(   20) = (   0.1666667   0.0000000   0.0000000), wk =   0.0277778
        k(   21) = (   0.2500000   0.1436159   0.0000000), wk =   0.0555556
        k(   22) = (   0.2500000   0.2393598   0.0000000), wk =   0.0555556
        k(   23) = (   0.2500000   0.3351037   0.0000000), wk =   0.0555556
        k(   24) = (   0.2500000   0.4308476   0.0000000), wk =   0.0555556
        k(   25) = (   0.2500000   0.5265916   0.0000000), wk =   0.0555556
        k(   26) = (   0.2500000  -0.0478720   0.0000000), wk =   0.0555556
        k(   27) = (   0.3333333   0.1914878   0.0000000), wk =   0.0555556
        k(   28) = (   0.3333333   0.2872318   0.0000000), wk =   0.0555556
        k(   29) = (   0.3333333   0.3829757   0.0000000), wk =   0.0555556
        k(   30) = (   0.3333333   0.4787196   0.0000000), wk =   0.0555556
        k(   31) = (   0.3333333   0.5744635   0.0000000), wk =   0.0277778
        k(   32) = (   0.3333333  -0.0957439   0.0000000), wk =   0.0555556
        k(   33) = (   0.3333333   0.0000000   0.0000000), wk =   0.0277778
        k(   34) = (   0.4166667   0.2393598   0.0000000), wk =   0.0555556
        k(   35) = (   0.4166667   0.3351037   0.0000000), wk =   0.0555556
        k(   36) = (   0.4166667   0.4308476   0.0000000), wk =   0.0555556
        k(   37) = (   0.4166667   0.5265916   0.0000000), wk =   0.0555556
        k(   38) = (   0.4166667  -0.1436159   0.0000000), wk =   0.0555556
        k(   39) = (   0.4166667  -0.0478720   0.0000000), wk =   0.0555556
        k(   40) = (  -0.5000000  -0.2872318   0.0000000), wk =   0.0277778
        k(   41) = (  -0.5000000  -0.1914878   0.0000000), wk =   0.0555556
        k(   42) = (  -0.5000000  -0.0957439   0.0000000), wk =   0.0555556
        k(   43) = (  -0.5000000  -0.0000000   0.0000000), wk =   0.0277778

                       cryst. coord.
        k(    1) = (   0.0000000   0.0000000   0.0000000), wk =   0.0138889
        k(    2) = (   0.0000000   0.0833333   0.0000000), wk =   0.0277778
        k(    3) = (   0.0000000   0.1666667   0.0000000), wk =   0.0277778
        k(    4) = (   0.0000000   0.2500000   0.0000000), wk =   0.0277778
        k(    5) = (   0.0000000   0.3333333   0.0000000), wk =   0.0277778
        k(    6) = (   0.0000000   0.4166667   0.0000000), wk =   0.0277778
        k(    7) = (   0.0000000  -0.5000000   0.0000000), wk =   0.0138889
        k(    8) = (   0.0833333   0.0000000   0.0000000), wk =   0.0555556
        k(    9) = (   0.0833333   0.0833333   0.0000000), wk =   0.0555556
        k(   10) = (   0.0833333   0.1666667   0.0000000), wk =   0.0555556
        k(   11) = (   0.0833333   0.2500000   0.0000000), wk =   0.0555556
        k(   12) = (   0.0833333   0.3333333   0.0000000), wk =   0.0555556
        k(   13) = (   0.0833333   0.4166667   0.0000000), wk =   0.0555556
        k(   14) = (   0.1666667   0.0000000   0.0000000), wk =   0.0555556
        k(   15) = (   0.1666667   0.0833333   0.0000000), wk =   0.0555556
        k(   16) = (   0.1666667   0.1666667   0.0000000), wk =   0.0555556
        k(   17) = (   0.1666667   0.2500000   0.0000000), wk =   0.0555556
        k(   18) = (   0.1666667   0.3333333   0.0000000), wk =   0.0555556
        k(   19) = (   0.1666667   0.4166667   0.0000000), wk =   0.0277778
        k(   20) = (   0.1666667  -0.0833333   0.0000000), wk =   0.0277778
        k(   21) = (   0.2500000   0.0000000   0.0000000), wk =   0.0555556
        k(   22) = (   0.2500000   0.0833333   0.0000000), wk =   0.0555556
        k(   23) = (   0.2500000   0.1666667   0.0000000), wk =   0.0555556
        k(   24) = (   0.2500000   0.2500000   0.0000000), wk =   0.0555556
        k(   25) = (   0.2500000   0.3333333   0.0000000), wk =   0.0555556
        k(   26) = (   0.2500000  -0.1666667   0.0000000), wk =   0.0555556
        k(   27) = (   0.3333333   0.0000000   0.0000000), wk =   0.0555556
        k(   28) = (   0.3333333   0.0833333   0.0000000), wk =   0.0555556
        k(   29) = (   0.3333333   0.1666667   0.0000000), wk =   0.0555556
        k(   30) = (   0.3333333   0.2500000   0.0000000), wk =   0.0555556
        k(   31) = (   0.3333333   0.3333333   0.0000000), wk =   0.0277778
        k(   32) = (   0.3333333  -0.2500000   0.0000000), wk =   0.0555556
        k(   33) = (   0.3333333  -0.1666667   0.0000000), wk =   0.0277778
        k(   34) = (   0.4166667   0.0000000   0.0000000), wk =   0.0555556
        k(   35) = (   0.4166667   0.0833333   0.0000000), wk =   0.0555556
        k(   36) = (   0.4166667   0.1666667   0.0000000), wk =   0.0555556
        k(   37) = (   0.4166667   0.2500000   0.0000000), wk =   0.0555556
        k(   38) = (   0.4166667  -0.3333333   0.0000000), wk =   0.0555556
        k(   39) = (   0.4166667  -0.2500000   0.0000000), wk =   0.0555556
        k(   40) = (  -0.5000000  -0.0000000   0.0000000), wk =   0.0277778
        k(   41) = (  -0.5000000   0.0833333   0.0000000), wk =   0.0555556
        k(   42) = (  -0.5000000   0.1666667   0.0000000), wk =   0.0555556
        k(   43) = (  -0.5000000   0.2500000   0.0000000), wk =   0.0277778

     Dense  grid:   294611 G-vectors     FFT dimensions: (  45,  45, 375)

     Smooth grid:   104273 G-vectors     FFT dimensions: (  30,  30, 270)

     Dynamical RAM for                 wfc:       0.40 MB

     Dynamical RAM for     wfc (w. buffer):      17.50 MB

     Dynamical RAM for           str. fact:       1.12 MB

     Dynamical RAM for           local pot:       0.00 MB

     Dynamical RAM for          nlocal pot:       1.34 MB

     Dynamical RAM for                qrad:       3.52 MB

     Dynamical RAM for          rho,v,vnew:       3.86 MB

     Dynamical RAM for               rhoin:       1.29 MB

     Dynamical RAM for            rho*nmix:       8.99 MB

     Dynamical RAM for           G-vectors:       2.21 MB

     Dynamical RAM for          h,s,v(r/c):       0.01 MB

     Dynamical RAM for          <psi|beta>:       0.01 MB

     Dynamical RAM for      wfcinit/wfcrot:       0.80 MB

     Dynamical RAM for           addusdens:     105.65 MB

     Dynamical RAM for          addusforce:     107.06 MB

     Dynamical RAM for         addusstress:     112.96 MB

     Estimated static dynamical RAM per process >      36.16 MB

     Estimated max dynamical RAM per process >     158.10 MB

     Estimated total dynamical RAM >       1.24 GB

     Initial potential from superposition of free atoms

     starting charge      25.9991, renormalised to      26.0000

     negative rho (up, down):  4.116E-04 0.000E+00
     Starting wfcs are   18 randomized atomic wfcs

     total cpu time spent up to now is        2.5 secs

     Self-consistent Calculation

     iteration #  1     ecut=    60.00 Ry     beta= 0.30
     CG style diagonalization

---- Real-time Memory Report at c_bands before calling an iterative solver
           179 MiB given to the printing process from OS
             0 MiB allocation reported by mallinfo(arena+hblkhd)
          1916 MiB available memory on the node where the printing process lives
------------------
     c_bands:  2 eigenvalues not converged
     c_bands:  1 eigenvalues not converged
     c_bands:  1 eigenvalues not converged
     c_bands:  1 eigenvalues not converged
     ethr =  1.00E-10,  avg # of iterations = 35.1

     negative rho (up, down):  4.362E-04 0.000E+00

     total cpu time spent up to now is       96.1 secs

     total energy              =    -181.56711735 Ry
     estimated scf accuracy    <       0.12256116 Ry

     iteration #  2     ecut=    60.00 Ry     beta= 0.30
     CG style diagonalization

---- Real-time Memory Report at c_bands before calling an iterative solver
           214 MiB given to the printing process from OS
             0 MiB allocation reported by mallinfo(arena+hblkhd)
          1735 MiB available memory on the node where the printing process lives
------------------
     ethr =  4.71E-04,  avg # of iterations =  3.6

     negative rho (up, down):  4.516E-04 0.000E+00

     total cpu time spent up to now is      106.9 secs

     total energy              =    -181.57437266 Ry
     estimated scf accuracy    <       0.03486256 Ry

     iteration #  3     ecut=    60.00 Ry     beta= 0.30
     CG style diagonalization

---- Real-time Memory Report at c_bands before calling an iterative solver
           215 MiB given to the printing process from OS
             0 MiB allocation reported by mallinfo(arena+hblkhd)
          1781 MiB available memory on the node where the printing process lives
------------------
     ethr =  1.34E-04,  avg # of iterations =  3.3

     negative rho (up, down):  4.626E-04 0.000E+00

     total cpu time spent up to now is      117.5 secs

     total energy              =    -181.57844631 Ry
     estimated scf accuracy    <       0.00979075 Ry

     iteration #  4     ecut=    60.00 Ry     beta= 0.30
     CG style diagonalization

---- Real-time Memory Report at c_bands before calling an iterative solver
           216 MiB given to the printing process from OS
             0 MiB allocation reported by mallinfo(arena+hblkhd)
          1565 MiB available memory on the node where the printing process lives
------------------
     ethr =  3.77E-05,  avg # of iterations =  3.6

     negative rho (up, down):  4.767E-04 0.000E+00

     total cpu time spent up to now is      131.1 secs

     total energy              =    -181.57906308 Ry
     estimated scf accuracy    <       0.00207245 Ry

     iteration #  5     ecut=    60.00 Ry     beta= 0.30
     CG style diagonalization

---- Real-time Memory Report at c_bands before calling an iterative solver
           217 MiB given to the printing process from OS
             0 MiB allocation reported by mallinfo(arena+hblkhd)
          1740 MiB available memory on the node where the printing process lives
------------------
     ethr =  7.97E-06,  avg # of iterations =  3.9

     negative rho (up, down):  4.766E-04 0.000E+00

     total cpu time spent up to now is      143.6 secs

     total energy              =    -181.57931827 Ry
     estimated scf accuracy    <       0.00178047 Ry

     iteration #  6     ecut=    60.00 Ry     beta= 0.30
     CG style diagonalization

---- Real-time Memory Report at c_bands before calling an iterative solver
           218 MiB given to the printing process from OS
             0 MiB allocation reported by mallinfo(arena+hblkhd)
          1550 MiB available memory on the node where the printing process lives
------------------
     ethr =  6.85E-06,  avg # of iterations =  3.2

     negative rho (up, down):  4.765E-04 0.000E+00

     total cpu time spent up to now is      154.7 secs

     total energy              =    -181.57946543 Ry
     estimated scf accuracy    <       0.00007991 Ry

     iteration #  7     ecut=    60.00 Ry     beta= 0.30
     CG style diagonalization

---- Real-time Memory Report at c_bands before calling an iterative solver
           219 MiB given to the printing process from OS
             0 MiB allocation reported by mallinfo(arena+hblkhd)
          1556 MiB available memory on the node where the printing process lives
------------------
     ethr =  3.07E-07,  avg # of iterations =  4.7

     negative rho (up, down):  4.773E-04 0.000E+00

     total cpu time spent up to now is      170.5 secs

     total energy              =    -181.57951970 Ry
     estimated scf accuracy    <       0.00013812 Ry

     iteration #  8     ecut=    60.00 Ry     beta= 0.30
     CG style diagonalization

---- Real-time Memory Report at c_bands before calling an iterative solver
           220 MiB given to the printing process from OS
             0 MiB allocation reported by mallinfo(arena+hblkhd)
          2113 MiB available memory on the node where the printing process lives
------------------
     ethr =  3.07E-07,  avg # of iterations =  3.0

     negative rho (up, down):  4.782E-04 0.000E+00

     total cpu time spent up to now is      180.9 secs

     total energy              =    -181.57951183 Ry
     estimated scf accuracy    <       0.00005756 Ry

     iteration #  9     ecut=    60.00 Ry     beta= 0.30
     CG style diagonalization

---- Real-time Memory Report at c_bands before calling an iterative solver
           220 MiB given to the printing process from OS
             0 MiB allocation reported by mallinfo(arena+hblkhd)
          1800 MiB available memory on the node where the printing process lives
------------------
     ethr =  2.21E-07,  avg # of iterations =  3.3

     negative rho (up, down):  4.790E-04 0.000E+00

     total cpu time spent up to now is      192.9 secs

     total energy              =    -181.57951561 Ry
     estimated scf accuracy    <       0.00000510 Ry

     iteration # 10     ecut=    60.00 Ry     beta= 0.30
     CG style diagonalization

---- Real-time Memory Report at c_bands before calling an iterative solver
           221 MiB given to the printing process from OS
             0 MiB allocation reported by mallinfo(arena+hblkhd)
          2075 MiB available memory on the node where the printing process lives
------------------
     ethr =  1.96E-08,  avg # of iterations =  4.1

     negative rho (up, down):  4.797E-04 0.000E+00

     total cpu time spent up to now is      202.5 secs

     total energy              =    -181.57951713 Ry
     estimated scf accuracy    <       0.00000003 Ry

     iteration # 11     ecut=    60.00 Ry     beta= 0.30
     CG style diagonalization

---- Real-time Memory Report at c_bands before calling an iterative solver
           221 MiB given to the printing process from OS
             0 MiB allocation reported by mallinfo(arena+hblkhd)
          1760 MiB available memory on the node where the printing process lives
------------------
     ethr =  1.21E-10,  avg # of iterations =  6.0

     negative rho (up, down):  4.801E-04 0.000E+00

     total cpu time spent up to now is      209.7 secs

     total energy              =    -181.57951720 Ry
     estimated scf accuracy    <       0.00000003 Ry

     iteration # 12     ecut=    60.00 Ry     beta= 0.30
     CG style diagonalization

---- Real-time Memory Report at c_bands before calling an iterative solver
           221 MiB given to the printing process from OS
             0 MiB allocation reported by mallinfo(arena+hblkhd)
          2239 MiB available memory on the node where the printing process lives
------------------
     ethr =  1.14E-10,  avg # of iterations =  5.1

     negative rho (up, down):  4.805E-04 0.000E+00

     total cpu time spent up to now is      215.9 secs

     total energy              =    -181.57951716 Ry
     estimated scf accuracy    <       0.00000056 Ry

     iteration # 13     ecut=    60.00 Ry     beta= 0.30
     CG style diagonalization

---- Real-time Memory Report at c_bands before calling an iterative solver
           221 MiB given to the printing process from OS
             0 MiB allocation reported by mallinfo(arena+hblkhd)
          2495 MiB available memory on the node where the printing process lives
------------------
     ethr =  1.14E-10,  avg # of iterations =  4.7

     negative rho (up, down):  4.808E-04 0.000E+00

     total cpu time spent up to now is      221.9 secs

     total energy              =    -181.57951721 Ry
     estimated scf accuracy    <          4.7E-09 Ry

     iteration # 14     ecut=    60.00 Ry     beta= 0.30
     CG style diagonalization

---- Real-time Memory Report at c_bands before calling an iterative solver
           221 MiB given to the printing process from OS
             0 MiB allocation reported by mallinfo(arena+hblkhd)
          2160 MiB available memory on the node where the printing process lives
------------------
     ethr =  1.79E-11,  avg # of iterations =  4.1

     negative rho (up, down):  4.810E-04 0.000E+00

     total cpu time spent up to now is      227.3 secs

     total energy              =    -181.57951721 Ry
     estimated scf accuracy    <          8.7E-10 Ry

     iteration # 15     ecut=    60.00 Ry     beta= 0.30
     CG style diagonalization

---- Real-time Memory Report at c_bands before calling an iterative solver
           221 MiB given to the printing process from OS
             0 MiB allocation reported by mallinfo(arena+hblkhd)
          2325 MiB available memory on the node where the printing process lives
------------------
     ethr =  3.36E-12,  avg # of iterations =  3.7

     negative rho (up, down):  4.812E-04 0.000E+00

     total cpu time spent up to now is      232.2 secs

     total energy              =    -181.57951722 Ry
     estimated scf accuracy    <          6.3E-10 Ry

     iteration # 16     ecut=    60.00 Ry     beta= 0.30
     CG style diagonalization

---- Real-time Memory Report at c_bands before calling an iterative solver
           221 MiB given to the printing process from OS
             0 MiB allocation reported by mallinfo(arena+hblkhd)
          2447 MiB available memory on the node where the printing process lives
------------------
     ethr =  2.44E-12,  avg # of iterations =  3.0

     negative rho (up, down):  4.813E-04 0.000E+00

     total cpu time spent up to now is      236.6 secs

     total energy              =    -181.57951722 Ry
     estimated scf accuracy    <          4.8E-10 Ry

     iteration # 17     ecut=    60.00 Ry     beta= 0.30
     CG style diagonalization

---- Real-time Memory Report at c_bands before calling an iterative solver
           221 MiB given to the printing process from OS
             0 MiB allocation reported by mallinfo(arena+hblkhd)
          1921 MiB available memory on the node where the printing process lives
------------------
     ethr =  1.83E-12,  avg # of iterations =  3.4

     negative rho (up, down):  4.813E-04 0.000E+00

     total cpu time spent up to now is      241.3 secs

     total energy              =    -181.57951722 Ry
     estimated scf accuracy    <          7.4E-12 Ry

     iteration # 18     ecut=    60.00 Ry     beta= 0.30
     CG style diagonalization

---- Real-time Memory Report at c_bands before calling an iterative solver
           221 MiB given to the printing process from OS
             0 MiB allocation reported by mallinfo(arena+hblkhd)
          2261 MiB available memory on the node where the printing process lives
------------------
     ethr =  1.00E-13,  avg # of iterations =  4.4

     negative rho (up, down):  4.814E-04 0.000E+00

     total cpu time spent up to now is      247.0 secs

     total energy              =    -181.57951721 Ry
     estimated scf accuracy    <          1.5E-12 Ry

     iteration # 19     ecut=    60.00 Ry     beta= 0.30
     CG style diagonalization

---- Real-time Memory Report at c_bands before calling an iterative solver
           221 MiB given to the printing process from OS
             0 MiB allocation reported by mallinfo(arena+hblkhd)
          2503 MiB available memory on the node where the printing process lives
------------------
     ethr =  1.00E-13,  avg # of iterations =  3.2

     negative rho (up, down):  4.814E-04 0.000E+00

     total cpu time spent up to now is      251.5 secs

     total energy              =    -181.57951721 Ry
     estimated scf accuracy    <          1.3E-12 Ry

     iteration # 20     ecut=    60.00 Ry     beta= 0.30
     CG style diagonalization

---- Real-time Memory Report at c_bands before calling an iterative solver
           221 MiB given to the printing process from OS
             0 MiB allocation reported by mallinfo(arena+hblkhd)
          1849 MiB available memory on the node where the printing process lives
------------------
     ethr =  1.00E-13,  avg # of iterations =  3.1

     negative rho (up, down):  4.814E-04 0.000E+00

     total cpu time spent up to now is      256.1 secs

     total energy              =    -181.57951721 Ry
     estimated scf accuracy    <          1.0E-11 Ry

     iteration # 21     ecut=    60.00 Ry     beta= 0.30
     CG style diagonalization

---- Real-time Memory Report at c_bands before calling an iterative solver
           221 MiB given to the printing process from OS
             0 MiB allocation reported by mallinfo(arena+hblkhd)
          2175 MiB available memory on the node where the printing process lives
------------------
     ethr =  1.00E-13,  avg # of iterations =  3.0

     negative rho (up, down):  4.815E-04 0.000E+00

     total cpu time spent up to now is      260.5 secs

     total energy              =    -181.57951721 Ry
     estimated scf accuracy    <          2.4E-11 Ry

     iteration # 22     ecut=    60.00 Ry     beta= 0.30
     CG style diagonalization

---- Real-time Memory Report at c_bands before calling an iterative solver
           221 MiB given to the printing process from OS
             0 MiB allocation reported by mallinfo(arena+hblkhd)
          1775 MiB available memory on the node where the printing process lives
------------------
     ethr =  1.00E-13,  avg # of iterations =  3.0

     negative rho (up, down):  4.815E-04 0.000E+00

     total cpu time spent up to now is      264.3 secs

     total energy              =    -181.57951722 Ry
     estimated scf accuracy    <          1.4E-11 Ry

     iteration # 23     ecut=    60.00 Ry     beta= 0.30
     CG style diagonalization

---- Real-time Memory Report at c_bands before calling an iterative solver
           221 MiB given to the printing process from OS
             0 MiB allocation reported by mallinfo(arena+hblkhd)
          2470 MiB available memory on the node where the printing process lives
------------------
     ethr =  1.00E-13,  avg # of iterations =  3.1

     negative rho (up, down):  4.815E-04 0.000E+00

     total cpu time spent up to now is      268.8 secs

     total energy              =    -181.57951722 Ry
     estimated scf accuracy    <          5.3E-12 Ry

     iteration # 24     ecut=    60.00 Ry     beta= 0.30
     CG style diagonalization

---- Real-time Memory Report at c_bands before calling an iterative solver
           221 MiB given to the printing process from OS
             0 MiB allocation reported by mallinfo(arena+hblkhd)
          2389 MiB available memory on the node where the printing process lives
------------------
     ethr =  1.00E-13,  avg # of iterations =  3.0

     negative rho (up, down):  4.815E-04 0.000E+00

     total cpu time spent up to now is      273.1 secs

     total energy              =    -181.57951722 Ry
     estimated scf accuracy    <          4.4E-12 Ry

     iteration # 25     ecut=    60.00 Ry     beta= 0.30
     CG style diagonalization

---- Real-time Memory Report at c_bands before calling an iterative solver
           221 MiB given to the printing process from OS
             0 MiB allocation reported by mallinfo(arena+hblkhd)
          2297 MiB available memory on the node where the printing process lives
------------------
     ethr =  1.00E-13,  avg # of iterations =  3.0

     negative rho (up, down):  4.815E-04 0.000E+00

     total cpu time spent up to now is      277.4 secs

     total energy              =    -181.57951722 Ry
     estimated scf accuracy    <          4.4E-12 Ry

     iteration # 26     ecut=    60.00 Ry     beta= 0.30
     CG style diagonalization

---- Real-time Memory Report at c_bands before calling an iterative solver
           221 MiB given to the printing process from OS
             0 MiB allocation reported by mallinfo(arena+hblkhd)
          2526 MiB available memory on the node where the printing process lives
------------------
     ethr =  1.00E-13,  avg # of iterations =  3.0

     negative rho (up, down):  4.815E-04 0.000E+00

     total cpu time spent up to now is      281.6 secs

     total energy              =    -181.57951722 Ry
     estimated scf accuracy    <          5.3E-12 Ry

     iteration # 27     ecut=    60.00 Ry     beta= 0.30
     CG style diagonalization

---- Real-time Memory Report at c_bands before calling an iterative solver
           221 MiB given to the printing process from OS
             0 MiB allocation reported by mallinfo(arena+hblkhd)
          2060 MiB available memory on the node where the printing process lives
------------------
     ethr =  1.00E-13,  avg # of iterations =  3.0

     negative rho (up, down):  4.815E-04 0.000E+00

     total cpu time spent up to now is      286.0 secs

     total energy              =    -181.57951722 Ry
     estimated scf accuracy    <          6.3E-12 Ry

     iteration # 28     ecut=    60.00 Ry     beta= 0.30
     CG style diagonalization

---- Real-time Memory Report at c_bands before calling an iterative solver
           221 MiB given to the printing process from OS
             0 MiB allocation reported by mallinfo(arena+hblkhd)
          2437 MiB available memory on the node where the printing process lives
------------------
     ethr =  1.00E-13,  avg # of iterations =  3.2

     negative rho (up, down):  4.815E-04 0.000E+00

     total cpu time spent up to now is      290.6 secs

     total energy              =    -181.57951722 Ry
     estimated scf accuracy    <          3.2E-12 Ry

     iteration # 29     ecut=    60.00 Ry     beta= 0.30
     CG style diagonalization

---- Real-time Memory Report at c_bands before calling an iterative solver
           221 MiB given to the printing process from OS
             0 MiB allocation reported by mallinfo(arena+hblkhd)
          2013 MiB available memory on the node where the printing process lives
------------------
     ethr =  1.00E-13,  avg # of iterations =  3.0

     negative rho (up, down):  4.815E-04 0.000E+00

     total cpu time spent up to now is      295.1 secs

     total energy              =    -181.57951722 Ry
     estimated scf accuracy    <          5.9E-12 Ry

     iteration # 30     ecut=    60.00 Ry     beta= 0.30
     CG style diagonalization

---- Real-time Memory Report at c_bands before calling an iterative solver
           221 MiB given to the printing process from OS
             0 MiB allocation reported by mallinfo(arena+hblkhd)
          2352 MiB available memory on the node where the printing process lives
------------------
     ethr =  1.00E-13,  avg # of iterations =  3.0

     negative rho (up, down):  4.815E-04 0.000E+00

     total cpu time spent up to now is      299.6 secs

     total energy              =    -181.57951722 Ry
     estimated scf accuracy    <          4.0E-12 Ry

     iteration # 31     ecut=    60.00 Ry     beta= 0.30
     CG style diagonalization

---- Real-time Memory Report at c_bands before calling an iterative solver
           221 MiB given to the printing process from OS
             0 MiB allocation reported by mallinfo(arena+hblkhd)
          2498 MiB available memory on the node where the printing process lives
------------------
     ethr =  1.00E-13,  avg # of iterations =  3.0

     negative rho (up, down):  4.815E-04 0.000E+00

     total cpu time spent up to now is      304.1 secs

     total energy              =    -181.57951722 Ry
     estimated scf accuracy    <          2.3E-12 Ry

     iteration # 32     ecut=    60.00 Ry     beta= 0.30
     CG style diagonalization

---- Real-time Memory Report at c_bands before calling an iterative solver
           221 MiB given to the printing process from OS
             0 MiB allocation reported by mallinfo(arena+hblkhd)
          2076 MiB available memory on the node where the printing process lives
------------------
     ethr =  1.00E-13,  avg # of iterations =  3.0

     negative rho (up, down):  4.815E-04 0.000E+00

     total cpu time spent up to now is      308.7 secs

     total energy              =    -181.57951722 Ry
     estimated scf accuracy    <          2.8E-12 Ry

     iteration # 33     ecut=    60.00 Ry     beta= 0.30
     CG style diagonalization

---- Real-time Memory Report at c_bands before calling an iterative solver
           221 MiB given to the printing process from OS
             0 MiB allocation reported by mallinfo(arena+hblkhd)
          2316 MiB available memory on the node where the printing process lives
------------------
     ethr =  1.00E-13,  avg # of iterations =  3.0

     negative rho (up, down):  4.815E-04 0.000E+00

     total cpu time spent up to now is      313.2 secs

     total energy              =    -181.57951722 Ry
     estimated scf accuracy    <          1.7E-12 Ry

     iteration # 34     ecut=    60.00 Ry     beta= 0.30
     CG style diagonalization

---- Real-time Memory Report at c_bands before calling an iterative solver
           221 MiB given to the printing process from OS
             0 MiB allocation reported by mallinfo(arena+hblkhd)
          1873 MiB available memory on the node where the printing process lives
------------------
     ethr =  1.00E-13,  avg # of iterations =  3.0

     negative rho (up, down):  4.815E-04 0.000E+00

     total cpu time spent up to now is      317.7 secs

     End of self-consistent calculation

          k = 0.0000 0.0000 0.0000 ( 13133 PWs)   bands (ev):

   -63.2640 -37.4108 -37.1988 -37.1907 -16.4842 -15.1913  -8.0063  -4.9948
    -4.9409  -4.1905  -3.8760  -3.8438  -2.4256   0.3799   0.4075   0.6054

     occupation numbers 
     1.0000   1.0000   1.0000   1.0000   1.0000   1.0000   1.0000   1.0000
     1.0000   1.0000   1.0000   1.0000   1.0000   0.0000   0.0000   0.0000

          k = 0.0000 0.0957 0.0000 ( 13117 PWs)   bands (ev):

   -63.2614 -37.4057 -37.2246 -37.1965 -16.3816 -15.1489  -7.8887  -5.2223
    -4.8336  -4.6650  -4.0061  -3.5633  -2.4756   0.2494   0.3238   0.5350

     occupation numbers 
     1.0000   1.0000   1.0000   1.0000   1.0000   1.0000   1.0000   1.0000
     1.0000   1.0000   1.0000   1.0000   1.0000   0.0000   0.0000   0.0000

          k = 0.0000 0.1915 0.0000 ( 13091 PWs)   bands (ev):

   -63.2544 -37.3919 -37.2947 -37.2123 -16.0898 -15.0283  -7.5920  -5.7476
    -5.3111  -4.5344  -4.3889  -3.4824  -2.7054  -0.1134   0.2005   0.2673

     occupation numbers 
     1.0000   1.0000   1.0000   1.0000   1.0000   1.0000   1.0000   1.0000
     1.0000   1.0000   1.0000   1.0000   1.0000   0.0000   0.0000   0.0000

          k = 0.0000 0.2872 0.0000 ( 13049 PWs)   bands (ev):

   -63.2449 -37.3892 -37.3730 -37.2338 -15.6575 -14.8512  -7.3751  -6.2031
    -5.9693  -4.8184  -4.1147  -3.7330  -3.1313  -0.2373   0.0002   0.5266

     occupation numbers 
     1.0000   1.0000   1.0000   1.0000   1.0000   1.0000   1.0000   1.0000
     1.0000   1.0000   1.0000   1.0000   1.0000   0.0000   0.0000   0.0000

          k = 0.0000 0.3830 0.0000 ( 13037 PWs)   bands (ev):

   -63.2354 -37.4824 -37.3540 -37.2552 -15.1722 -14.6567  -7.6219  -6.5763
    -6.2979  -5.1801  -4.0370  -3.6943  -3.3758  -0.1444  -0.0602   1.0157

     occupation numbers 
     1.0000   1.0000   1.0000   1.0000   1.0000   1.0000   1.0000   1.0000
     1.0000   1.0000   1.0000   1.0000   1.0000   0.0000   0.0000   0.0000

          k = 0.0000 0.4787 0.0000 ( 12997 PWs)   bands (ev):

   -63.2284 -37.5497 -37.3401 -37.2708 -14.7680 -14.5005  -8.0062  -7.0194
    -6.3871  -5.4151  -4.2315  -3.4021  -3.2067  -0.1465   0.2233   1.3779

     occupation numbers 
     1.0000   1.0000   1.0000   1.0000   1.0000   1.0000   1.0000   1.0000
     1.0000   1.0000   1.0000   1.0000   1.0000   0.0000   0.0000   0.0000

          k = 0.0000-0.5745 0.0000 ( 12996 PWs)   bands (ev):

   -63.2258 -37.5742 -37.3350 -37.2765 -14.6058 -14.4399  -8.1708  -7.1832
    -6.4581  -5.4960  -4.2943  -3.3027  -3.0426  -0.1177   0.3825   1.4952

     occupation numbers 
     1.0000   1.0000   1.0000   1.0000   1.0000   1.0000   1.0000   1.0000
     1.0000   1.0000   1.0000   1.0000   1.0000   0.0000   0.0000   0.0000

          k = 0.0833 0.0479 0.0000 ( 13101 PWs)   bands (ev):

   -63.2613 -37.4056 -37.2195 -37.2021 -16.3807 -15.1479  -7.8878  -5.1884
    -4.8718  -4.6543  -4.0341  -3.5483  -2.4731   0.2623   0.3539   0.5020

     occupation numbers 
     1.0000   1.0000   1.0000   1.0000   1.0000   1.0000   1.0000   1.0000
     1.0000   1.0000   1.0000   1.0000   1.0000   0.0000   0.0000   0.0000

          k = 0.0833 0.1436 0.0000 ( 13075 PWs)   bands (ev):

   -63.2566 -37.3962 -37.2694 -37.2110 -16.1834 -15.0662  -7.6771  -5.5800
    -5.0872  -4.6538  -4.4036  -3.3686  -2.6129  -0.0033   0.1189   0.3136

     occupation numbers 
     1.0000   1.0000   1.0000   1.0000   1.0000   1.0000   1.0000   1.0000
     1.0000   1.0000   1.0000   1.0000   1.0000   0.0000   0.0000   0.0000

          k = 0.0833 0.2394 0.0000 ( 13059 PWs)   bands (ev):

   -63.2483 -37.3798 -37.3494 -37.2320 -15.8204 -14.9163  -7.3891  -6.0610
    -5.6354  -4.9423  -4.3384  -3.4032  -2.9519  -0.2985   0.0947   0.1969

     occupation numbers 
     1.0000   1.0000   1.0000   1.0000   1.0000   1.0000   1.0000   1.0000
     1.0000   1.0000   1.0000   1.0000   1.0000   0.0000   0.0000   0.0000

          k = 0.0833 0.3351 0.0000 ( 13053 PWs)   bands (ev):

   -63.2388 -37.4396 -37.3609 -37.2570 -15.3580 -14.7273  -7.4105  -6.2851
    -6.2496  -5.3022  -4.0991  -3.7009  -3.2383  -0.3474   0.0429   0.5938

     occupation numbers 
     1.0000   1.0000   1.0000   1.0000   1.0000   1.0000   1.0000   1.0000
     1.0000   1.0000   1.0000   1.0000   1.0000   0.0000   0.0000   0.0000

          k = 0.0833 0.4308 0.0000 ( 13017 PWs)   bands (ev):

   -63.2305 -37.5165 -37.3444 -37.2788 -14.9050 -14.5465  -7.7606  -6.8719
    -6.2812  -5.4659  -4.0370  -3.9856  -3.1241  -0.2003   0.1528   1.0756

     occupation numbers 
     1.0000   1.0000   1.0000   1.0000   1.0000   1.0000   1.0000   1.0000
     1.0000   1.0000   1.0000   1.0000   1.0000   0.0000   0.0000   0.0000

          k = 0.0833 0.5266 0.0000 ( 12992 PWs)   bands (ev):

   -63.2257 -37.5605 -37.3349 -37.2914 -14.6121 -14.4331  -8.0299  -7.2137
    -6.3998  -5.5172  -4.2468  -3.8545  -2.8885  -0.1104   0.3802   1.4705

     occupation numbers 
     1.0000   1.0000   1.0000   1.0000   1.0000   1.0000   1.0000   1.0000
     1.0000   1.0000   1.0000   1.0000   1.0000   0.0000   0.0000   0.0000

          k = 0.1667 0.0957 0.0000 ( 13072 PWs)   bands (ev):

   -63.2542 -37.3916 -37.2900 -37.2190 -16.0862 -15.0246  -7.5894  -5.7212
    -5.2972  -4.5718  -4.4242  -3.4709  -2.6955  -0.0902   0.2022   0.2314

     occupation numbers 
     1.0000   1.0000   1.0000   1.0000   1.0000   1.0000   1.0000   1.0000
     1.0000   1.0000   1.0000   1.0000   1.0000   0.0000   0.0000   0.0000

          k = 0.1667 0.1915 0.0000 ( 13076 PWs)   bands (ev):

   -63.2482 -37.3796 -37.3470 -37.2358 -15.8178 -14.9134  -7.3881  -6.0467
    -5.6219  -4.9664  -4.3585  -3.4018  -2.9440  -0.2938   0.0784   0.1998

     occupation numbers 
     1.0000   1.0000   1.0000   1.0000   1.0000   1.0000   1.0000   1.0000
     1.0000   1.0000   1.0000   1.0000   1.0000   0.0000   0.0000   0.0000

          k = 0.1667 0.2872 0.0000 ( 13087 PWs)   bands (ev):

   -63.2400 -37.4162 -37.3632 -37.2668 -15.4221 -14.7490  -7.3050  -6.1987
    -6.0486  -5.5665  -4.3374  -3.4408  -3.1705  -0.4627   0.0920   0.3035

     occupation numbers 
     1.0000   1.0000   1.0000   1.0000   1.0000   1.0000   1.0000   1.0000
     1.0000   1.0000   1.0000   1.0000   1.0000   0.0000   0.0000   0.0000

          k = 0.1667 0.3830 0.0000 ( 13051 PWs)   bands (ev):

   -63.2317 -37.4811 -37.3468 -37.3013 -14.9828 -14.5666  -7.4942  -6.7436
    -6.1133  -5.6684  -4.6115  -3.7451  -3.1183  -0.3115   0.1832   0.6238

     occupation numbers 
     1.0000   1.0000   1.0000   1.0000   1.0000   1.0000   1.0000   1.0000
     1.0000   1.0000   1.0000   1.0000   1.0000   0.0000   0.0000   0.0000

          k = 0.1667 0.4787 0.0000 ( 12992 PWs)   bands (ev):

   -63.2256 -37.5268 -37.3347 -37.3278 -14.6236 -14.4185  -7.6982  -7.2711
    -6.2193  -5.5809  -4.7284  -4.1181  -2.8735  -0.1644   0.4168   0.9573

     occupation numbers 
     1.0000   1.0000   1.0000   1.0000   1.0000   1.0000   1.0000   1.0000
     1.0000   1.0000   1.0000   1.0000   1.0000   0.0000   0.0000   0.0000

          k = 0.1667 0.5745 0.0000 ( 12958 PWs)   bands (ev):

   -63.2233 -37.5433 -37.3376 -37.3303 -14.4818 -14.3605  -7.7746  -7.4626
    -6.3377  -5.5054  -4.7216  -4.2986  -2.7007  -0.2322   0.6600   1.1032

     occupation numbers 
     1.0000   1.0000   1.0000   1.0000   1.0000   1.0000   1.0000   1.0000
     1.0000   1.0000   1.0000   1.0000   1.0000   0.0000   0.0000   0.0000

          k = 0.1667 0.0000 0.0000 ( 13079 PWs)   bands (ev):

   -63.2564 -37.3960 -37.2653 -37.2166 -16.1807 -15.0636  -7.6749  -5.5583
    -5.0818  -4.6842  -4.4187  -3.3637  -2.6076   0.0131   0.1093   0.2945

     occupation numbers 
     1.0000   1.0000   1.0000   1.0000   1.0000   1.0000   1.0000   1.0000
     1.0000   1.0000   1.0000   1.0000   1.0000   0.0000   0.0000   0.0000

          k = 0.2500 0.1436 0.0000 ( 13050 PWs)   bands (ev):

   -63.2444 -37.3858 -37.3724 -37.2413 -15.6502 -14.8431  -7.3733  -6.1789
    -5.9575  -4.8611  -4.1512  -3.7241  -3.1162  -0.2249  -0.0323   0.5226

     occupation numbers 
     1.0000   1.0000   1.0000   1.0000   1.0000   1.0000   1.0000   1.0000
     1.0000   1.0000   1.0000   1.0000   1.0000   0.0000   0.0000   0.0000

          k = 0.2500 0.2394 0.0000 ( 13069 PWs)   bands (ev):

   -63.2385 -37.4369 -37.3603 -37.2633 -15.3516 -14.7198  -7.4088  -6.2750
    -6.2281  -5.3337  -4.1292  -3.7011  -3.2270  -0.3533   0.0315   0.5960

     occupation numbers 
     1.0000   1.0000   1.0000   1.0000   1.0000   1.0000   1.0000   1.0000
     1.0000   1.0000   1.0000   1.0000   1.0000   0.0000   0.0000   0.0000

          k = 0.2500 0.3351 0.0000 ( 13034 PWs)   bands (ev):

   -63.2315 -37.4796 -37.3465 -37.3048 -14.9789 -14.5618  -7.4918  -6.7431
    -6.1012  -5.6798  -4.6285  -3.7464  -3.1144  -0.3127   0.1791   0.6228

     occupation numbers 
     1.0000   1.0000   1.0000   1.0000   1.0000   1.0000   1.0000   1.0000
     1.0000   1.0000   1.0000   1.0000   1.0000   0.0000   0.0000   0.0000

          k = 0.2500 0.4308 0.0000 ( 13011 PWs)   bands (ev):

   -63.2254 -37.5034 -37.3539 -37.3344 -14.6266 -14.4079  -7.4949  -7.3005
    -5.9861  -5.6240  -5.3028  -4.0388  -2.8897  -0.2078   0.4429   0.7064

     occupation numbers 
     1.0000   1.0000   1.0000   1.0000   1.0000   1.0000   1.0000   1.0000
     1.0000   1.0000   1.0000   1.0000   1.0000   0.0000   0.0000   0.0000

          k = 0.2500 0.5266 0.0000 ( 12978 PWs)   bands (ev):

   -63.2218 -37.5090 -37.3903 -37.3274 -14.4082 -14.3099  -7.6443  -7.3738
    -6.2072  -5.5881  -5.4242  -4.3747  -2.5852  -0.4504   0.7477   0.9000

     occupation numbers 
     1.0000   1.0000   1.0000   1.0000   1.0000   1.0000   1.0000   1.0000
     1.0000   1.0000   1.0000   1.0000   1.0000   0.0000   0.0000   0.0000

          k = 0.2500-0.0479 0.0000 ( 13053 PWs)   bands (ev):

   -63.2479 -37.3793 -37.3463 -37.2385 -15.8138 -14.9096  -7.3860  -6.0457
    -5.6281  -4.9676  -4.3638  -3.3990  -2.9445  -0.2947   0.0842   0.1757

     occupation numbers 
     1.0000   1.0000   1.0000   1.0000   1.0000   1.0000   1.0000   1.0000
     1.0000   1.0000   1.0000   1.0000   1.0000   0.0000   0.0000   0.0000

          k = 0.3333 0.1915 0.0000 ( 13041 PWs)   bands (ev):

   -63.2347 -37.4801 -37.3531 -37.2635 -15.1605 -14.6433  -7.6195  -6.5723
    -6.2767  -5.2284  -4.0261  -3.7335  -3.3587  -0.1661  -0.0524   1.0080

     occupation numbers 
     1.0000   1.0000   1.0000   1.0000   1.0000   1.0000   1.0000   1.0000
     1.0000   1.0000   1.0000   1.0000   1.0000   0.0000   0.0000   0.0000

          k = 0.3333 0.2872 0.0000 ( 13019 PWs)   bands (ev):

   -63.2299 -37.5144 -37.3436 -37.2865 -14.8943 -14.5335  -7.7545  -6.8728
    -6.2655  -5.5004  -4.0334  -4.0160  -3.1145  -0.2037   0.1464   1.0730

     occupation numbers 
     1.0000   1.0000   1.0000   1.0000   1.0000   1.0000   1.0000   1.0000
     1.0000   1.0000   1.0000   1.0000   1.0000   0.0000   0.0000   0.0000

          k = 0.3333 0.3830 0.0000 ( 12990 PWs)   bands (ev):

   -63.2251 -37.5251 -37.3341 -37.3335 -14.6152 -14.4083  -7.6922  -7.2781
    -6.2094  -5.5985  -4.7539  -4.1154  -2.8638  -0.1619   0.4155   0.9525

     occupation numbers 
     1.0000   1.0000   1.0000   1.0000   1.0000   1.0000   1.0000   1.0000
     1.0000   1.0000   1.0000   1.0000   1.0000   0.0000   0.0000   0.0000

          k = 0.3333 0.4787 0.0000 ( 12981 PWs)   bands (ev):

   -63.2216 -37.5079 -37.3934 -37.3271 -14.4036 -14.3045  -7.6497  -7.3718
    -6.2000  -5.6027  -5.4326  -4.3708  -2.5813  -0.4475   0.7457   0.9056

     occupation numbers 
     1.0000   1.0000   1.0000   1.0000   1.0000   1.0000   1.0000   1.0000
     1.0000   1.0000   1.0000   1.0000   1.0000   0.0000   0.0000   0.0000

          k = 0.3333 0.5745 0.0000 ( 12936 PWs)   bands (ev):

   -63.2203 -37.4801 -37.4369 -37.3246 -14.3247 -14.2635  -7.7958  -6.9812
    -6.4591  -5.9347  -5.2744  -4.5592  -2.3954  -0.6804   0.6487   1.1601

     occupation numbers 
     1.0000   1.0000   1.0000   1.0000   1.0000   1.0000   1.0000   1.0000
     1.0000   1.0000   1.0000   1.0000   1.0000   0.0000   0.0000   0.0000

          k = 0.3333-0.0957 0.0000 ( 13056 PWs)   bands (ev):

   -63.2382 -37.4379 -37.3600 -37.2642 -15.3470 -14.7157  -7.4121  -6.2826
    -6.2323  -5.3359  -4.1117  -3.6950  -3.2432  -0.3586   0.0524   0.5693

     occupation numbers 
     1.0000   1.0000   1.0000   1.0000   1.0000   1.0000   1.0000   1.0000
     1.0000   1.0000   1.0000   1.0000   1.0000   0.0000   0.0000   0.0000

          k = 0.3333 0.0000 0.0000 ( 13075 PWs)   bands (ev):

   -63.2395 -37.4163 -37.3626 -37.2707 -15.4135 -14.7407  -7.3077  -6.1977
    -6.0572  -5.5756  -4.3282  -3.4354  -3.1842  -0.4676   0.1102   0.2736

     occupation numbers 
     1.0000   1.0000   1.0000   1.0000   1.0000   1.0000   1.0000   1.0000
     1.0000   1.0000   1.0000   1.0000   1.0000   0.0000   0.0000   0.0000

          k = 0.4167 0.2394 0.0000 ( 13015 PWs)   bands (ev):

   -63.2275 -37.5484 -37.3389 -37.2796 -14.7526 -14.4824  -8.0000  -7.0240
    -6.3761  -5.4668  -4.2158  -3.4470  -3.1842  -0.1519   0.2311   1.3651

     occupation numbers 
     1.0000   1.0000   1.0000   1.0000   1.0000   1.0000   1.0000   1.0000
     1.0000   1.0000   1.0000   1.0000   1.0000   0.0000   0.0000   0.0000

          k = 0.4167 0.3351 0.0000 ( 12998 PWs)   bands (ev):

   -63.2250 -37.5591 -37.3338 -37.2997 -14.5975 -14.4156  -8.0219  -7.2226
    -6.3932  -5.5576  -4.2350  -3.8856  -2.8763  -0.1071   0.3842   1.4627

     occupation numbers 
     1.0000   1.0000   1.0000   1.0000   1.0000   1.0000   1.0000   1.0000
     1.0000   1.0000   1.0000   1.0000   1.0000   0.0000   0.0000   0.0000

          k = 0.4167 0.4308 0.0000 ( 12994 PWs)   bands (ev):

   -63.2228 -37.5423 -37.3441 -37.3294 -14.4694 -14.3463  -7.7714  -7.4750
    -6.3322  -5.5310  -4.7432  -4.2879  -2.6947  -0.2244   0.6750   1.0949

     occupation numbers 
     1.0000   1.0000   1.0000   1.0000   1.0000   1.0000   1.0000   1.0000
     1.0000   1.0000   1.0000   1.0000   1.0000   0.0000   0.0000   0.0000

          k = 0.4167 0.5266 0.0000 ( 12981 PWs)   bands (ev):

   -63.2215 -37.5088 -37.3939 -37.3269 -14.3994 -14.3008  -7.6543  -7.3816
    -6.1996  -5.5938  -5.4390  -4.3651  -2.5920  -0.4363   0.7434   0.9212

     occupation numbers 
     1.0000   1.0000   1.0000   1.0000   1.0000   1.0000   1.0000   1.0000
     1.0000   1.0000   1.0000   1.0000   1.0000   0.0000   0.0000   0.0000

          k = 0.4167-0.1436 0.0000 ( 13025 PWs)   bands (ev):

   -63.2298 -37.5156 -37.3433 -37.2867 -14.8903 -14.5303  -7.7618  -6.8776
    -6.2662  -5.5061  -4.0254  -3.9964  -3.1356  -0.2111   0.1773   1.0498

     occupation numbers 
     1.0000   1.0000   1.0000   1.0000   1.0000   1.0000   1.0000   1.0000
     1.0000   1.0000   1.0000   1.0000   1.0000   0.0000   0.0000   0.0000

          k = 0.4167-0.0479 0.0000 ( 13055 PWs)   bands (ev):

   -63.2311 -37.4815 -37.3459 -37.3063 -14.9703 -14.5541  -7.5039  -6.7542
    -6.1048  -5.6871  -4.6026  -3.7374  -3.1389  -0.3167   0.2174   0.5988

     occupation numbers 
     1.0000   1.0000   1.0000   1.0000   1.0000   1.0000   1.0000   1.0000
     1.0000   1.0000   1.0000   1.0000   1.0000   0.0000   0.0000   0.0000

          k =-0.5000-0.2872 0.0000 ( 13036 PWs)   bands (ev):

   -63.2250 -37.5732 -37.3337 -37.2855 -14.5889 -14.4197  -8.1628  -7.1915
    -6.4525  -5.5490  -4.2763  -3.3503  -3.0171  -0.1150   0.3922   1.4796

     occupation numbers 
     1.0000   1.0000   1.0000   1.0000   1.0000   1.0000   1.0000   1.0000
     1.0000   1.0000   1.0000   1.0000   1.0000   0.0000   0.0000   0.0000

          k =-0.5000-0.1915 0.0000 ( 13008 PWs)   bands (ev):

   -63.2249 -37.5596 -37.3337 -37.2997 -14.5958 -14.4143  -8.0255  -7.2242
    -6.3927  -5.5608  -4.2310  -3.8778  -2.8869  -0.1072   0.3985   1.4452

     occupation numbers 
     1.0000   1.0000   1.0000   1.0000   1.0000   1.0000   1.0000   1.0000
     1.0000   1.0000   1.0000   1.0000   1.0000   0.0000   0.0000   0.0000

          k =-0.5000-0.0957 0.0000 ( 13003 PWs)   bands (ev):

   -63.2249 -37.5268 -37.3338 -37.3337 -14.6095 -14.4035  -7.7042  -7.2844
    -6.2096  -5.6059  -4.7367  -4.1068  -2.8842  -0.1574   0.4483   0.9408

     occupation numbers 
     1.0000   1.0000   1.0000   1.0000   1.0000   1.0000   1.0000   1.0000
     1.0000   1.0000   1.0000   1.0000   1.0000   0.0000   0.0000   0.0000

          k =-0.5000-0.0000 0.0000 ( 13011 PWs)   bands (ev):

   -63.2249 -37.5049 -37.3563 -37.3337 -14.6163 -14.3981  -7.5103  -7.3122
    -5.9883  -5.6363  -5.2838  -4.0295  -2.9103  -0.1981   0.4799   0.6945

     occupation numbers 
     1.0000   1.0000   1.0000   1.0000   1.0000   1.0000   1.0000   1.0000
     1.0000   1.0000   1.0000   1.0000   1.0000   0.0000   0.0000   0.0000

     highest occupied, lowest unoccupied level (ev):    -2.3954   -0.6804

!    total energy              =    -181.57951722 Ry
     estimated scf accuracy    <          9.1E-14 Ry

     The total energy is the sum of the following terms:
     one-electron contribution =   -1804.31649764 Ry
     hartree contribution      =     901.02502099 Ry
     xc contribution           =     -29.69535251 Ry
     ewald contribution        =     751.40731194 Ry

     convergence has been achieved in  34 iterations

     negative rho (up, down):  4.815E-04 0.000E+00

     Forces acting on atoms (cartesian axes, Ry/au):

     atom    1 type  1   force =     0.00000000    0.00000699    0.00000000
     atom    2 type  2   force =     0.00000000   -0.00000350    0.00000010
     atom    3 type  2   force =     0.00000000   -0.00000350   -0.00000010
     The non-local contrib.  to forces
     atom    1 type  1   force =     0.00000000   -0.00013686    0.00000000
     atom    2 type  2   force =     0.00000000   -0.00018112   -0.27275679
     atom    3 type  2   force =     0.00000000   -0.00018112    0.27275679
     The ionic contribution  to forces
     atom    1 type  1   force =     0.00000000   -0.04567890    0.00000000
     atom    2 type  2   force =    -0.00000000    0.02283945   38.94608023
     atom    3 type  2   force =    -0.00000000    0.02283945  -38.94608023
     The local contribution  to forces
     atom    1 type  1   force =     0.00000000    0.04584936    0.00000000
     atom    2 type  2   force =    -0.00000000   -0.02264080  -38.67577025
     atom    3 type  2   force =    -0.00000000   -0.02264080   38.67577025
     The core correction contribution to forces
     atom    1 type  1   force =    -0.00000000   -0.00002682   -0.00000000
     atom    2 type  2   force =     0.00000000   -0.00002124    0.00244662
     atom    3 type  2   force =     0.00000000   -0.00002124   -0.00244662
     The Hubbard contrib.    to forces
     atom    1 type  1   force =     0.00000000    0.00000000    0.00000000
     atom    2 type  2   force =     0.00000000    0.00000000    0.00000000
     atom    3 type  2   force =     0.00000000    0.00000000    0.00000000
     The SCF correction term to forces
     atom    1 type  1   force =     0.00000000   -0.00000000    0.00000000
     atom    2 type  2   force =     0.00000000   -0.00000000    0.00000030
     atom    3 type  2   force =     0.00000000   -0.00000000   -0.00000030

     Total force =     0.000009     Total SCF correction =     0.000000


     Computing stress (Cartesian axis) and pressure


     negative rho (up, down):  4.815E-04 0.000E+00
          total   stress  (Ry/bohr**3)                   (kbar)     P=        0.78
   0.00001634   0.00000000   0.00000000            2.40        0.00        0.00
   0.00000000   0.00000395   0.00000000            0.00        0.58        0.00
   0.00000000   0.00000000  -0.00000437            0.00        0.00       -0.64

     kinetic stress (kbar)   4029.34      0.00      0.00
                                0.00   4025.87      0.00
                                0.00      0.00   4062.73

     local   stress (kbar)-159165.02      0.00      0.00
                                0.00-159144.69      0.00
                                0.00      0.00 156674.24

     nonloc. stress (kbar)   1841.53      0.00      0.00
                                0.00   1842.01      0.00
                                0.00      0.00   1834.01

     hartree stress (kbar)  78351.45     -0.00      0.00
                               -0.00  78344.75      0.00
                                0.00      0.00 -76874.66

     exc-cor stress (kbar)   -342.00     -0.00      0.00
                               -0.00   -342.04      0.00
                                0.00      0.00   -342.94

     corecor stress (kbar)   -452.95      0.00      0.00
                                0.00   -452.94     -0.00
                                0.00     -0.00   -453.30

     ewald   stress (kbar)  75740.06     -0.00      0.00
                               -0.00  75727.62     -0.00
                                0.00     -0.00 -84900.73

     hubbard stress (kbar)      0.00      0.00      0.00
                                0.00      0.00      0.00
                                0.00      0.00      0.00

     DFT-D   stress (kbar)      0.00      0.00      0.00
                                0.00      0.00      0.00
                                0.00      0.00      0.00

     XDM     stress (kbar)      0.00      0.00      0.00
                                0.00      0.00      0.00
                                0.00      0.00      0.00

     dft-nl  stress (kbar)      0.00      0.00      0.00
                                0.00      0.00      0.00
                                0.00      0.00      0.00

     TS-vdW  stress (kbar)      0.00      0.00      0.00
                                0.00      0.00      0.00
                                0.00      0.00      0.00

     MDB     stress (kbar)      0.00      0.00      0.00
                                0.00      0.00      0.00
                                0.00      0.00      0.00

     3D-RISM stress (kbar)      0.00      0.00      0.00
                                0.00      0.00      0.00
                                0.00      0.00      0.00


     Writing all to output data dir ./tmp/mos2.save/ :
     XML data file, charge density, pseudopotentials, collected wavefunctions
 
     init_run     :      1.85s CPU      2.32s WALL (       1 calls)
     electrons    :    290.14s CPU    315.22s WALL (       1 calls)
     forces       :      0.96s CPU      1.23s WALL (       1 calls)
     stress       :      2.96s CPU      3.75s WALL (       1 calls)

     Called by init_run:
     wfcinit      :      1.06s CPU      1.10s WALL (       1 calls)
     wfcinit:atom :      0.02s CPU      0.02s WALL (      43 calls)
     wfcinit:wfcr :      0.92s CPU      0.96s WALL (      43 calls)
     potinit      :      0.09s CPU      0.13s WALL (       1 calls)
     hinit0       :      0.08s CPU      0.10s WALL (       1 calls)

     Called by electrons:
     c_bands      :    239.53s CPU    243.49s WALL (      34 calls)
     sum_band     :     31.42s CPU     42.01s WALL (      34 calls)
     v_of_rho     :      3.86s CPU      4.10s WALL (      35 calls)
     v_h          :      0.37s CPU      0.38s WALL (      35 calls)
     v_xc         :      3.65s CPU      3.91s WALL (      37 calls)
     newd         :     14.70s CPU     25.31s WALL (      35 calls)
     mix_rho      :      0.71s CPU      0.73s WALL (      34 calls)

     Called by c_bands:
     init_us_2    :      3.78s CPU      3.84s WALL (    3053 calls)
     ccgdiagg     :    205.98s CPU    209.43s WALL (    1462 calls)
     wfcrot       :     31.14s CPU     31.51s WALL (    1462 calls)

     Called by sum_band:
     sum_band:wei :      0.00s CPU      0.00s WALL (      34 calls)
     sum_band:loo :     14.08s CPU     14.24s WALL (      34 calls)
     sum_band:buf :      0.60s CPU      0.61s WALL (    1462 calls)
     sum_band:ini :      2.08s CPU      2.11s WALL (    1462 calls)
     sum_band:cal :      2.12s CPU      2.13s WALL (    1462 calls)
     sum_band:bec :      0.04s CPU      0.04s WALL (    1462 calls)
     addusdens    :     16.35s CPU     26.75s WALL (      34 calls)
                                        0.00s GPU  (      34 calls)
     addusd:skk   :      0.05s CPU      0.05s WALL (      68 calls)
                                        0.00s GPU  (      68 calls)

     Called by *cgdiagg:
     h_psi        :    155.54s CPU    158.05s WALL (   82437 calls)
     s_psi        :     32.97s CPU     33.60s WALL (  163412 calls)

     Called by h_psi:
     h_psi:calbec :     27.32s CPU     27.70s WALL (   82437 calls)
     vloc_psi     :    102.64s CPU    104.47s WALL (   82437 calls)
                                        0.00s GPU  (   82437 calls)
     add_vuspsi   :     23.58s CPU     23.92s WALL (   82437 calls)
     hs_1psi      :    148.45s CPU    150.92s WALL (   80975 calls)
     s_1psi       :     32.30s CPU     32.85s WALL (   80975 calls)

     General routines
     calbec       :     46.94s CPU     47.62s WALL (  165605 calls)
     fft          :      2.14s CPU      2.35s WALL (     478 calls)
     ffts         :      0.06s CPU      0.06s WALL (      69 calls)
     fftw         :     85.65s CPU     87.12s WALL (  232298 calls)
     interpolate  :      0.21s CPU      0.24s WALL (      35 calls)
 
     Parallel routines
 
     PWSCF        :   4m56.10s CPU   5m22.85s WALL

 
   This run was terminated on:   0:27: 6  23Sep2026            

=------------------------------------------------------------------------------=
   JOB DONE.
=------------------------------------------------------------------------------=
