
     Program PWSCF v.7.5 starts on 23Sep2026 at  0:27:11 

     This program is part of the open-source Quantum ESPRESSO suite
     for quantum simulation of materials; please cite
         "P. Giannozzi et al., J. Phys.:Condens. Matter 21 395502 (2009);
         "P. Giannozzi et al., J. Phys.:Condens. Matter 29 465901 (2017);
         "P. Giannozzi et al., J. Chem. Phys. 152 154105 (2020);
          URL http://www.quantum-espresso.org", 
     in publications or presentations arising from this work. More details at
     http://www.quantum-espresso.org/quote

     Parallel version (MPI), running on     8 processors

     MPI processes distributed on     1 nodes
     3964 MiB available memory on the printing compute node when the environment starts
 
     Reading input from mos2.bands.in

     Current dimensions of program PWSCF are:
     Max number of different atomic species (ntypx) = 10
     Max number of k-points (npk) =  40000
     Max angular momentum in pseudopotentials (lmaxx) =  4
     file Mo.pbe-spn-rrkjus_psl.1.0.0.UPF: wavefunction(s)  4S renormalized

     Atomic positions and unit cell read from directory:
     ./tmp/mos2.save/
 
 
     R & G space division:  proc/nbgrp/npool/nimage =       8
     Subspace diagonalization in iterative solution of the eigenvalue problem:
     a serial algorithm will be used

 
     Parallelization info
     --------------------
     sticks:   dense  smooth     PW     G-vecs:    dense   smooth      PW
     Min         148      74     21                36822    13032    2101
     Max         149      76     24                36833    13038    2111
     Sum        1189     595    179               294611   104273   16845
 
     Using Slab Decomposition
 


     bravais-lattice index     =            0
     lattice parameter (alat)  =       5.9844  a.u.
     unit-cell volume          =    1660.5212 (a.u.)^3
     number of atoms/cell      =            3
     number of atomic types    =            2
     number of electrons       =        26.00
     number of Kohn-Sham states=           16
     kinetic-energy cutoff     =      60.0000  Ry
     charge density cutoff     =     480.0000  Ry
     Exchange-correlation= PBE
                           (   1   4   3   4   0   0   0)

     celldm(1)=   5.984412  celldm(2)=   0.000000  celldm(3)=   0.000000
     celldm(4)=   0.000000  celldm(5)=   0.000000  celldm(6)=   0.000000

     crystal axes: (cart. coord. in units of alat)
               a(1) = (   1.000000   0.000000   0.000000 )  
               a(2) = (  -0.500000   0.870377   0.000000 )  
               a(3) = (   0.000000   0.000000   8.901690 )  

     reciprocal axes: (cart. coord. in units 2 pi/alat)
               b(1) = (  1.000000  0.574464  0.000000 )  
               b(2) = (  0.000000  1.148927  0.000000 )  
               b(3) = (  0.000000  0.000000  0.112338 )  


     PseudoPot. # 1 for Mo read from file:
     ../pseudo/Mo.pbe-spn-rrkjus_psl.1.0.0.UPF
     MD5 check sum: 03f09b12e49601d1a456a78ce8b2d514
     Pseudo is Ultrasoft + core correction, Zval = 14.0
     Generated using &quot;atomic&quot; code by A. Dal Corso  v.6.3
     Using radial grid of 1229 points,  6 beta functions with: 
                l(1) =   0
                l(2) =   0
                l(3) =   1
                l(4) =   1
                l(5) =   2
                l(6) =   2
     Q(r) pseudized with 0 coefficients 


     PseudoPot. # 2 for S  read from file:
     ../pseudo/S.pbe-n-rrkjus_psl.1.0.0.UPF
     MD5 check sum: 9d0fe39aa2a799ea84730884c9b010f4
     Pseudo is Ultrasoft + core correction, Zval =  6.0
     Generated using &quot;atomic&quot; code by A. Dal Corso  v.6.3
     Using radial grid of 1151 points,  6 beta functions with: 
                l(1) =   0
                l(2) =   0
                l(3) =   1
                l(4) =   1
                l(5) =   2
                l(6) =   2
     Q(r) pseudized with 0 coefficients 


     atomic species   valence    mass     pseudopotential
     Mo               14.00    95.95000     Mo( 1.00)
     S                 6.00    32.06000     S ( 1.00)

     No symmetry found


                                    s                        frac. trans.

      isym =  1     identity                                     

 cryst.   s( 1) = (     1          0          0      )
                  (     0          1          0      )
                  (     0          0          1      )

 cart.    s( 1) = (  1.0000000  0.0000000  0.0000000 )
                  (  0.0000000  1.0000000  0.0000000 )
                  (  0.0000000  0.0000000  1.0000000 )


   Cartesian axes

     site n.     atom                  positions (alat units)
         1        Mo     tau(   1) = (  -0.0000000  -0.0003263   4.4508451  )
         2        S      tau(   2) = (   0.5000000   0.2902889   4.9458409  )
         3        S      tau(   3) = (   0.5000000   0.2902889   3.9558493  )

   Crystallographic axes

     site n.     atom                  positions (cryst. coord.)
         1        Mo     tau(   1) = ( -0.0001874 -0.0003749  0.5000000  )
         2        S      tau(   2) = (  0.6667604  0.3335208  0.5556069  )
         3        S      tau(   3) = (  0.6667604  0.3335208  0.4443931  )

     number of k points=    97
                       cart. coord. in units 2pi/alat
        k(    1) = (   0.3182129   0.5593431   0.0000000), wk =   0.0206186
        k(    2) = (   0.3182129   0.5643832   0.0000000), wk =   0.0206186
        k(    3) = (   0.3182129   0.5694234   0.0000000), wk =   0.0206186
        k(    4) = (   0.3182129   0.5744635   0.0000000), wk =   0.0206186
        k(    5) = (   0.3182129   0.5795037   0.0000000), wk =   0.0206186
        k(    6) = (   0.3182129   0.5845438   0.0000000), wk =   0.0206186
        k(    7) = (   0.3182129   0.5895839   0.0000000), wk =   0.0206186
        k(    8) = (   0.3232531   0.5593431   0.0000000), wk =   0.0206186
        k(    9) = (   0.3232531   0.5643832   0.0000000), wk =   0.0206186
        k(   10) = (   0.3232531   0.5694234   0.0000000), wk =   0.0206186
        k(   11) = (   0.3232531   0.5744635   0.0000000), wk =   0.0206186
        k(   12) = (   0.3232531   0.5795037   0.0000000), wk =   0.0206186
        k(   13) = (   0.3232531   0.5845438   0.0000000), wk =   0.0206186
        k(   14) = (   0.3232531   0.5895839   0.0000000), wk =   0.0206186
        k(   15) = (   0.3282932   0.5593431   0.0000000), wk =   0.0206186
        k(   16) = (   0.3282932   0.5643832   0.0000000), wk =   0.0206186
        k(   17) = (   0.3282932   0.5694234   0.0000000), wk =   0.0206186
        k(   18) = (   0.3282932   0.5744635   0.0000000), wk =   0.0206186
        k(   19) = (   0.3282932   0.5795037   0.0000000), wk =   0.0206186
        k(   20) = (   0.3282932   0.5845438   0.0000000), wk =   0.0206186
        k(   21) = (   0.3282932   0.5895839   0.0000000), wk =   0.0206186
        k(   22) = (   0.3333333   0.5593431   0.0000000), wk =   0.0206186
        k(   23) = (   0.3333333   0.5643832   0.0000000), wk =   0.0206186
        k(   24) = (   0.3333333   0.5694234   0.0000000), wk =   0.0206186
        k(   25) = (   0.3333333   0.5744635   0.0000000), wk =   0.0206186
        k(   26) = (   0.3333333   0.5795037   0.0000000), wk =   0.0206186
        k(   27) = (   0.3333333   0.5845438   0.0000000), wk =   0.0206186
        k(   28) = (   0.3333333   0.5895839   0.0000000), wk =   0.0206186
        k(   29) = (   0.3383735   0.5593431   0.0000000), wk =   0.0206186
        k(   30) = (   0.3383735   0.5643832   0.0000000), wk =   0.0206186
        k(   31) = (   0.3383735   0.5694234   0.0000000), wk =   0.0206186
        k(   32) = (   0.3383735   0.5744635   0.0000000), wk =   0.0206186
        k(   33) = (   0.3383735   0.5795037   0.0000000), wk =   0.0206186
        k(   34) = (   0.3383735   0.5845438   0.0000000), wk =   0.0206186
        k(   35) = (   0.3383735   0.5895839   0.0000000), wk =   0.0206186
        k(   36) = (   0.3434136   0.5593431   0.0000000), wk =   0.0206186
        k(   37) = (   0.3434136   0.5643832   0.0000000), wk =   0.0206186
        k(   38) = (   0.3434136   0.5694234   0.0000000), wk =   0.0206186
        k(   39) = (   0.3434136   0.5744635   0.0000000), wk =   0.0206186
        k(   40) = (   0.3434136   0.5795037   0.0000000), wk =   0.0206186
        k(   41) = (   0.3434136   0.5845438   0.0000000), wk =   0.0206186
        k(   42) = (   0.3434136   0.5895839   0.0000000), wk =   0.0206186
        k(   43) = (   0.3484538   0.5593431   0.0000000), wk =   0.0206186
        k(   44) = (   0.3484538   0.5643832   0.0000000), wk =   0.0206186
        k(   45) = (   0.3484538   0.5694234   0.0000000), wk =   0.0206186
        k(   46) = (   0.3484538   0.5744635   0.0000000), wk =   0.0206186
        k(   47) = (   0.3484538   0.5795037   0.0000000), wk =   0.0206186
        k(   48) = (   0.3484538   0.5845438   0.0000000), wk =   0.0206186
        k(   49) = (   0.3484538   0.5895839   0.0000000), wk =   0.0206186
        k(   50) = (   0.0000000   0.0000000   0.0000000), wk =   0.0206186
        k(   51) = (   0.5000000   0.2872318   0.0000000), wk =   0.0206186
        k(   52) = (  -0.3333333  -0.5744635   0.0000000), wk =   0.0206186
        k(   53) = (   0.0833333   0.1436159   0.0000000), wk =   0.0206186
        k(   54) = (   0.1000000   0.1723391   0.0000000), wk =   0.0206186
        k(   55) = (   0.1166667   0.2010622   0.0000000), wk =   0.0206186
        k(   56) = (   0.1333333   0.2297854   0.0000000), wk =   0.0206186
        k(   57) = (   0.1500000   0.2585086   0.0000000), wk =   0.0206186
        k(   58) = (   0.1666667   0.2872318   0.0000000), wk =   0.0206186
        k(   59) = (   0.1833333   0.3159549   0.0000000), wk =   0.0206186
        k(   60) = (   0.2000000   0.3446781   0.0000000), wk =   0.0206186
        k(   61) = (   0.2166667   0.3734013   0.0000000), wk =   0.0206186
        k(   62) = (   0.2333333   0.4021245   0.0000000), wk =   0.0206186
        k(   63) = (   0.2500000   0.4308476   0.0000000), wk =   0.0206186
        k(   64) = (   0.2666667   0.4595708   0.0000000), wk =   0.0206186
        k(   65) = (   0.2833333   0.4882940   0.0000000), wk =   0.0206186
        k(   66) = (   0.3000000   0.5170172   0.0000000), wk =   0.0206186
        k(   67) = (   0.3166667   0.5457403   0.0000000), wk =   0.0206186
        k(   68) = (  -0.1666667  -0.0000000   0.0000000), wk =   0.0206186
        k(   69) = (  -0.2000000  -0.0000000   0.0000000), wk =   0.0206186
        k(   70) = (  -0.2333333   0.0000000   0.0000000), wk =   0.0206186
        k(   71) = (  -0.2666667  -0.0000000   0.0000000), wk =   0.0206186
        k(   72) = (  -0.3000000  -0.0000000   0.0000000), wk =   0.0206186
        k(   73) = (  -0.3333333   0.0000000   0.0000000), wk =   0.0206186
        k(   74) = (  -0.3666667  -0.0000000   0.0000000), wk =   0.0206186
        k(   75) = (  -0.4000000  -0.0000000   0.0000000), wk =   0.0206186
        k(   76) = (  -0.4333333   0.0000000   0.0000000), wk =   0.0206186
        k(   77) = (  -0.4666667  -0.0000000   0.0000000), wk =   0.0206186
        k(   78) = (  -0.5000000  -0.0000000   0.0000000), wk =   0.0206186
        k(   79) = (  -0.5333333   0.0000000   0.0000000), wk =   0.0206186
        k(   80) = (  -0.5666667  -0.0000000   0.0000000), wk =   0.0206186
        k(   81) = (  -0.6000000  -0.0000000   0.0000000), wk =   0.0206186
        k(   82) = (  -0.6333333   0.0000000   0.0000000), wk =   0.0206186
        k(   83) = (   0.0833333  -0.1436159   0.0000000), wk =   0.0206186
        k(   84) = (   0.1000000  -0.1723391   0.0000000), wk =   0.0206186
        k(   85) = (   0.1166667  -0.2010622   0.0000000), wk =   0.0206186
        k(   86) = (   0.1333333  -0.2297854   0.0000000), wk =   0.0206186
        k(   87) = (   0.1500000  -0.2585086   0.0000000), wk =   0.0206186
        k(   88) = (   0.1666667  -0.2872318   0.0000000), wk =   0.0206186
        k(   89) = (   0.1833333  -0.3159549   0.0000000), wk =   0.0206186
        k(   90) = (   0.2000000  -0.3446781   0.0000000), wk =   0.0206186
        k(   91) = (   0.2166667  -0.3734013   0.0000000), wk =   0.0206186
        k(   92) = (   0.2333333  -0.4021245   0.0000000), wk =   0.0206186
        k(   93) = (   0.2500000  -0.4308476   0.0000000), wk =   0.0206186
        k(   94) = (   0.2666667  -0.4595708   0.0000000), wk =   0.0206186
        k(   95) = (   0.2833333  -0.4882940   0.0000000), wk =   0.0206186
        k(   96) = (   0.3000000  -0.5170172   0.0000000), wk =   0.0206186
        k(   97) = (   0.3166667  -0.5457403   0.0000000), wk =   0.0206186

                       cryst. coord.
        k(    1) = (   0.3182129   0.3277331   0.0000000), wk =   0.0206186
        k(    2) = (   0.3182129   0.3321199   0.0000000), wk =   0.0206186
        k(    3) = (   0.3182129   0.3365067   0.0000000), wk =   0.0206186
        k(    4) = (   0.3182129   0.3408935   0.0000000), wk =   0.0206186
        k(    5) = (   0.3182129   0.3452804   0.0000000), wk =   0.0206186
        k(    6) = (   0.3182129   0.3496672   0.0000000), wk =   0.0206186
        k(    7) = (   0.3182129   0.3540540   0.0000000), wk =   0.0206186
        k(    8) = (   0.3232531   0.3252130   0.0000000), wk =   0.0206186
        k(    9) = (   0.3232531   0.3295998   0.0000000), wk =   0.0206186
        k(   10) = (   0.3232531   0.3339867   0.0000000), wk =   0.0206186
        k(   11) = (   0.3232531   0.3383735   0.0000000), wk =   0.0206186
        k(   12) = (   0.3232531   0.3427603   0.0000000), wk =   0.0206186
        k(   13) = (   0.3232531   0.3471471   0.0000000), wk =   0.0206186
        k(   14) = (   0.3232531   0.3515339   0.0000000), wk =   0.0206186
        k(   15) = (   0.3282932   0.3226929   0.0000000), wk =   0.0206186
        k(   16) = (   0.3282932   0.3270798   0.0000000), wk =   0.0206186
        k(   17) = (   0.3282932   0.3314666   0.0000000), wk =   0.0206186
        k(   18) = (   0.3282932   0.3358534   0.0000000), wk =   0.0206186
        k(   19) = (   0.3282932   0.3402402   0.0000000), wk =   0.0206186
        k(   20) = (   0.3282932   0.3446271   0.0000000), wk =   0.0206186
        k(   21) = (   0.3282932   0.3490139   0.0000000), wk =   0.0206186
        k(   22) = (   0.3333333   0.3201729   0.0000000), wk =   0.0206186
        k(   23) = (   0.3333333   0.3245597   0.0000000), wk =   0.0206186
        k(   24) = (   0.3333333   0.3289465   0.0000000), wk =   0.0206186
        k(   25) = (   0.3333333   0.3333333   0.0000000), wk =   0.0206186
        k(   26) = (   0.3333333   0.3377202   0.0000000), wk =   0.0206186
        k(   27) = (   0.3333333   0.3421070   0.0000000), wk =   0.0206186
        k(   28) = (   0.3333333   0.3464938   0.0000000), wk =   0.0206186
        k(   29) = (   0.3383735   0.3176528   0.0000000), wk =   0.0206186
        k(   30) = (   0.3383735   0.3220396   0.0000000), wk =   0.0206186
        k(   31) = (   0.3383735   0.3264264   0.0000000), wk =   0.0206186
        k(   32) = (   0.3383735   0.3308133   0.0000000), wk =   0.0206186
        k(   33) = (   0.3383735   0.3352001   0.0000000), wk =   0.0206186
        k(   34) = (   0.3383735   0.3395869   0.0000000), wk =   0.0206186
        k(   35) = (   0.3383735   0.3439737   0.0000000), wk =   0.0206186
        k(   36) = (   0.3434136   0.3151327   0.0000000), wk =   0.0206186
        k(   37) = (   0.3434136   0.3195195   0.0000000), wk =   0.0206186
        k(   38) = (   0.3434136   0.3239064   0.0000000), wk =   0.0206186
        k(   39) = (   0.3434136   0.3282932   0.0000000), wk =   0.0206186
        k(   40) = (   0.3434136   0.3326800   0.0000000), wk =   0.0206186
        k(   41) = (   0.3434136   0.3370668   0.0000000), wk =   0.0206186
        k(   42) = (   0.3434136   0.3414537   0.0000000), wk =   0.0206186
        k(   43) = (   0.3484538   0.3126126   0.0000000), wk =   0.0206186
        k(   44) = (   0.3484538   0.3169995   0.0000000), wk =   0.0206186
        k(   45) = (   0.3484538   0.3213863   0.0000000), wk =   0.0206186
        k(   46) = (   0.3484538   0.3257731   0.0000000), wk =   0.0206186
        k(   47) = (   0.3484538   0.3301599   0.0000000), wk =   0.0206186
        k(   48) = (   0.3484538   0.3345468   0.0000000), wk =   0.0206186
        k(   49) = (   0.3484538   0.3389336   0.0000000), wk =   0.0206186
        k(   50) = (   0.0000000   0.0000000   0.0000000), wk =   0.0206186
        k(   51) = (   0.5000000   0.0000000   0.0000000), wk =   0.0206186
        k(   52) = (  -0.3333333  -0.3333333   0.0000000), wk =   0.0206186
        k(   53) = (   0.0833333   0.0833333   0.0000000), wk =   0.0206186
        k(   54) = (   0.1000000   0.1000000   0.0000000), wk =   0.0206186
        k(   55) = (   0.1166667   0.1166667   0.0000000), wk =   0.0206186
        k(   56) = (   0.1333333   0.1333333   0.0000000), wk =   0.0206186
        k(   57) = (   0.1500000   0.1500000   0.0000000), wk =   0.0206186
        k(   58) = (   0.1666667   0.1666667   0.0000000), wk =   0.0206186
        k(   59) = (   0.1833333   0.1833333   0.0000000), wk =   0.0206186
        k(   60) = (   0.2000000   0.2000000   0.0000000), wk =   0.0206186
        k(   61) = (   0.2166667   0.2166667   0.0000000), wk =   0.0206186
        k(   62) = (   0.2333333   0.2333333   0.0000000), wk =   0.0206186
        k(   63) = (   0.2500000   0.2500000   0.0000000), wk =   0.0206186
        k(   64) = (   0.2666667   0.2666667   0.0000000), wk =   0.0206186
        k(   65) = (   0.2833333   0.2833333   0.0000000), wk =   0.0206186
        k(   66) = (   0.3000000   0.3000000   0.0000000), wk =   0.0206186
        k(   67) = (   0.3166667   0.3166667   0.0000000), wk =   0.0206186
        k(   68) = (  -0.1666667   0.0833333   0.0000000), wk =   0.0206186
        k(   69) = (  -0.2000000   0.1000000   0.0000000), wk =   0.0206186
        k(   70) = (  -0.2333333   0.1166667   0.0000000), wk =   0.0206186
        k(   71) = (  -0.2666667   0.1333333   0.0000000), wk =   0.0206186
        k(   72) = (  -0.3000000   0.1500000   0.0000000), wk =   0.0206186
        k(   73) = (  -0.3333333   0.1666667   0.0000000), wk =   0.0206186
        k(   74) = (  -0.3666667   0.1833333   0.0000000), wk =   0.0206186
        k(   75) = (  -0.4000000   0.2000000   0.0000000), wk =   0.0206186
        k(   76) = (  -0.4333333   0.2166667   0.0000000), wk =   0.0206186
        k(   77) = (  -0.4666667   0.2333333   0.0000000), wk =   0.0206186
        k(   78) = (  -0.5000000   0.2500000   0.0000000), wk =   0.0206186
        k(   79) = (  -0.5333333   0.2666667   0.0000000), wk =   0.0206186
        k(   80) = (  -0.5666667   0.2833333   0.0000000), wk =   0.0206186
        k(   81) = (  -0.6000000   0.3000000   0.0000000), wk =   0.0206186
        k(   82) = (  -0.6333333   0.3166667   0.0000000), wk =   0.0206186
        k(   83) = (   0.0833333  -0.1666667   0.0000000), wk =   0.0206186
        k(   84) = (   0.1000000  -0.2000000   0.0000000), wk =   0.0206186
        k(   85) = (   0.1166667  -0.2333333   0.0000000), wk =   0.0206186
        k(   86) = (   0.1333333  -0.2666667   0.0000000), wk =   0.0206186
        k(   87) = (   0.1500000  -0.3000000   0.0000000), wk =   0.0206186
        k(   88) = (   0.1666667  -0.3333333   0.0000000), wk =   0.0206186
        k(   89) = (   0.1833333  -0.3666667   0.0000000), wk =   0.0206186
        k(   90) = (   0.2000000  -0.4000000   0.0000000), wk =   0.0206186
        k(   91) = (   0.2166667  -0.4333333   0.0000000), wk =   0.0206186
        k(   92) = (   0.2333333  -0.4666667   0.0000000), wk =   0.0206186
        k(   93) = (   0.2500000  -0.5000000   0.0000000), wk =   0.0206186
        k(   94) = (   0.2666667  -0.5333333   0.0000000), wk =   0.0206186
        k(   95) = (   0.2833333  -0.5666667   0.0000000), wk =   0.0206186
        k(   96) = (   0.3000000  -0.6000000   0.0000000), wk =   0.0206186
        k(   97) = (   0.3166667  -0.6333333   0.0000000), wk =   0.0206186

     Dense  grid:   294611 G-vectors     FFT dimensions: (  45,  45, 375)

     Smooth grid:   104273 G-vectors     FFT dimensions: (  30,  30, 270)

     Dynamical RAM for                 wfc:       0.40 MB

     Dynamical RAM for     wfc (w. buffer):       0.40 MB

     Dynamical RAM for           str. fact:       1.12 MB

     Dynamical RAM for           local pot:       0.00 MB

     Dynamical RAM for          nlocal pot:       1.34 MB

     Dynamical RAM for                qrad:       3.52 MB

     Dynamical RAM for          rho,v,vnew:       3.86 MB

     Dynamical RAM for           G-vectors:       2.21 MB

     Dynamical RAM for          h,s,v(r/c):       0.01 MB

     Dynamical RAM for          <psi|beta>:       0.01 MB

     Dynamical RAM for      wfcinit/wfcrot:       0.80 MB

     Dynamical RAM for           addusdens:     105.65 MB

     Estimated static dynamical RAM per process >      17.77 MB

     Estimated max dynamical RAM per process >     123.42 MB

     Estimated total dynamical RAM >     987.33 MB

     The potential is recalculated from file :
     ./tmp/mos2.save/charge-density


     negative rho (up, down):  4.815E-04 0.000E+00
     Starting wfcs are   18 randomized atomic wfcs

     Band Structure Calculation
     CG style diagonalization

     Computing kpt #:     1  of    97
     total cpu time spent up to now is        1.8 secs

     Computing kpt #:     2  of    97
     total cpu time spent up to now is        2.5 secs

     Computing kpt #:     3  of    97
     total cpu time spent up to now is        3.3 secs

     Computing kpt #:     4  of    97
     total cpu time spent up to now is        4.1 secs

     Computing kpt #:     5  of    97
     total cpu time spent up to now is        4.9 secs

     Computing kpt #:     6  of    97
     total cpu time spent up to now is        5.7 secs

     Computing kpt #:     7  of    97
     total cpu time spent up to now is        6.4 secs

     Computing kpt #:     8  of    97
     total cpu time spent up to now is        7.2 secs

     Computing kpt #:     9  of    97
     total cpu time spent up to now is        8.1 secs

     Computing kpt #:    10  of    97
     total cpu time spent up to now is       10.2 secs

     Computing kpt #:    11  of    97
     total cpu time spent up to now is       12.8 secs

     Computing kpt #:    12  of    97
     total cpu time spent up to now is       15.0 secs

     Computing kpt #:    13  of    97
     total cpu time spent up to now is       17.4 secs

     Computing kpt #:    14  of    97
     total cpu time spent up to now is       19.8 secs

     Computing kpt #:    15  of    97
     total cpu time spent up to now is       22.1 secs

     Computing kpt #:    16  of    97
     total cpu time spent up to now is       24.4 secs

     Computing kpt #:    17  of    97
     total cpu time spent up to now is       26.5 secs

     Computing kpt #:    18  of    97
     total cpu time spent up to now is       28.6 secs

     Computing kpt #:    19  of    97
     total cpu time spent up to now is       31.0 secs

     Computing kpt #:    20  of    97
     total cpu time spent up to now is       33.5 secs

     Computing kpt #:    21  of    97
     total cpu time spent up to now is       35.7 secs

     Computing kpt #:    22  of    97
     total cpu time spent up to now is       38.1 secs

     Computing kpt #:    23  of    97
     total cpu time spent up to now is       40.1 secs

     Computing kpt #:    24  of    97
     total cpu time spent up to now is       42.5 secs

     Computing kpt #:    25  of    97
     total cpu time spent up to now is       44.8 secs

     Computing kpt #:    26  of    97
     total cpu time spent up to now is       47.4 secs

     Computing kpt #:    27  of    97
     total cpu time spent up to now is       49.5 secs

     Computing kpt #:    28  of    97
     total cpu time spent up to now is       51.7 secs

     Computing kpt #:    29  of    97
     total cpu time spent up to now is       53.7 secs

     Computing kpt #:    30  of    97
     total cpu time spent up to now is       56.0 secs

     Computing kpt #:    31  of    97
     total cpu time spent up to now is       58.3 secs

     Computing kpt #:    32  of    97
     total cpu time spent up to now is       60.2 secs

     Computing kpt #:    33  of    97
     total cpu time spent up to now is       62.3 secs

     Computing kpt #:    34  of    97
     total cpu time spent up to now is       65.1 secs

     Computing kpt #:    35  of    97
     total cpu time spent up to now is       67.2 secs

     Computing kpt #:    36  of    97
     total cpu time spent up to now is       69.5 secs

     Computing kpt #:    37  of    97
     total cpu time spent up to now is       72.1 secs

     Computing kpt #:    38  of    97
     total cpu time spent up to now is       74.4 secs

     Computing kpt #:    39  of    97
     total cpu time spent up to now is       76.6 secs

     Computing kpt #:    40  of    97
     total cpu time spent up to now is       78.9 secs

     Computing kpt #:    41  of    97
     total cpu time spent up to now is       81.0 secs

     Computing kpt #:    42  of    97
     total cpu time spent up to now is       83.3 secs

     Computing kpt #:    43  of    97
     total cpu time spent up to now is       85.6 secs

     Computing kpt #:    44  of    97
     total cpu time spent up to now is       87.6 secs

     Computing kpt #:    45  of    97
     total cpu time spent up to now is       89.6 secs

     Computing kpt #:    46  of    97
     total cpu time spent up to now is       92.0 secs

     Computing kpt #:    47  of    97
     total cpu time spent up to now is       94.2 secs

     Computing kpt #:    48  of    97
     total cpu time spent up to now is       96.7 secs

     Computing kpt #:    49  of    97
     total cpu time spent up to now is       99.4 secs

     Computing kpt #:    50  of    97
     total cpu time spent up to now is      104.5 secs

     Computing kpt #:    51  of    97
     total cpu time spent up to now is      107.1 secs

     Computing kpt #:    52  of    97
     total cpu time spent up to now is      109.2 secs

     Computing kpt #:    53  of    97
     total cpu time spent up to now is      111.9 secs

     Computing kpt #:    54  of    97
     total cpu time spent up to now is      114.7 secs

     Computing kpt #:    55  of    97
     total cpu time spent up to now is      117.6 secs

     Computing kpt #:    56  of    97
     total cpu time spent up to now is      120.0 secs

     Computing kpt #:    57  of    97
     total cpu time spent up to now is      122.5 secs

     Computing kpt #:    58  of    97
     total cpu time spent up to now is      125.1 secs

     Computing kpt #:    59  of    97
     total cpu time spent up to now is      127.1 secs

     Computing kpt #:    60  of    97
     total cpu time spent up to now is      129.1 secs

     Computing kpt #:    61  of    97
     total cpu time spent up to now is      131.5 secs

     Computing kpt #:    62  of    97
     total cpu time spent up to now is      133.5 secs

     Computing kpt #:    63  of    97
     total cpu time spent up to now is      136.1 secs

     Computing kpt #:    64  of    97
     total cpu time spent up to now is      138.4 secs

     Computing kpt #:    65  of    97
     total cpu time spent up to now is      141.6 secs

     Computing kpt #:    66  of    97
     total cpu time spent up to now is      143.8 secs

     Computing kpt #:    67  of    97
     total cpu time spent up to now is      145.5 secs

     Computing kpt #:    68  of    97
     total cpu time spent up to now is      148.1 secs

     Computing kpt #:    69  of    97
     total cpu time spent up to now is      151.3 secs

     Computing kpt #:    70  of    97
     total cpu time spent up to now is      154.1 secs

     Computing kpt #:    71  of    97
     total cpu time spent up to now is      156.9 secs

     Computing kpt #:    72  of    97
     total cpu time spent up to now is      159.5 secs

     Computing kpt #:    73  of    97
     total cpu time spent up to now is      162.1 secs

     Computing kpt #:    74  of    97
     total cpu time spent up to now is      164.5 secs

     Computing kpt #:    75  of    97
     total cpu time spent up to now is      166.7 secs

     Computing kpt #:    76  of    97
     total cpu time spent up to now is      168.9 secs

     Computing kpt #:    77  of    97
     total cpu time spent up to now is      171.2 secs

     Computing kpt #:    78  of    97
     total cpu time spent up to now is      173.6 secs

     Computing kpt #:    79  of    97
     total cpu time spent up to now is      176.9 secs

     Computing kpt #:    80  of    97
     total cpu time spent up to now is      179.7 secs

     Computing kpt #:    81  of    97
     total cpu time spent up to now is      182.2 secs

     Computing kpt #:    82  of    97
     total cpu time spent up to now is      184.5 secs

     Computing kpt #:    83  of    97
     total cpu time spent up to now is      187.6 secs

     Computing kpt #:    84  of    97
     total cpu time spent up to now is      190.7 secs

     Computing kpt #:    85  of    97
     total cpu time spent up to now is      194.0 secs

     Computing kpt #:    86  of    97
     total cpu time spent up to now is      196.7 secs

     Computing kpt #:    87  of    97
     total cpu time spent up to now is      199.3 secs

     Computing kpt #:    88  of    97
     total cpu time spent up to now is      201.1 secs

     Computing kpt #:    89  of    97
     total cpu time spent up to now is      202.9 secs

     Computing kpt #:    90  of    97
     total cpu time spent up to now is      204.4 secs

     Computing kpt #:    91  of    97
     total cpu time spent up to now is      206.5 secs

     Computing kpt #:    92  of    97
     total cpu time spent up to now is      208.8 secs

     Computing kpt #:    93  of    97
     total cpu time spent up to now is      211.0 secs

     Computing kpt #:    94  of    97
     total cpu time spent up to now is      214.3 secs

     Computing kpt #:    95  of    97
     total cpu time spent up to now is      217.2 secs

     Computing kpt #:    96  of    97
     total cpu time spent up to now is      219.7 secs

     Computing kpt #:    97  of    97
     total cpu time spent up to now is      222.1 secs

     ethr =  1.00E-10,  avg # of iterations = 34.5

     total cpu time spent up to now is      222.1 secs

     End of band structure calculation

          k = 0.3182 0.5593 0.0000 ( 12946 PWs)   bands (ev):

   -63.2204 -37.4831 -37.4327 -37.3247 -14.3297 -14.2666  -7.7871  -7.0186
    -6.4211  -5.9241  -5.2837  -4.5477  -2.4068  -0.6672   0.6537   1.1437

          k = 0.3182 0.5644 0.0000 ( 12942 PWs)   bands (ev):

   -63.2204 -37.4824 -37.4336 -37.3247 -14.3285 -14.2659  -7.7893  -7.0086
    -6.4320  -5.9261  -5.2805  -4.5515  -2.4033  -0.6714   0.6526   1.1479

          k = 0.3182 0.5694 0.0000 ( 12940 PWs)   bands (ev):

   -63.2204 -37.4820 -37.4342 -37.3247 -14.3278 -14.2656  -7.7906  -7.0024
    -6.4388  -5.9272  -5.2785  -4.5538  -2.4012  -0.6739   0.6519   1.1504

          k = 0.3182 0.5745 0.0000 ( 12940 PWs)   bands (ev):

   -63.2203 -37.4819 -37.4344 -37.3247 -14.3275 -14.2654  -7.7911  -7.0003
    -6.4411  -5.9276  -5.2779  -4.5545  -2.4005  -0.6747   0.6517   1.1513

          k = 0.3182 0.5795 0.0000 ( 12940 PWs)   bands (ev):

   -63.2204 -37.4820 -37.4342 -37.3247 -14.3278 -14.2656  -7.7906  -7.0024
    -6.4388  -5.9272  -5.2785  -4.5538  -2.4012  -0.6739   0.6519   1.1504

          k = 0.3182 0.5845 0.0000 ( 12942 PWs)   bands (ev):

   -63.2204 -37.4824 -37.4336 -37.3247 -14.3285 -14.2659  -7.7893  -7.0086
    -6.4320  -5.9261  -5.2805  -4.5515  -2.4033  -0.6714   0.6526   1.1479

          k = 0.3182 0.5896 0.0000 ( 12946 PWs)   bands (ev):

   -63.2204 -37.4831 -37.4327 -37.3247 -14.3297 -14.2666  -7.7871  -7.0186
    -6.4211  -5.9241  -5.2837  -4.5477  -2.4068  -0.6672   0.6537   1.1437

          k = 0.3233 0.5593 0.0000 ( 12940 PWs)   bands (ev):

   -63.2204 -37.4823 -37.4339 -37.3247 -14.3283 -14.2657  -7.7895  -7.0088
    -6.4307  -5.9275  -5.2813  -4.5507  -2.4037  -0.6707   0.6523   1.1483

          k = 0.3233 0.5644 0.0000 ( 12944 PWs)   bands (ev):

   -63.2203 -37.4815 -37.4349 -37.3246 -14.3271 -14.2651  -7.7917  -6.9982
    -6.4418  -5.9298  -5.2781  -4.5544  -2.4002  -0.6749   0.6510   1.1524

          k = 0.3233 0.5694 0.0000 ( 12938 PWs)   bands (ev):

   -63.2203 -37.4811 -37.4354 -37.3246 -14.3264 -14.2647  -7.7930  -6.9917
    -6.4488  -5.9311  -5.2762  -4.5567  -2.3982  -0.6774   0.6503   1.1548

          k = 0.3233 0.5745 0.0000 ( 12942 PWs)   bands (ev):

   -63.2203 -37.4809 -37.4356 -37.3246 -14.3262 -14.2646  -7.7934  -6.9894
    -6.4512  -5.9315  -5.2755  -4.5574  -2.3975  -0.6782   0.6500   1.1557

          k = 0.3233 0.5795 0.0000 ( 12938 PWs)   bands (ev):

   -63.2203 -37.4811 -37.4354 -37.3246 -14.3264 -14.2647  -7.7930  -6.9917
    -6.4488  -5.9311  -5.2762  -4.5567  -2.3982  -0.6774   0.6503   1.1548

          k = 0.3233 0.5845 0.0000 ( 12944 PWs)   bands (ev):

   -63.2203 -37.4815 -37.4349 -37.3246 -14.3271 -14.2651  -7.7917  -6.9982
    -6.4418  -5.9298  -5.2781  -4.5544  -2.4002  -0.6749   0.6510   1.1524

          k = 0.3233 0.5896 0.0000 ( 12940 PWs)   bands (ev):

   -63.2204 -37.4823 -37.4339 -37.3247 -14.3283 -14.2657  -7.7895  -7.0088
    -6.4307  -5.9275  -5.2813  -4.5507  -2.4037  -0.6707   0.6523   1.1483

          k = 0.3283 0.5593 0.0000 ( 12948 PWs)   bands (ev):

   -63.2203 -37.4817 -37.4347 -37.3246 -14.3273 -14.2650  -7.7912  -7.0030
    -6.4368  -5.9291  -5.2800  -4.5525  -2.4018  -0.6727   0.6515   1.1514

          k = 0.3283 0.5644 0.0000 ( 12946 PWs)   bands (ev):

   -63.2203 -37.4810 -37.4357 -37.3246 -14.3262 -14.2644  -7.7933  -6.9921
    -6.4479  -5.9318  -5.2769  -4.5561  -2.3984  -0.6768   0.6501   1.1554

          k = 0.3283 0.5694 0.0000 ( 12944 PWs)   bands (ev):

   -63.2203 -37.4805 -37.4363 -37.3246 -14.3255 -14.2640  -7.7946  -6.9853
    -6.4549  -5.9333  -5.2750  -4.5583  -2.3964  -0.6793   0.6493   1.1578

          k = 0.3283 0.5745 0.0000 ( 12944 PWs)   bands (ev):

   -63.2203 -37.4803 -37.4365 -37.3246 -14.3252 -14.2639  -7.7950  -6.9830
    -6.4573  -5.9338  -5.2744  -4.5590  -2.3958  -0.6801   0.6491   1.1586

          k = 0.3283 0.5795 0.0000 ( 12944 PWs)   bands (ev):

   -63.2203 -37.4805 -37.4363 -37.3246 -14.3255 -14.2640  -7.7946  -6.9853
    -6.4549  -5.9333  -5.2750  -4.5583  -2.3964  -0.6793   0.6493   1.1578

          k = 0.3283 0.5845 0.0000 ( 12946 PWs)   bands (ev):

   -63.2203 -37.4810 -37.4357 -37.3246 -14.3262 -14.2644  -7.7933  -6.9921
    -6.4479  -5.9318  -5.2769  -4.5561  -2.3984  -0.6768   0.6501   1.1554

          k = 0.3283 0.5896 0.0000 ( 12948 PWs)   bands (ev):

   -63.2203 -37.4817 -37.4347 -37.3246 -14.3273 -14.2650  -7.7912  -7.0030
    -6.4368  -5.9291  -5.2800  -4.5525  -2.4018  -0.6727   0.6515   1.1514

          k = 0.3333 0.5593 0.0000 ( 12945 PWs)   bands (ev):

   -63.2203 -37.4816 -37.4350 -37.3246 -14.3268 -14.2646  -7.7920  -7.0016
    -6.4389  -5.9293  -5.2799  -4.5529  -2.4012  -0.6731   0.6513   1.1531

          k = 0.3333 0.5644 0.0000 ( 12942 PWs)   bands (ev):

   -63.2203 -37.4807 -37.4361 -37.3246 -14.3256 -14.2640  -7.7941  -6.9905
    -6.4498  -5.9323  -5.2768  -4.5564  -2.3980  -0.6771   0.6498   1.1570

          k = 0.3333 0.5694 0.0000 ( 12940 PWs)   bands (ev):

   -63.2203 -37.4802 -37.4367 -37.3246 -14.3250 -14.2636  -7.7953  -6.9835
    -6.4567  -5.9341  -5.2750  -4.5585  -2.3960  -0.6795   0.6490   1.1594

          k = 0.3333 0.5745 0.0000 ( 12936 PWs)   bands (ev):

   -63.2203 -37.4801 -37.4369 -37.3246 -14.3247 -14.2635  -7.7958  -6.9812
    -6.4591  -5.9347  -5.2744  -4.5592  -2.3954  -0.6804   0.6487   1.1601

          k = 0.3333 0.5795 0.0000 ( 12940 PWs)   bands (ev):

   -63.2203 -37.4802 -37.4367 -37.3246 -14.3250 -14.2636  -7.7953  -6.9835
    -6.4567  -5.9341  -5.2750  -4.5585  -2.3960  -0.6795   0.6490   1.1594

          k = 0.3333 0.5845 0.0000 ( 12942 PWs)   bands (ev):

   -63.2203 -37.4807 -37.4361 -37.3246 -14.3256 -14.2640  -7.7941  -6.9905
    -6.4498  -5.9323  -5.2768  -4.5564  -2.3980  -0.6771   0.6498   1.1570

          k = 0.3333 0.5896 0.0000 ( 12945 PWs)   bands (ev):

   -63.2203 -37.4816 -37.4350 -37.3246 -14.3268 -14.2646  -7.7920  -7.0016
    -6.4389  -5.9293  -5.2799  -4.5529  -2.4012  -0.6731   0.6513   1.1531

          k = 0.3384 0.5593 0.0000 ( 12947 PWs)   bands (ev):

   -63.2203 -37.4817 -37.4349 -37.3246 -14.3266 -14.2644  -7.7920  -7.0045
    -6.4368  -5.9282  -5.2810  -4.5520  -2.4020  -0.6718   0.6516   1.1533

          k = 0.3384 0.5644 0.0000 ( 12938 PWs)   bands (ev):

   -63.2203 -37.4809 -37.4360 -37.3246 -14.3255 -14.2638  -7.7940  -6.9934
    -6.4472  -5.9316  -5.2780  -4.5553  -2.3988  -0.6757   0.6501   1.1571

          k = 0.3384 0.5694 0.0000 ( 12942 PWs)   bands (ev):

   -63.2203 -37.4803 -37.4366 -37.3246 -14.3249 -14.2634  -7.7953  -6.9865
    -6.4538  -5.9336  -5.2762  -4.5574  -2.3970  -0.6781   0.6492   1.1594

          k = 0.3384 0.5745 0.0000 ( 12938 PWs)   bands (ev):

   -63.2203 -37.4802 -37.4369 -37.3245 -14.3247 -14.2633  -7.7957  -6.9842
    -6.4561  -5.9343  -5.2756  -4.5580  -2.3963  -0.6789   0.6489   1.1601

          k = 0.3384 0.5795 0.0000 ( 12942 PWs)   bands (ev):

   -63.2203 -37.4803 -37.4366 -37.3246 -14.3249 -14.2634  -7.7953  -6.9865
    -6.4538  -5.9336  -5.2762  -4.5574  -2.3970  -0.6781   0.6492   1.1594

          k = 0.3384 0.5845 0.0000 ( 12938 PWs)   bands (ev):

   -63.2203 -37.4809 -37.4360 -37.3246 -14.3255 -14.2638  -7.7940  -6.9934
    -6.4472  -5.9316  -5.2780  -4.5553  -2.3988  -0.6757   0.6501   1.1571

          k = 0.3384 0.5896 0.0000 ( 12947 PWs)   bands (ev):

   -63.2203 -37.4817 -37.4349 -37.3246 -14.3266 -14.2644  -7.7920  -7.0045
    -6.4368  -5.9282  -5.2810  -4.5520  -2.4020  -0.6718   0.6516   1.1533

          k = 0.3434 0.5593 0.0000 ( 12949 PWs)   bands (ev):

   -63.2203 -37.4822 -37.4345 -37.3246 -14.3270 -14.2644  -7.7911  -7.0117
    -6.4304  -5.9258  -5.2832  -4.5496  -2.4042  -0.6688   0.6525   1.1519

          k = 0.3434 0.5644 0.0000 ( 12938 PWs)   bands (ev):

   -63.2203 -37.4813 -37.4355 -37.3246 -14.3259 -14.2639  -7.7931  -7.0008
    -6.4402  -5.9297  -5.2804  -4.5528  -2.4011  -0.6727   0.6509   1.1556

          k = 0.3434 0.5694 0.0000 ( 12942 PWs)   bands (ev):

   -63.2203 -37.4808 -37.4362 -37.3246 -14.3253 -14.2635  -7.7943  -6.9941
    -6.4464  -5.9320  -5.2786  -4.5548  -2.3993  -0.6750   0.6499   1.1578

          k = 0.3434 0.5745 0.0000 ( 12938 PWs)   bands (ev):

   -63.2203 -37.4806 -37.4364 -37.3245 -14.3251 -14.2634  -7.7948  -6.9918
    -6.4485  -5.9328  -5.2780  -4.5554  -2.3987  -0.6758   0.6496   1.1586

          k = 0.3434 0.5795 0.0000 ( 12942 PWs)   bands (ev):

   -63.2203 -37.4808 -37.4362 -37.3246 -14.3253 -14.2635  -7.7943  -6.9941
    -6.4464  -5.9320  -5.2786  -4.5548  -2.3993  -0.6750   0.6499   1.1578

          k = 0.3434 0.5845 0.0000 ( 12938 PWs)   bands (ev):

   -63.2203 -37.4813 -37.4355 -37.3246 -14.3259 -14.2639  -7.7931  -7.0008
    -6.4402  -5.9297  -5.2804  -4.5528  -2.4011  -0.6727   0.6509   1.1556

          k = 0.3434 0.5896 0.0000 ( 12949 PWs)   bands (ev):

   -63.2203 -37.4822 -37.4345 -37.3246 -14.3270 -14.2644  -7.7911  -7.0117
    -6.4304  -5.9258  -5.2832  -4.5496  -2.4042  -0.6688   0.6525   1.1519

          k = 0.3485 0.5593 0.0000 ( 12947 PWs)   bands (ev):

   -63.2203 -37.4829 -37.4336 -37.3246 -14.3278 -14.2647  -7.7894  -7.0226
    -6.4202  -5.9225  -5.2867  -4.5458  -2.4077  -0.6642   0.6539   1.1489

          k = 0.3485 0.5644 0.0000 ( 12945 PWs)   bands (ev):

   -63.2203 -37.4821 -37.4346 -37.3246 -14.3268 -14.2642  -7.7914  -7.0121
    -6.4291  -5.9268  -5.2840  -4.5489  -2.4048  -0.6680   0.6522   1.1525

          k = 0.3485 0.5694 0.0000 ( 12938 PWs)   bands (ev):

   -63.2203 -37.4816 -37.4353 -37.3246 -14.3262 -14.2638  -7.7926  -7.0056
    -6.4347  -5.9294  -5.2823  -4.5508  -2.4031  -0.6703   0.6512   1.1547

          k = 0.3485 0.5745 0.0000 ( 12940 PWs)   bands (ev):

   -63.2203 -37.4814 -37.4355 -37.3246 -14.3260 -14.2637  -7.7930  -7.0034
    -6.4367  -5.9302  -5.2817  -4.5514  -2.4025  -0.6710   0.6508   1.1554

          k = 0.3485 0.5795 0.0000 ( 12938 PWs)   bands (ev):

   -63.2203 -37.4816 -37.4353 -37.3246 -14.3262 -14.2638  -7.7926  -7.0056
    -6.4347  -5.9294  -5.2823  -4.5508  -2.4031  -0.6703   0.6512   1.1547

          k = 0.3485 0.5845 0.0000 ( 12945 PWs)   bands (ev):

   -63.2203 -37.4821 -37.4346 -37.3246 -14.3268 -14.2642  -7.7914  -7.0121
    -6.4291  -5.9268  -5.2840  -4.5489  -2.4048  -0.6680   0.6522   1.1525

          k = 0.3485 0.5896 0.0000 ( 12947 PWs)   bands (ev):

   -63.2203 -37.4829 -37.4336 -37.3246 -14.3278 -14.2647  -7.7894  -7.0226
    -6.4202  -5.9225  -5.2867  -4.5458  -2.4077  -0.6642   0.6539   1.1489

          k = 0.0000 0.0000 0.0000 ( 13133 PWs)   bands (ev):

   -63.2640 -37.4108 -37.1988 -37.1907 -16.4842 -15.1913  -8.0063  -4.9948
    -4.9409  -4.1905  -3.8760  -3.8438  -2.4256   0.3799   0.4075   0.6054

          k = 0.5000 0.2872 0.0000 ( 13036 PWs)   bands (ev):

   -63.2250 -37.5732 -37.3337 -37.2855 -14.5889 -14.4197  -8.1628  -7.1915
    -6.4525  -5.5490  -4.2763  -3.3503  -3.0171  -0.1150   0.3922   1.4796

          k =-0.3333-0.5745 0.0000 ( 12936 PWs)   bands (ev):

   -63.2203 -37.4801 -37.4369 -37.3246 -14.3247 -14.2635  -7.7958  -6.9812
    -6.4591  -5.9347  -5.2744  -4.5592  -2.3954  -0.6804   0.6487   1.1601

          k = 0.0833 0.1436 0.0000 ( 13075 PWs)   bands (ev):

   -63.2565 -37.3962 -37.2694 -37.2110 -16.1834 -15.0662  -7.6771  -5.5800
    -5.0872  -4.6538  -4.4036  -3.3686  -2.6129  -0.0033   0.1189   0.3136

          k = 0.1000 0.1723 0.0000 ( 13064 PWs)   bands (ev):

   -63.2536 -37.3904 -37.2970 -37.2193 -16.0585 -15.0143  -7.5584  -5.7718
    -5.2774  -4.6395  -4.5426  -3.3299  -2.7216  -0.1410   0.0972   0.2108

          k = 0.1167 0.2011 0.0000 ( 13054 PWs)   bands (ev):

   -63.2504 -37.3840 -37.3268 -37.2290 -15.9167 -14.9553  -7.4431  -5.9506
    -5.4562  -4.8998  -4.4333  -3.3190  -2.8526  -0.2573   0.1078   0.1278

          k = 0.1333 0.2298 0.0000 ( 13072 PWs)   bands (ev):

   -63.2470 -37.3772 -37.3574 -37.2402 -15.7610 -14.8904  -7.3494  -6.0949
    -5.6297  -5.1643  -4.3447  -3.3347  -2.9890  -0.3543   0.0801   0.1491

          k = 0.1500 0.2585 0.0000 ( 13067 PWs)   bands (ev):

   -63.2435 -37.3876 -37.3702 -37.2528 -15.5948 -14.8212  -7.2992  -6.1814
    -5.8185  -5.3993  -4.3038  -3.3757  -3.1041  -0.4273   0.0713   0.2166

          k = 0.1667 0.2872 0.0000 ( 13087 PWs)   bands (ev):

   -63.2400 -37.4162 -37.3632 -37.2668 -15.4221 -14.7490  -7.3050  -6.1987
    -6.0486  -5.5665  -4.3374  -3.4408  -3.1705  -0.4627   0.0920   0.3035

          k = 0.1833 0.3160 0.0000 ( 13073 PWs)   bands (ev):

   -63.2365 -37.4422 -37.3564 -37.2821 -15.2472 -14.6756  -7.3541  -6.3135
    -6.1612  -5.6624  -4.4512  -3.5280  -3.1805  -0.4473   0.1279   0.4017

          k = 0.2000 0.3447 0.0000 ( 13057 PWs)   bands (ev):

   -63.2333 -37.4646 -37.3500 -37.2986 -15.0750 -14.6027  -7.4188  -6.5865
    -6.0997  -5.7058  -4.6257  -3.6351  -3.1479  -0.3791   0.1676   0.5017

          k = 0.2167 0.3734 0.0000 ( 13043 PWs)   bands (ev):

   -63.2303 -37.4826 -37.3441 -37.3162 -14.9107 -14.5325  -7.4740  -6.8487
    -6.0405  -5.7094  -4.8365  -3.7587  -3.0861  -0.2784   0.2119   0.5926

          k = 0.2333 0.4021 0.0000 ( 13035 PWs)   bands (ev):

   -63.2277 -37.4956 -37.3388 -37.3348 -14.7596 -14.4669  -7.5029  -7.0892
    -6.0000  -5.6802  -5.0662  -3.8950  -2.9995  -0.2008   0.2913   0.6635

          k = 0.2500 0.4308 0.0000 ( 13011 PWs)   bands (ev):

   -63.2254 -37.5034 -37.3539 -37.3344 -14.6266 -14.4079  -7.4949  -7.3005
    -5.9861  -5.6240  -5.3028  -4.0388  -2.8897  -0.2078   0.4429   0.7064

          k = 0.2667 0.4596 0.0000 ( 13004 PWs)   bands (ev):

   -63.2235 -37.5057 -37.3735 -37.3308 -14.5158 -14.3574  -7.4777  -7.4439
    -6.0044  -5.5467  -5.5327  -4.1842  -2.7620  -0.2938   0.6433   0.7194

          k = 0.2833 0.4883 0.0000 ( 12980 PWs)   bands (ev):

   -63.2221 -37.5030 -37.3931 -37.3280 -14.4301 -14.3169  -7.6172  -7.3484
    -6.0698  -5.7291  -5.4571  -4.3231  -2.6284  -0.4207   0.7081   0.8457

          k = 0.3000 0.5170 0.0000 ( 12955 PWs)   bands (ev):

   -63.2211 -37.4958 -37.4119 -37.3261 -14.3704 -14.2876  -7.7167  -7.2138
    -6.2053  -5.8530  -5.3680  -4.4440  -2.5081  -0.5505   0.6838   1.0138

          k = 0.3167 0.5457 0.0000 ( 12961 PWs)   bands (ev):

   -63.2205 -37.4861 -37.4285 -37.3250 -14.3361 -14.2699  -7.7759  -7.0635
    -6.3722  -5.9132  -5.2992  -4.5294  -2.4242  -0.6466   0.6596   1.1224

          k =-0.1667-0.0000 0.0000 ( 13079 PWs)   bands (ev):

   -63.2564 -37.3960 -37.2653 -37.2166 -16.1807 -15.0636  -7.6749  -5.5583
    -5.0818  -4.6842  -4.4186  -3.3637  -2.6076   0.0131   0.1093   0.2945

          k =-0.2000-0.0000 0.0000 ( 13065 PWs)   bands (ev):

   -63.2534 -37.3901 -37.2938 -37.2246 -16.0548 -15.0106  -7.5556  -5.7562
    -5.2742  -4.6525  -4.5679  -3.3263  -2.7158  -0.1310   0.0803   0.1985

          k =-0.2333 0.0000 0.0000 ( 13065 PWs)   bands (ev):

   -63.2501 -37.3836 -37.3244 -37.2340 -15.9118 -14.9505  -7.4401  -5.9407
    -5.4555  -4.9114  -4.4523  -3.3158  -2.8480  -0.2535   0.0851   0.1233

          k =-0.2667-0.0000 0.0000 ( 13071 PWs)   bands (ev):

   -63.2466 -37.3767 -37.3559 -37.2448 -15.7549 -14.8845  -7.3468  -6.0896
    -5.6319  -5.1749  -4.3556  -3.3312  -2.9883  -0.3555   0.0837   0.1223

          k =-0.3000-0.0000 0.0000 ( 13087 PWs)   bands (ev):

   -63.2431 -37.3869 -37.3696 -37.2571 -15.5875 -14.8140  -7.2985  -6.1792
    -5.8240  -5.4089  -4.3047  -3.3715  -3.1100  -0.4314   0.0824   0.1874

          k =-0.3333 0.0000 0.0000 ( 13075 PWs)   bands (ev):

   -63.2395 -37.4163 -37.3626 -37.2707 -15.4135 -14.7407  -7.3077  -6.1977
    -6.0572  -5.5756  -4.3282  -3.4354  -3.1842  -0.4676   0.1102   0.2736

          k =-0.3667-0.0000 0.0000 ( 13071 PWs)   bands (ev):

   -63.2361 -37.4429 -37.3557 -37.2857 -15.2376 -14.6664  -7.3608  -6.3241
    -6.1605  -5.6720  -4.4348  -3.5215  -3.2003  -0.4518   0.1535   0.3729

          k =-0.4000-0.0000 0.0000 ( 13049 PWs)   bands (ev):

   -63.2328 -37.4657 -37.3493 -37.3019 -15.0646 -14.5929  -7.4291  -6.5982
    -6.0992  -5.7164  -4.6057  -3.6275  -3.1707  -0.3830   0.2008   0.4755

          k =-0.4333 0.0000 0.0000 ( 13053 PWs)   bands (ev):

   -63.2298 -37.4840 -37.3434 -37.3192 -14.8999 -14.5223  -7.4871  -6.8610
    -6.0407  -5.7208  -4.8153  -3.7503  -3.1097  -0.2815   0.2523   0.5704

          k =-0.4667-0.0000 0.0000 ( 13043 PWs)   bands (ev):

   -63.2272 -37.4972 -37.3382 -37.3374 -14.7487 -14.4567  -7.5177  -7.1014
    -6.0012  -5.6924  -5.0455  -3.8859  -3.0223  -0.1998   0.3338   0.6464

          k =-0.5000-0.0000 0.0000 ( 13011 PWs)   bands (ev):

   -63.2249 -37.5049 -37.3563 -37.3337 -14.6163 -14.3981  -7.5103  -7.3122
    -5.9883  -5.6363  -5.2838  -4.0295  -2.9103  -0.1981   0.4799   0.6945

          k =-0.5333 0.0000 0.0000 ( 13003 PWs)   bands (ev):

   -63.2231 -37.5070 -37.3756 -37.3302 -14.5066 -14.3486  -7.4882  -7.4587
    -6.0065  -5.5589  -5.5168  -4.1750  -2.7794  -0.2785   0.6734   0.7121

          k =-0.5667-0.0000 0.0000 ( 12999 PWs)   bands (ev):

   -63.2218 -37.5039 -37.3949 -37.3275 -14.4225 -14.3096  -7.6258  -7.3615
    -6.0694  -5.7189  -5.4683  -4.3145  -2.6418  -0.4048   0.7040   0.8692

          k =-0.6000-0.0000 0.0000 ( 12979 PWs)   bands (ev):

   -63.2209 -37.4961 -37.4136 -37.3257 -14.3650 -14.2823  -7.7229  -7.2242
    -6.2005  -5.8502  -5.3772  -4.4368  -2.5167  -0.5381   0.6817   1.0300

          k =-0.6333 0.0000 0.0000 ( 12934 PWs)   bands (ev):

   -63.2204 -37.4859 -37.4297 -37.3248 -14.3333 -14.2671  -7.7791  -7.0697
    -6.3674  -5.9136  -5.3048  -4.5251  -2.4279  -0.6402   0.6587   1.1304

          k = 0.0833-0.1436 0.0000 ( 13075 PWs)   bands (ev):

   -63.2565 -37.3962 -37.2694 -37.2110 -16.1834 -15.0662  -7.6771  -5.5800
    -5.0872  -4.6538  -4.4036  -3.3686  -2.6129  -0.0033   0.1189   0.3136

          k = 0.1000-0.1723 0.0000 ( 13064 PWs)   bands (ev):

   -63.2536 -37.3904 -37.2970 -37.2193 -16.0585 -15.0143  -7.5584  -5.7718
    -5.2774  -4.6395  -4.5426  -3.3299  -2.7216  -0.1410   0.0972   0.2108

          k = 0.1167-0.2011 0.0000 ( 13054 PWs)   bands (ev):

   -63.2504 -37.3840 -37.3268 -37.2290 -15.9167 -14.9553  -7.4431  -5.9506
    -5.4562  -4.8998  -4.4333  -3.3190  -2.8526  -0.2573   0.1078   0.1278

          k = 0.1333-0.2298 0.0000 ( 13072 PWs)   bands (ev):

   -63.2470 -37.3772 -37.3574 -37.2402 -15.7610 -14.8904  -7.3494  -6.0949
    -5.6297  -5.1643  -4.3447  -3.3347  -2.9890  -0.3543   0.0801   0.1491

          k = 0.1500-0.2585 0.0000 ( 13067 PWs)   bands (ev):

   -63.2435 -37.3876 -37.3702 -37.2528 -15.5948 -14.8212  -7.2992  -6.1814
    -5.8185  -5.3993  -4.3038  -3.3757  -3.1041  -0.4273   0.0713   0.2166

          k = 0.1667-0.2872 0.0000 ( 13087 PWs)   bands (ev):

   -63.2400 -37.4162 -37.3632 -37.2668 -15.4221 -14.7490  -7.3050  -6.1987
    -6.0486  -5.5665  -4.3374  -3.4408  -3.1705  -0.4627   0.0920   0.3035

          k = 0.1833-0.3160 0.0000 ( 13073 PWs)   bands (ev):

   -63.2365 -37.4422 -37.3564 -37.2821 -15.2472 -14.6756  -7.3541  -6.3135
    -6.1612  -5.6624  -4.4512  -3.5280  -3.1805  -0.4473   0.1279   0.4017

          k = 0.2000-0.3447 0.0000 ( 13057 PWs)   bands (ev):

   -63.2333 -37.4646 -37.3500 -37.2986 -15.0750 -14.6027  -7.4188  -6.5865
    -6.0997  -5.7058  -4.6257  -3.6351  -3.1479  -0.3791   0.1676   0.5017

          k = 0.2167-0.3734 0.0000 ( 13043 PWs)   bands (ev):

   -63.2303 -37.4826 -37.3441 -37.3162 -14.9107 -14.5325  -7.4740  -6.8487
    -6.0405  -5.7094  -4.8365  -3.7587  -3.0861  -0.2784   0.2119   0.5926

          k = 0.2333-0.4021 0.0000 ( 13035 PWs)   bands (ev):

   -63.2277 -37.4956 -37.3389 -37.3347 -14.7596 -14.4669  -7.5029  -7.0892
    -6.0000  -5.6802  -5.0662  -3.8950  -2.9995  -0.2008   0.2913   0.6635

          k = 0.2500-0.4308 0.0000 ( 13011 PWs)   bands (ev):

   -63.2254 -37.5034 -37.3539 -37.3344 -14.6266 -14.4079  -7.4949  -7.3005
    -5.9861  -5.6240  -5.3028  -4.0388  -2.8897  -0.2078   0.4429   0.7064

          k = 0.2667-0.4596 0.0000 ( 13004 PWs)   bands (ev):

   -63.2235 -37.5057 -37.3735 -37.3308 -14.5158 -14.3574  -7.4777  -7.4439
    -6.0044  -5.5467  -5.5327  -4.1842  -2.7620  -0.2938   0.6433   0.7194

          k = 0.2833-0.4883 0.0000 ( 12980 PWs)   bands (ev):

   -63.2221 -37.5030 -37.3931 -37.3280 -14.4301 -14.3169  -7.6172  -7.3484
    -6.0698  -5.7291  -5.4571  -4.3231  -2.6284  -0.4207   0.7081   0.8457

          k = 0.3000-0.5170 0.0000 ( 12955 PWs)   bands (ev):

   -63.2211 -37.4958 -37.4119 -37.3261 -14.3704 -14.2876  -7.7167  -7.2138
    -6.2053  -5.8530  -5.3680  -4.4440  -2.5081  -0.5505   0.6838   1.0138

          k = 0.3167-0.5457 0.0000 ( 12961 PWs)   bands (ev):

   -63.2205 -37.4861 -37.4285 -37.3250 -14.3361 -14.2699  -7.7759  -7.0635
    -6.3722  -5.9132  -5.2992  -4.5294  -2.4242  -0.6466   0.6596   1.1224

     Writing all to output data dir ./tmp/mos2.save/ :
     XML data file, pseudopotentials, collected wavefunctions
 
     init_run     :      0.58s CPU      0.85s WALL (       1 calls)
     electrons    :    215.17s CPU    221.13s WALL (       1 calls)

     Called by init_run:
     wfcinit      :      0.00s CPU      0.00s WALL (       1 calls)
     wfcinit:atom :      0.06s CPU      0.07s WALL (      97 calls)
     wfcinit:wfcr :      2.97s CPU      3.03s WALL (      97 calls)
     potinit      :      0.10s CPU      0.12s WALL (       1 calls)
     hinit0       :      0.09s CPU      0.10s WALL (       1 calls)

     Called by electrons:
     c_bands      :    215.17s CPU    221.13s WALL (       1 calls)
     v_of_rho     :      0.08s CPU      0.10s WALL (       1 calls)
     v_h          :      0.01s CPU      0.01s WALL (       1 calls)
     v_xc         :      0.08s CPU      0.09s WALL (       1 calls)
     newd         :      0.33s CPU      0.54s WALL (       1 calls)

     Called by c_bands:
     init_us_2    :      0.15s CPU      0.17s WALL (      97 calls)
     ccgdiagg     :    211.74s CPU    217.36s WALL (     100 calls)
     wfcrot       :      3.04s CPU      3.11s WALL (     100 calls)

     Called by sum_band:

     Called by *cgdiagg:
     h_psi        :    145.59s CPU    149.28s WALL (   53619 calls)
     s_psi        :     20.78s CPU     21.51s WALL (  107138 calls)

     Called by h_psi:
     h_psi:calbec :     42.06s CPU     43.10s WALL (   53619 calls)
     vloc_psi     :     80.07s CPU     82.22s WALL (   53619 calls)
                                        0.00s GPU  (   53619 calls)
     add_vuspsi   :     21.99s CPU     22.49s WALL (   53619 calls)
     hs_1psi      :    155.82s CPU    159.76s WALL (   53519 calls)
     s_1psi       :     23.35s CPU     24.12s WALL (   53519 calls)

     General routines
     calbec       :     55.07s CPU     56.55s WALL (  107138 calls)
     fft          :      0.05s CPU      0.05s WALL (      13 calls)
     ffts         :      0.00s CPU      0.00s WALL (       1 calls)
     fftw         :     56.08s CPU     57.55s WALL (  110626 calls)
     interpolate  :      0.01s CPU      0.01s WALL (       1 calls)
     davcio       :      0.04s CPU      0.25s WALL (     194 calls)
 
     Parallel routines
 
     PWSCF        :   3m36.06s CPU   3m42.55s WALL

 
   This run was terminated on:   0:30:53  23Sep2026            

=------------------------------------------------------------------------------=
   JOB DONE.
=------------------------------------------------------------------------------=
