
     Program PWSCF v.7.5 starts on 23Sep2026 at  0:27:19 

     This program is part of the open-source Quantum ESPRESSO suite
     for quantum simulation of materials; please cite
         "P. Giannozzi et al., J. Phys.:Condens. Matter 21 395502 (2009);
         "P. Giannozzi et al., J. Phys.:Condens. Matter 29 465901 (2017);
         "P. Giannozzi et al., J. Chem. Phys. 152 154105 (2020);
          URL http://www.quantum-espresso.org", 
     in publications or presentations arising from this work. More details at
     http://www.quantum-espresso.org/quote

     Parallel version (MPI), running on     8 processors

     MPI processes distributed on     1 nodes
     2955 MiB available memory on the printing compute node when the environment starts
 
     Reading input from mos2.bands.in

     Current dimensions of program PWSCF are:
     Max number of different atomic species (ntypx) = 10
     Max number of k-points (npk) =  40000
     Max angular momentum in pseudopotentials (lmaxx) =  4
     file Mo.pbe-spn-rrkjus_psl.1.0.0.UPF: wavefunction(s)  4S renormalized

     Atomic positions and unit cell read from directory:
     ./tmp/mos2.save/
 
 
     R & G space division:  proc/nbgrp/npool/nimage =       8
     Subspace diagonalization in iterative solution of the eigenvalue problem:
     a serial algorithm will be used

 
     Parallelization info
     --------------------
     sticks:   dense  smooth     PW     G-vecs:    dense   smooth      PW
     Min         148      74     22                36990    13092    2118
     Max         149      75     25                37025    13121    2127
     Sum        1189     595    187               296075   104801   16985
 
     Using Slab Decomposition
 


     bravais-lattice index     =            0
     lattice parameter (alat)  =       6.0145  a.u.
     unit-cell volume          =    1668.8655 (a.u.)^3
     number of atoms/cell      =            3
     number of atomic types    =            2
     number of electrons       =        26.00
     number of Kohn-Sham states=           16
     kinetic-energy cutoff     =      60.0000  Ry
     charge density cutoff     =     480.0000  Ry
     Exchange-correlation= PBE
                           (   1   4   3   4   0   0   0)

     celldm(1)=   6.014484  celldm(2)=   0.000000  celldm(3)=   0.000000
     celldm(4)=   0.000000  celldm(5)=   0.000000  celldm(6)=   0.000000

     crystal axes: (cart. coord. in units of alat)
               a(1) = (   1.000000   0.000000   0.000000 )  
               a(2) = (  -0.500000   0.866025   0.000000 )  
               a(3) = (   0.000000   0.000000   8.857182 )  

     reciprocal axes: (cart. coord. in units 2 pi/alat)
               b(1) = (  1.000000  0.577350  0.000000 )  
               b(2) = (  0.000000  1.154701  0.000000 )  
               b(3) = (  0.000000  0.000000  0.112903 )  


     PseudoPot. # 1 for Mo read from file:
     ../../pseudo/Mo.pbe-spn-rrkjus_psl.1.0.0.UPF
     MD5 check sum: 03f09b12e49601d1a456a78ce8b2d514
     Pseudo is Ultrasoft + core correction, Zval = 14.0
     Generated using &quot;atomic&quot; code by A. Dal Corso  v.6.3
     Using radial grid of 1229 points,  6 beta functions with: 
                l(1) =   0
                l(2) =   0
                l(3) =   1
                l(4) =   1
                l(5) =   2
                l(6) =   2
     Q(r) pseudized with 0 coefficients 


     PseudoPot. # 2 for S  read from file:
     ../../pseudo/S.pbe-n-rrkjus_psl.1.0.0.UPF
     MD5 check sum: 9d0fe39aa2a799ea84730884c9b010f4
     Pseudo is Ultrasoft + core correction, Zval =  6.0
     Generated using &quot;atomic&quot; code by A. Dal Corso  v.6.3
     Using radial grid of 1151 points,  6 beta functions with: 
                l(1) =   0
                l(2) =   0
                l(3) =   1
                l(4) =   1
                l(5) =   2
                l(6) =   2
     Q(r) pseudized with 0 coefficients 


     atomic species   valence    mass     pseudopotential
     Mo               14.00    95.95000     Mo( 1.00)
     S                 6.00    32.06000     S ( 1.00)

     No symmetry found


                                    s                        frac. trans.

      isym =  1     identity                                     

 cryst.   s( 1) = (     1          0          0      )
                  (     0          1          0      )
                  (     0          0          1      )

 cart.    s( 1) = (  1.0000000  0.0000000  0.0000000 )
                  (  0.0000000  1.0000000  0.0000000 )
                  (  0.0000000  0.0000000  1.0000000 )


   Cartesian axes

     site n.     atom                  positions (alat units)
         1        Mo     tau(   1) = (   0.0000000   0.0000000   4.4285909  )
         2        S      tau(   2) = (   0.5000000   0.2886751   4.9202777  )
         3        S      tau(   3) = (   0.5000000   0.2886751   3.9369041  )

   Crystallographic axes

     site n.     atom                  positions (cryst. coord.)
         1        Mo     tau(   1) = (  0.0000000  0.0000000  0.5000000  )
         2        S      tau(   2) = (  0.6666667  0.3333333  0.5555128  )
         3        S      tau(   3) = (  0.6666667  0.3333333  0.4444872  )

     number of k points=    97
                       cart. coord. in units 2pi/alat
        k(    1) = (   0.3181369   0.5621539   0.0000000), wk =   0.0206186
        k(    2) = (   0.3181369   0.5672193   0.0000000), wk =   0.0206186
        k(    3) = (   0.3181369   0.5722848   0.0000000), wk =   0.0206186
        k(    4) = (   0.3181369   0.5773503   0.0000000), wk =   0.0206186
        k(    5) = (   0.3181369   0.5824157   0.0000000), wk =   0.0206186
        k(    6) = (   0.3181369   0.5874812   0.0000000), wk =   0.0206186
        k(    7) = (   0.3181369   0.5925467   0.0000000), wk =   0.0206186
        k(    8) = (   0.3232024   0.5621539   0.0000000), wk =   0.0206186
        k(    9) = (   0.3232024   0.5672193   0.0000000), wk =   0.0206186
        k(   10) = (   0.3232024   0.5722848   0.0000000), wk =   0.0206186
        k(   11) = (   0.3232024   0.5773503   0.0000000), wk =   0.0206186
        k(   12) = (   0.3232024   0.5824157   0.0000000), wk =   0.0206186
        k(   13) = (   0.3232024   0.5874812   0.0000000), wk =   0.0206186
        k(   14) = (   0.3232024   0.5925467   0.0000000), wk =   0.0206186
        k(   15) = (   0.3282679   0.5621539   0.0000000), wk =   0.0206186
        k(   16) = (   0.3282679   0.5672193   0.0000000), wk =   0.0206186
        k(   17) = (   0.3282679   0.5722848   0.0000000), wk =   0.0206186
        k(   18) = (   0.3282679   0.5773503   0.0000000), wk =   0.0206186
        k(   19) = (   0.3282679   0.5824157   0.0000000), wk =   0.0206186
        k(   20) = (   0.3282679   0.5874812   0.0000000), wk =   0.0206186
        k(   21) = (   0.3282679   0.5925467   0.0000000), wk =   0.0206186
        k(   22) = (   0.3333333   0.5621539   0.0000000), wk =   0.0206186
        k(   23) = (   0.3333333   0.5672193   0.0000000), wk =   0.0206186
        k(   24) = (   0.3333333   0.5722848   0.0000000), wk =   0.0206186
        k(   25) = (   0.3333333   0.5773503   0.0000000), wk =   0.0206186
        k(   26) = (   0.3333333   0.5824157   0.0000000), wk =   0.0206186
        k(   27) = (   0.3333333   0.5874812   0.0000000), wk =   0.0206186
        k(   28) = (   0.3333333   0.5925467   0.0000000), wk =   0.0206186
        k(   29) = (   0.3383988   0.5621539   0.0000000), wk =   0.0206186
        k(   30) = (   0.3383988   0.5672193   0.0000000), wk =   0.0206186
        k(   31) = (   0.3383988   0.5722848   0.0000000), wk =   0.0206186
        k(   32) = (   0.3383988   0.5773503   0.0000000), wk =   0.0206186
        k(   33) = (   0.3383988   0.5824157   0.0000000), wk =   0.0206186
        k(   34) = (   0.3383988   0.5874812   0.0000000), wk =   0.0206186
        k(   35) = (   0.3383988   0.5925467   0.0000000), wk =   0.0206186
        k(   36) = (   0.3434643   0.5621539   0.0000000), wk =   0.0206186
        k(   37) = (   0.3434643   0.5672193   0.0000000), wk =   0.0206186
        k(   38) = (   0.3434643   0.5722848   0.0000000), wk =   0.0206186
        k(   39) = (   0.3434643   0.5773503   0.0000000), wk =   0.0206186
        k(   40) = (   0.3434643   0.5824157   0.0000000), wk =   0.0206186
        k(   41) = (   0.3434643   0.5874812   0.0000000), wk =   0.0206186
        k(   42) = (   0.3434643   0.5925467   0.0000000), wk =   0.0206186
        k(   43) = (   0.3485297   0.5621539   0.0000000), wk =   0.0206186
        k(   44) = (   0.3485297   0.5672193   0.0000000), wk =   0.0206186
        k(   45) = (   0.3485297   0.5722848   0.0000000), wk =   0.0206186
        k(   46) = (   0.3485297   0.5773503   0.0000000), wk =   0.0206186
        k(   47) = (   0.3485297   0.5824157   0.0000000), wk =   0.0206186
        k(   48) = (   0.3485297   0.5874812   0.0000000), wk =   0.0206186
        k(   49) = (   0.3485297   0.5925467   0.0000000), wk =   0.0206186
        k(   50) = (   0.0000000   0.0000000   0.0000000), wk =   0.0206186
        k(   51) = (   0.5000000   0.2886751   0.0000000), wk =   0.0206186
        k(   52) = (  -0.3333333  -0.5773503   0.0000000), wk =   0.0206186
        k(   53) = (   0.0833333   0.1443376   0.0000000), wk =   0.0206186
        k(   54) = (   0.1000000   0.1732051   0.0000000), wk =   0.0206186
        k(   55) = (   0.1166667   0.2020726   0.0000000), wk =   0.0206186
        k(   56) = (   0.1333333   0.2309401   0.0000000), wk =   0.0206186
        k(   57) = (   0.1500000   0.2598076   0.0000000), wk =   0.0206186
        k(   58) = (   0.1666667   0.2886751   0.0000000), wk =   0.0206186
        k(   59) = (   0.1833333   0.3175426   0.0000000), wk =   0.0206186
        k(   60) = (   0.2000000   0.3464102   0.0000000), wk =   0.0206186
        k(   61) = (   0.2166667   0.3752777   0.0000000), wk =   0.0206186
        k(   62) = (   0.2333333   0.4041452   0.0000000), wk =   0.0206186
        k(   63) = (   0.2500000   0.4330127   0.0000000), wk =   0.0206186
        k(   64) = (   0.2666667   0.4618802   0.0000000), wk =   0.0206186
        k(   65) = (   0.2833333   0.4907477   0.0000000), wk =   0.0206186
        k(   66) = (   0.3000000   0.5196152   0.0000000), wk =   0.0206186
        k(   67) = (   0.3166667   0.5484828   0.0000000), wk =   0.0206186
        k(   68) = (  -0.1666667  -0.0000000   0.0000000), wk =   0.0206186
        k(   69) = (  -0.2000000  -0.0000000   0.0000000), wk =   0.0206186
        k(   70) = (  -0.2333333   0.0000000   0.0000000), wk =   0.0206186
        k(   71) = (  -0.2666667  -0.0000000   0.0000000), wk =   0.0206186
        k(   72) = (  -0.3000000  -0.0000000   0.0000000), wk =   0.0206186
        k(   73) = (  -0.3333333   0.0000000   0.0000000), wk =   0.0206186
        k(   74) = (  -0.3666667  -0.0000000   0.0000000), wk =   0.0206186
        k(   75) = (  -0.4000000  -0.0000000   0.0000000), wk =   0.0206186
        k(   76) = (  -0.4333333   0.0000000   0.0000000), wk =   0.0206186
        k(   77) = (  -0.4666667  -0.0000000   0.0000000), wk =   0.0206186
        k(   78) = (  -0.5000000  -0.0000000   0.0000000), wk =   0.0206186
        k(   79) = (  -0.5333333   0.0000000   0.0000000), wk =   0.0206186
        k(   80) = (  -0.5666667  -0.0000000   0.0000000), wk =   0.0206186
        k(   81) = (  -0.6000000  -0.0000000   0.0000000), wk =   0.0206186
        k(   82) = (  -0.6333333   0.0000000   0.0000000), wk =   0.0206186
        k(   83) = (   0.0833333  -0.1443376   0.0000000), wk =   0.0206186
        k(   84) = (   0.1000000  -0.1732051   0.0000000), wk =   0.0206186
        k(   85) = (   0.1166667  -0.2020726   0.0000000), wk =   0.0206186
        k(   86) = (   0.1333333  -0.2309401   0.0000000), wk =   0.0206186
        k(   87) = (   0.1500000  -0.2598076   0.0000000), wk =   0.0206186
        k(   88) = (   0.1666667  -0.2886751   0.0000000), wk =   0.0206186
        k(   89) = (   0.1833333  -0.3175426   0.0000000), wk =   0.0206186
        k(   90) = (   0.2000000  -0.3464102   0.0000000), wk =   0.0206186
        k(   91) = (   0.2166667  -0.3752777   0.0000000), wk =   0.0206186
        k(   92) = (   0.2333333  -0.4041452   0.0000000), wk =   0.0206186
        k(   93) = (   0.2500000  -0.4330127   0.0000000), wk =   0.0206186
        k(   94) = (   0.2666667  -0.4618802   0.0000000), wk =   0.0206186
        k(   95) = (   0.2833333  -0.4907477   0.0000000), wk =   0.0206186
        k(   96) = (   0.3000000  -0.5196152   0.0000000), wk =   0.0206186
        k(   97) = (   0.3166667  -0.5484828   0.0000000), wk =   0.0206186

                       cryst. coord.
        k(    1) = (   0.3181369   0.3277711   0.0000000), wk =   0.0206186
        k(    2) = (   0.3181369   0.3321579   0.0000000), wk =   0.0206186
        k(    3) = (   0.3181369   0.3365447   0.0000000), wk =   0.0206186
        k(    4) = (   0.3181369   0.3409315   0.0000000), wk =   0.0206186
        k(    5) = (   0.3181369   0.3453184   0.0000000), wk =   0.0206186
        k(    6) = (   0.3181369   0.3497052   0.0000000), wk =   0.0206186
        k(    7) = (   0.3181369   0.3540920   0.0000000), wk =   0.0206186
        k(    8) = (   0.3232024   0.3252383   0.0000000), wk =   0.0206186
        k(    9) = (   0.3232024   0.3296252   0.0000000), wk =   0.0206186
        k(   10) = (   0.3232024   0.3340120   0.0000000), wk =   0.0206186
        k(   11) = (   0.3232024   0.3383988   0.0000000), wk =   0.0206186
        k(   12) = (   0.3232024   0.3427856   0.0000000), wk =   0.0206186
        k(   13) = (   0.3232024   0.3471725   0.0000000), wk =   0.0206186
        k(   14) = (   0.3232024   0.3515593   0.0000000), wk =   0.0206186
        k(   15) = (   0.3282679   0.3227056   0.0000000), wk =   0.0206186
        k(   16) = (   0.3282679   0.3270924   0.0000000), wk =   0.0206186
        k(   17) = (   0.3282679   0.3314792   0.0000000), wk =   0.0206186
        k(   18) = (   0.3282679   0.3358661   0.0000000), wk =   0.0206186
        k(   19) = (   0.3282679   0.3402529   0.0000000), wk =   0.0206186
        k(   20) = (   0.3282679   0.3446397   0.0000000), wk =   0.0206186
        k(   21) = (   0.3282679   0.3490265   0.0000000), wk =   0.0206186
        k(   22) = (   0.3333333   0.3201729   0.0000000), wk =   0.0206186
        k(   23) = (   0.3333333   0.3245597   0.0000000), wk =   0.0206186
        k(   24) = (   0.3333333   0.3289465   0.0000000), wk =   0.0206186
        k(   25) = (   0.3333333   0.3333333   0.0000000), wk =   0.0206186
        k(   26) = (   0.3333333   0.3377202   0.0000000), wk =   0.0206186
        k(   27) = (   0.3333333   0.3421070   0.0000000), wk =   0.0206186
        k(   28) = (   0.3333333   0.3464938   0.0000000), wk =   0.0206186
        k(   29) = (   0.3383988   0.3176401   0.0000000), wk =   0.0206186
        k(   30) = (   0.3383988   0.3220269   0.0000000), wk =   0.0206186
        k(   31) = (   0.3383988   0.3264138   0.0000000), wk =   0.0206186
        k(   32) = (   0.3383988   0.3308006   0.0000000), wk =   0.0206186
        k(   33) = (   0.3383988   0.3351874   0.0000000), wk =   0.0206186
        k(   34) = (   0.3383988   0.3395742   0.0000000), wk =   0.0206186
        k(   35) = (   0.3383988   0.3439611   0.0000000), wk =   0.0206186
        k(   36) = (   0.3434643   0.3151074   0.0000000), wk =   0.0206186
        k(   37) = (   0.3434643   0.3194942   0.0000000), wk =   0.0206186
        k(   38) = (   0.3434643   0.3238810   0.0000000), wk =   0.0206186
        k(   39) = (   0.3434643   0.3282679   0.0000000), wk =   0.0206186
        k(   40) = (   0.3434643   0.3326547   0.0000000), wk =   0.0206186
        k(   41) = (   0.3434643   0.3370415   0.0000000), wk =   0.0206186
        k(   42) = (   0.3434643   0.3414283   0.0000000), wk =   0.0206186
        k(   43) = (   0.3485297   0.3125747   0.0000000), wk =   0.0206186
        k(   44) = (   0.3485297   0.3169615   0.0000000), wk =   0.0206186
        k(   45) = (   0.3485297   0.3213483   0.0000000), wk =   0.0206186
        k(   46) = (   0.3485297   0.3257351   0.0000000), wk =   0.0206186
        k(   47) = (   0.3485297   0.3301220   0.0000000), wk =   0.0206186
        k(   48) = (   0.3485297   0.3345088   0.0000000), wk =   0.0206186
        k(   49) = (   0.3485297   0.3388956   0.0000000), wk =   0.0206186
        k(   50) = (   0.0000000   0.0000000   0.0000000), wk =   0.0206186
        k(   51) = (   0.5000000   0.0000000   0.0000000), wk =   0.0206186
        k(   52) = (  -0.3333333  -0.3333333   0.0000000), wk =   0.0206186
        k(   53) = (   0.0833333   0.0833333   0.0000000), wk =   0.0206186
        k(   54) = (   0.1000000   0.1000000   0.0000000), wk =   0.0206186
        k(   55) = (   0.1166667   0.1166667   0.0000000), wk =   0.0206186
        k(   56) = (   0.1333333   0.1333333   0.0000000), wk =   0.0206186
        k(   57) = (   0.1500000   0.1500000   0.0000000), wk =   0.0206186
        k(   58) = (   0.1666667   0.1666667   0.0000000), wk =   0.0206186
        k(   59) = (   0.1833333   0.1833333   0.0000000), wk =   0.0206186
        k(   60) = (   0.2000000   0.2000000   0.0000000), wk =   0.0206186
        k(   61) = (   0.2166667   0.2166667   0.0000000), wk =   0.0206186
        k(   62) = (   0.2333333   0.2333333   0.0000000), wk =   0.0206186
        k(   63) = (   0.2500000   0.2500000   0.0000000), wk =   0.0206186
        k(   64) = (   0.2666667   0.2666667   0.0000000), wk =   0.0206186
        k(   65) = (   0.2833333   0.2833333   0.0000000), wk =   0.0206186
        k(   66) = (   0.3000000   0.3000000   0.0000000), wk =   0.0206186
        k(   67) = (   0.3166667   0.3166667   0.0000000), wk =   0.0206186
        k(   68) = (  -0.1666667   0.0833333   0.0000000), wk =   0.0206186
        k(   69) = (  -0.2000000   0.1000000   0.0000000), wk =   0.0206186
        k(   70) = (  -0.2333333   0.1166667   0.0000000), wk =   0.0206186
        k(   71) = (  -0.2666667   0.1333333   0.0000000), wk =   0.0206186
        k(   72) = (  -0.3000000   0.1500000   0.0000000), wk =   0.0206186
        k(   73) = (  -0.3333333   0.1666667   0.0000000), wk =   0.0206186
        k(   74) = (  -0.3666667   0.1833333   0.0000000), wk =   0.0206186
        k(   75) = (  -0.4000000   0.2000000   0.0000000), wk =   0.0206186
        k(   76) = (  -0.4333333   0.2166667   0.0000000), wk =   0.0206186
        k(   77) = (  -0.4666667   0.2333333   0.0000000), wk =   0.0206186
        k(   78) = (  -0.5000000   0.2500000   0.0000000), wk =   0.0206186
        k(   79) = (  -0.5333333   0.2666667   0.0000000), wk =   0.0206186
        k(   80) = (  -0.5666667   0.2833333   0.0000000), wk =   0.0206186
        k(   81) = (  -0.6000000   0.3000000   0.0000000), wk =   0.0206186
        k(   82) = (  -0.6333333   0.3166667   0.0000000), wk =   0.0206186
        k(   83) = (   0.0833333  -0.1666667   0.0000000), wk =   0.0206186
        k(   84) = (   0.1000000  -0.2000000   0.0000000), wk =   0.0206186
        k(   85) = (   0.1166667  -0.2333333   0.0000000), wk =   0.0206186
        k(   86) = (   0.1333333  -0.2666667   0.0000000), wk =   0.0206186
        k(   87) = (   0.1500000  -0.3000000   0.0000000), wk =   0.0206186
        k(   88) = (   0.1666667  -0.3333333   0.0000000), wk =   0.0206186
        k(   89) = (   0.1833333  -0.3666667   0.0000000), wk =   0.0206186
        k(   90) = (   0.2000000  -0.4000000   0.0000000), wk =   0.0206186
        k(   91) = (   0.2166667  -0.4333333   0.0000000), wk =   0.0206186
        k(   92) = (   0.2333333  -0.4666667   0.0000000), wk =   0.0206186
        k(   93) = (   0.2500000  -0.5000000   0.0000000), wk =   0.0206186
        k(   94) = (   0.2666667  -0.5333333   0.0000000), wk =   0.0206186
        k(   95) = (   0.2833333  -0.5666667   0.0000000), wk =   0.0206186
        k(   96) = (   0.3000000  -0.6000000   0.0000000), wk =   0.0206186
        k(   97) = (   0.3166667  -0.6333333   0.0000000), wk =   0.0206186

     Dense  grid:   296075 G-vectors     FFT dimensions: (  45,  45, 375)

     Smooth grid:   104801 G-vectors     FFT dimensions: (  30,  30, 270)

     Dynamical RAM for                 wfc:       0.40 MB

     Dynamical RAM for     wfc (w. buffer):       0.40 MB

     Dynamical RAM for           str. fact:       1.13 MB

     Dynamical RAM for           local pot:       0.00 MB

     Dynamical RAM for          nlocal pot:       1.35 MB

     Dynamical RAM for                qrad:       3.52 MB

     Dynamical RAM for          rho,v,vnew:       3.87 MB

     Dynamical RAM for           G-vectors:       2.22 MB

     Dynamical RAM for          h,s,v(r/c):       0.01 MB

     Dynamical RAM for          <psi|beta>:       0.01 MB

     Dynamical RAM for      wfcinit/wfcrot:       0.81 MB

     Dynamical RAM for           addusdens:     106.21 MB

     Estimated static dynamical RAM per process >      17.81 MB

     Estimated max dynamical RAM per process >     124.02 MB

     Estimated total dynamical RAM >     992.18 MB

     The potential is recalculated from file :
     ./tmp/mos2.save/charge-density


     negative rho (up, down):  4.783E-04 0.000E+00
     Starting wfcs are   18 randomized atomic wfcs

     Band Structure Calculation
     CG style diagonalization

     Computing kpt #:     1  of    97
     total cpu time spent up to now is        3.8 secs

     Computing kpt #:     2  of    97
     total cpu time spent up to now is        6.0 secs

     Computing kpt #:     3  of    97
     total cpu time spent up to now is        8.5 secs

     Computing kpt #:     4  of    97
     total cpu time spent up to now is       11.0 secs

     Computing kpt #:     5  of    97
     total cpu time spent up to now is       13.6 secs

     Computing kpt #:     6  of    97
     total cpu time spent up to now is       15.8 secs

     Computing kpt #:     7  of    97
     total cpu time spent up to now is       18.3 secs

     Computing kpt #:     8  of    97
     total cpu time spent up to now is       20.4 secs

     Computing kpt #:     9  of    97
     total cpu time spent up to now is       22.7 secs

     Computing kpt #:    10  of    97
     total cpu time spent up to now is       25.1 secs

     Computing kpt #:    11  of    97
     total cpu time spent up to now is       27.3 secs

     Computing kpt #:    12  of    97
     total cpu time spent up to now is       29.4 secs

     Computing kpt #:    13  of    97
     total cpu time spent up to now is       31.8 secs

     Computing kpt #:    14  of    97
     total cpu time spent up to now is       34.0 secs

     Computing kpt #:    15  of    97
     total cpu time spent up to now is       36.3 secs

     Computing kpt #:    16  of    97
     total cpu time spent up to now is       38.5 secs

     Computing kpt #:    17  of    97
     total cpu time spent up to now is       41.0 secs

     Computing kpt #:    18  of    97
     total cpu time spent up to now is       43.7 secs

     Computing kpt #:    19  of    97
     total cpu time spent up to now is       46.3 secs

     Computing kpt #:    20  of    97
     total cpu time spent up to now is       48.3 secs

     Computing kpt #:    21  of    97
     total cpu time spent up to now is       50.7 secs

     Computing kpt #:    22  of    97
     total cpu time spent up to now is       53.2 secs

     Computing kpt #:    23  of    97
     total cpu time spent up to now is       55.6 secs

     Computing kpt #:    24  of    97
     total cpu time spent up to now is       57.8 secs

     Computing kpt #:    25  of    97
     total cpu time spent up to now is       60.4 secs

     Computing kpt #:    26  of    97
     total cpu time spent up to now is       62.5 secs

     Computing kpt #:    27  of    97
     total cpu time spent up to now is       64.9 secs

     Computing kpt #:    28  of    97
     total cpu time spent up to now is       67.5 secs

     Computing kpt #:    29  of    97
     total cpu time spent up to now is       70.2 secs

     Computing kpt #:    30  of    97
     total cpu time spent up to now is       72.9 secs

     Computing kpt #:    31  of    97
     total cpu time spent up to now is       75.3 secs

     Computing kpt #:    32  of    97
     total cpu time spent up to now is       77.3 secs

     Computing kpt #:    33  of    97
     total cpu time spent up to now is       80.1 secs

     Computing kpt #:    34  of    97
     total cpu time spent up to now is       82.8 secs

     Computing kpt #:    35  of    97
     total cpu time spent up to now is       85.2 secs

     Computing kpt #:    36  of    97
     total cpu time spent up to now is       87.3 secs

     Computing kpt #:    37  of    97
     total cpu time spent up to now is       89.8 secs

     Computing kpt #:    38  of    97
     total cpu time spent up to now is       91.6 secs

     Computing kpt #:    39  of    97
     total cpu time spent up to now is       93.8 secs

     Computing kpt #:    40  of    97
     total cpu time spent up to now is       96.1 secs

     Computing kpt #:    41  of    97
     total cpu time spent up to now is       98.3 secs

     Computing kpt #:    42  of    97
     total cpu time spent up to now is      100.8 secs

     Computing kpt #:    43  of    97
     total cpu time spent up to now is      103.3 secs

     Computing kpt #:    44  of    97
     total cpu time spent up to now is      105.6 secs

     Computing kpt #:    45  of    97
     total cpu time spent up to now is      108.3 secs

     Computing kpt #:    46  of    97
     total cpu time spent up to now is      110.8 secs

     Computing kpt #:    47  of    97
     total cpu time spent up to now is      113.4 secs

     Computing kpt #:    48  of    97
     total cpu time spent up to now is      116.1 secs

     Computing kpt #:    49  of    97
     total cpu time spent up to now is      118.5 secs

     Computing kpt #:    50  of    97
     total cpu time spent up to now is      120.7 secs

     Computing kpt #:    51  of    97
     total cpu time spent up to now is      122.8 secs

     Computing kpt #:    52  of    97
     total cpu time spent up to now is      125.3 secs

     Computing kpt #:    53  of    97
     total cpu time spent up to now is      128.1 secs

     Computing kpt #:    54  of    97
     total cpu time spent up to now is      131.1 secs

     Computing kpt #:    55  of    97
     total cpu time spent up to now is      134.2 secs

     Computing kpt #:    56  of    97
     total cpu time spent up to now is      136.4 secs

     Computing kpt #:    57  of    97
     total cpu time spent up to now is      138.3 secs

     Computing kpt #:    58  of    97
     total cpu time spent up to now is      140.8 secs

     Computing kpt #:    59  of    97
     total cpu time spent up to now is      143.1 secs

     Computing kpt #:    60  of    97
     total cpu time spent up to now is      145.3 secs

     Computing kpt #:    61  of    97
     total cpu time spent up to now is      147.2 secs

     Computing kpt #:    62  of    97
     total cpu time spent up to now is      149.3 secs

     Computing kpt #:    63  of    97
     total cpu time spent up to now is      151.4 secs

     Computing kpt #:    64  of    97
     total cpu time spent up to now is      153.9 secs

     Computing kpt #:    65  of    97
     total cpu time spent up to now is      156.6 secs

     Computing kpt #:    66  of    97
     total cpu time spent up to now is      159.1 secs

     Computing kpt #:    67  of    97
     total cpu time spent up to now is      161.3 secs

     Computing kpt #:    68  of    97
     total cpu time spent up to now is      164.2 secs

     Computing kpt #:    69  of    97
     total cpu time spent up to now is      167.3 secs

     Computing kpt #:    70  of    97
     total cpu time spent up to now is      170.4 secs

     Computing kpt #:    71  of    97
     total cpu time spent up to now is      173.1 secs

     Computing kpt #:    72  of    97
     total cpu time spent up to now is      175.5 secs

     Computing kpt #:    73  of    97
     total cpu time spent up to now is      177.9 secs

     Computing kpt #:    74  of    97
     total cpu time spent up to now is      180.1 secs

     Computing kpt #:    75  of    97
     total cpu time spent up to now is      182.3 secs

     Computing kpt #:    76  of    97
     total cpu time spent up to now is      184.7 secs

     Computing kpt #:    77  of    97
     total cpu time spent up to now is      187.0 secs

     Computing kpt #:    78  of    97
     total cpu time spent up to now is      189.5 secs

     Computing kpt #:    79  of    97
     total cpu time spent up to now is      191.8 secs

     Computing kpt #:    80  of    97
     total cpu time spent up to now is      194.1 secs

     Computing kpt #:    81  of    97
     total cpu time spent up to now is      195.8 secs

     Computing kpt #:    82  of    97
     total cpu time spent up to now is      197.8 secs

     Computing kpt #:    83  of    97
     total cpu time spent up to now is      200.8 secs

     Computing kpt #:    84  of    97
     total cpu time spent up to now is      204.0 secs

     Computing kpt #:    85  of    97
     total cpu time spent up to now is      207.1 secs

     Computing kpt #:    86  of    97
     total cpu time spent up to now is      209.6 secs

     Computing kpt #:    87  of    97
     total cpu time spent up to now is      212.0 secs

     Computing kpt #:    88  of    97
     total cpu time spent up to now is      214.2 secs

     Computing kpt #:    89  of    97
     total cpu time spent up to now is      215.0 secs

     Computing kpt #:    90  of    97
     total cpu time spent up to now is      215.8 secs

     Computing kpt #:    91  of    97
     total cpu time spent up to now is      216.5 secs

     Computing kpt #:    92  of    97
     total cpu time spent up to now is      217.2 secs

     Computing kpt #:    93  of    97
     total cpu time spent up to now is      217.9 secs

     Computing kpt #:    94  of    97
     total cpu time spent up to now is      218.9 secs

     Computing kpt #:    95  of    97
     total cpu time spent up to now is      219.8 secs

     Computing kpt #:    96  of    97
     total cpu time spent up to now is      220.6 secs

     Computing kpt #:    97  of    97
     total cpu time spent up to now is      221.4 secs

     ethr =  1.00E-10,  avg # of iterations = 34.1

     total cpu time spent up to now is      221.4 secs

     End of band structure calculation

          k = 0.3181 0.5622 0.0000 ( 13006 PWs)   bands (ev):

   -63.2529 -37.5114 -37.4626 -37.3529 -14.3609 -14.2835  -7.7899  -7.0244
    -6.4281  -5.9469  -5.2926  -4.5504  -2.4362  -0.7219   0.6439   1.1053

          k = 0.3181 0.5672 0.0000 ( 13004 PWs)   bands (ev):

   -63.2529 -37.5107 -37.4635 -37.3529 -14.3597 -14.2829  -7.7921  -7.0144
    -6.4389  -5.9490  -5.2895  -4.5541  -2.4326  -0.7262   0.6428   1.1095

          k = 0.3181 0.5723 0.0000 ( 12998 PWs)   bands (ev):

   -63.2529 -37.5103 -37.4640 -37.3529 -14.3590 -14.2825  -7.7934  -7.0082
    -6.4457  -5.9502  -5.2875  -4.5564  -2.4304  -0.7288   0.6421   1.1120

          k = 0.3181 0.5774 0.0000 ( 13000 PWs)   bands (ev):

   -63.2529 -37.5102 -37.4642 -37.3529 -14.3588 -14.2824  -7.7938  -7.0060
    -6.4480  -5.9506  -5.2869  -4.5571  -2.4297  -0.7296   0.6419   1.1129

          k = 0.3181 0.5824 0.0000 ( 12998 PWs)   bands (ev):

   -63.2529 -37.5103 -37.4640 -37.3529 -14.3590 -14.2825  -7.7934  -7.0082
    -6.4457  -5.9502  -5.2875  -4.5564  -2.4304  -0.7288   0.6421   1.1120

          k = 0.3181 0.5875 0.0000 ( 13004 PWs)   bands (ev):

   -63.2529 -37.5107 -37.4635 -37.3529 -14.3597 -14.2829  -7.7921  -7.0144
    -6.4389  -5.9490  -5.2895  -4.5541  -2.4326  -0.7262   0.6428   1.1095

          k = 0.3181 0.5925 0.0000 ( 13006 PWs)   bands (ev):

   -63.2529 -37.5114 -37.4626 -37.3529 -14.3609 -14.2835  -7.7899  -7.0244
    -6.4281  -5.9469  -5.2926  -4.5504  -2.4362  -0.7219   0.6439   1.1053

          k = 0.3232 0.5622 0.0000 ( 12992 PWs)   bands (ev):

   -63.2529 -37.5107 -37.4635 -37.3529 -14.3598 -14.2829  -7.7920  -7.0142
    -6.4381  -5.9500  -5.2896  -4.5539  -2.4329  -0.7260   0.6426   1.1093

          k = 0.3232 0.5672 0.0000 ( 12985 PWs)   bands (ev):

   -63.2528 -37.5099 -37.4645 -37.3529 -14.3586 -14.2823  -7.7942  -7.0035
    -6.4492  -5.9524  -5.2865  -4.5575  -2.4293  -0.7303   0.6414   1.1134

          k = 0.3232 0.5723 0.0000 ( 12992 PWs)   bands (ev):

   -63.2528 -37.5095 -37.4651 -37.3528 -14.3579 -14.2820  -7.7954  -6.9969
    -6.4561  -5.9539  -5.2846  -4.5597  -2.4272  -0.7329   0.6407   1.1158

          k = 0.3232 0.5774 0.0000 ( 12996 PWs)   bands (ev):

   -63.2529 -37.5093 -37.4653 -37.3528 -14.3577 -14.2818  -7.7959  -6.9947
    -6.4585  -5.9543  -5.2839  -4.5604  -2.4265  -0.7337   0.6404   1.1167

          k = 0.3232 0.5824 0.0000 ( 12992 PWs)   bands (ev):

   -63.2528 -37.5095 -37.4651 -37.3528 -14.3579 -14.2820  -7.7954  -6.9969
    -6.4561  -5.9539  -5.2846  -4.5597  -2.4272  -0.7329   0.6407   1.1158

          k = 0.3232 0.5875 0.0000 ( 12985 PWs)   bands (ev):

   -63.2528 -37.5099 -37.4645 -37.3529 -14.3586 -14.2823  -7.7942  -7.0035
    -6.4492  -5.9524  -5.2865  -4.5575  -2.4293  -0.7303   0.6414   1.1134

          k = 0.3232 0.5925 0.0000 ( 12992 PWs)   bands (ev):

   -63.2529 -37.5107 -37.4635 -37.3529 -14.3598 -14.2829  -7.7920  -7.0142
    -6.4381  -5.9500  -5.2896  -4.5539  -2.4329  -0.7260   0.6426   1.1093

          k = 0.3283 0.5622 0.0000 ( 12985 PWs)   bands (ev):

   -63.2529 -37.5102 -37.4641 -37.3529 -14.3591 -14.2826  -7.7933  -7.0079
    -6.4447  -5.9514  -5.2877  -4.5561  -2.4307  -0.7286   0.6419   1.1117

          k = 0.3283 0.5672 0.0000 ( 12982 PWs)   bands (ev):

   -63.2528 -37.5094 -37.4651 -37.3528 -14.3580 -14.2820  -7.7954  -6.9968
    -6.4559  -5.9542  -5.2846  -4.5596  -2.4273  -0.7328   0.6406   1.1158

          k = 0.3283 0.5723 0.0000 ( 12988 PWs)   bands (ev):

   -63.2528 -37.5090 -37.4657 -37.3528 -14.3573 -14.2816  -7.7967  -6.9899
    -6.4628  -5.9558  -5.2828  -4.5618  -2.4252  -0.7354   0.6398   1.1182

          k = 0.3283 0.5774 0.0000 ( 12996 PWs)   bands (ev):

   -63.2528 -37.5088 -37.4659 -37.3528 -14.3571 -14.2815  -7.7971  -6.9876
    -6.4652  -5.9564  -5.2821  -4.5625  -2.4245  -0.7362   0.6395   1.1190

          k = 0.3283 0.5824 0.0000 ( 12988 PWs)   bands (ev):

   -63.2528 -37.5090 -37.4657 -37.3528 -14.3573 -14.2816  -7.7967  -6.9899
    -6.4628  -5.9558  -5.2828  -4.5618  -2.4252  -0.7354   0.6398   1.1182

          k = 0.3283 0.5875 0.0000 ( 12982 PWs)   bands (ev):

   -63.2528 -37.5094 -37.4651 -37.3528 -14.3580 -14.2820  -7.7954  -6.9968
    -6.4559  -5.9542  -5.2846  -4.5596  -2.4273  -0.7328   0.6406   1.1158

          k = 0.3283 0.5925 0.0000 ( 12985 PWs)   bands (ev):

   -63.2529 -37.5102 -37.4641 -37.3529 -14.3591 -14.2826  -7.7933  -7.0079
    -6.4447  -5.9514  -5.2877  -4.5561  -2.4307  -0.7286   0.6419   1.1117

          k = 0.3333 0.5622 0.0000 ( 12996 PWs)   bands (ev):

   -63.2529 -37.5101 -37.4643 -37.3529 -14.3588 -14.2824  -7.7938  -7.0058
    -6.4474  -5.9513  -5.2870  -4.5569  -2.4299  -0.7295   0.6417   1.1127

          k = 0.3333 0.5672 0.0000 ( 12993 PWs)   bands (ev):

   -63.2528 -37.5093 -37.4653 -37.3528 -14.3577 -14.2818  -7.7959  -6.9946
    -6.4583  -5.9545  -5.2840  -4.5604  -2.4265  -0.7337   0.6404   1.1166

          k = 0.3333 0.5723 0.0000 ( 12994 PWs)   bands (ev):

   -63.2528 -37.5088 -37.4659 -37.3528 -14.3571 -14.2815  -7.7971  -6.9876
    -6.4652  -5.9564  -5.2821  -4.5625  -2.4245  -0.7362   0.6395   1.1190

          k = 0.3333 0.5774 0.0000 ( 12990 PWs)   bands (ev):

   -63.2528 -37.5086 -37.4662 -37.3528 -14.3568 -14.2814  -7.7975  -6.9852
    -6.4675  -5.9570  -5.2815  -4.5632  -2.4238  -0.7370   0.6393   1.1197

          k = 0.3333 0.5824 0.0000 ( 12994 PWs)   bands (ev):

   -63.2528 -37.5088 -37.4659 -37.3528 -14.3571 -14.2815  -7.7971  -6.9876
    -6.4652  -5.9564  -5.2821  -4.5625  -2.4245  -0.7362   0.6395   1.1190

          k = 0.3333 0.5875 0.0000 ( 12993 PWs)   bands (ev):

   -63.2528 -37.5093 -37.4653 -37.3528 -14.3577 -14.2818  -7.7959  -6.9946
    -6.4583  -5.9545  -5.2840  -4.5604  -2.4265  -0.7337   0.6404   1.1166

          k = 0.3333 0.5925 0.0000 ( 12996 PWs)   bands (ev):

   -63.2529 -37.5101 -37.4643 -37.3529 -14.3588 -14.2824  -7.7938  -7.0058
    -6.4474  -5.9513  -5.2870  -4.5569  -2.4299  -0.7295   0.6417   1.1127

          k = 0.3384 0.5622 0.0000 ( 13004 PWs)   bands (ev):

   -63.2529 -37.5103 -37.4640 -37.3529 -14.3590 -14.2825  -7.7934  -7.0082
    -6.4459  -5.9500  -5.2875  -4.5564  -2.4304  -0.7288   0.6422   1.1121

          k = 0.3384 0.5672 0.0000 ( 12996 PWs)   bands (ev):

   -63.2529 -37.5095 -37.4651 -37.3528 -14.3579 -14.2819  -7.7955  -6.9970
    -6.4563  -5.9536  -5.2845  -4.5598  -2.4271  -0.7329   0.6407   1.1159

          k = 0.3384 0.5723 0.0000 ( 12996 PWs)   bands (ev):

   -63.2528 -37.5090 -37.4657 -37.3528 -14.3573 -14.2816  -7.7967  -6.9900
    -6.4629  -5.9557  -5.2827  -4.5618  -2.4252  -0.7354   0.6398   1.1182

          k = 0.3384 0.5774 0.0000 ( 12998 PWs)   bands (ev):

   -63.2528 -37.5088 -37.4659 -37.3528 -14.3571 -14.2815  -7.7971  -6.9876
    -6.4652  -5.9564  -5.2821  -4.5625  -2.4245  -0.7362   0.6395   1.1190

          k = 0.3384 0.5824 0.0000 ( 12996 PWs)   bands (ev):

   -63.2528 -37.5090 -37.4657 -37.3528 -14.3573 -14.2816  -7.7967  -6.9900
    -6.4629  -5.9557  -5.2827  -4.5618  -2.4252  -0.7354   0.6398   1.1182

          k = 0.3384 0.5875 0.0000 ( 12996 PWs)   bands (ev):

   -63.2529 -37.5095 -37.4651 -37.3528 -14.3579 -14.2819  -7.7955  -6.9970
    -6.4563  -5.9536  -5.2845  -4.5598  -2.4271  -0.7329   0.6407   1.1159

          k = 0.3384 0.5925 0.0000 ( 13004 PWs)   bands (ev):

   -63.2529 -37.5103 -37.4640 -37.3529 -14.3590 -14.2825  -7.7934  -7.0082
    -6.4459  -5.9500  -5.2875  -4.5564  -2.4304  -0.7288   0.6422   1.1121

          k = 0.3435 0.5622 0.0000 ( 13014 PWs)   bands (ev):

   -63.2529 -37.5108 -37.4634 -37.3529 -14.3596 -14.2829  -7.7922  -7.0148
    -6.4401  -5.9475  -5.2892  -4.5545  -2.4323  -0.7264   0.6431   1.1099

          k = 0.3435 0.5672 0.0000 ( 13000 PWs)   bands (ev):

   -63.2529 -37.5100 -37.4645 -37.3529 -14.3586 -14.2823  -7.7942  -7.0038
    -6.4499  -5.9516  -5.2863  -4.5577  -2.4291  -0.7304   0.6416   1.1136

          k = 0.3435 0.5723 0.0000 ( 12995 PWs)   bands (ev):

   -63.2529 -37.5095 -37.4651 -37.3528 -14.3579 -14.2820  -7.7954  -6.9969
    -6.4560  -5.9540  -5.2846  -4.5597  -2.4272  -0.7328   0.6406   1.1158

          k = 0.3435 0.5774 0.0000 ( 12982 PWs)   bands (ev):

   -63.2528 -37.5093 -37.4653 -37.3528 -14.3577 -14.2818  -7.7958  -6.9946
    -6.4581  -5.9548  -5.2840  -4.5603  -2.4266  -0.7337   0.6403   1.1166

          k = 0.3435 0.5824 0.0000 ( 12995 PWs)   bands (ev):

   -63.2529 -37.5095 -37.4651 -37.3528 -14.3579 -14.2820  -7.7954  -6.9969
    -6.4560  -5.9540  -5.2846  -4.5597  -2.4272  -0.7328   0.6406   1.1158

          k = 0.3435 0.5875 0.0000 ( 13000 PWs)   bands (ev):

   -63.2529 -37.5100 -37.4645 -37.3529 -14.3586 -14.2823  -7.7942  -7.0038
    -6.4499  -5.9516  -5.2863  -4.5577  -2.4291  -0.7304   0.6416   1.1136

          k = 0.3435 0.5925 0.0000 ( 13014 PWs)   bands (ev):

   -63.2529 -37.5108 -37.4634 -37.3529 -14.3596 -14.2829  -7.7922  -7.0148
    -6.4401  -5.9475  -5.2892  -4.5545  -2.4323  -0.7264   0.6431   1.1099

          k = 0.3485 0.5622 0.0000 ( 13016 PWs)   bands (ev):

   -63.2529 -37.5116 -37.4624 -37.3529 -14.3607 -14.2834  -7.7901  -7.0252
    -6.4304  -5.9439  -5.2921  -4.5512  -2.4355  -0.7223   0.6445   1.1060

          k = 0.3485 0.5672 0.0000 ( 13006 PWs)   bands (ev):

   -63.2529 -37.5108 -37.4635 -37.3529 -14.3597 -14.2829  -7.7921  -7.0145
    -6.4393  -5.9485  -5.2894  -4.5543  -2.4325  -0.7263   0.6429   1.1096

          k = 0.3485 0.5723 0.0000 ( 12996 PWs)   bands (ev):

   -63.2529 -37.5102 -37.4641 -37.3529 -14.3591 -14.2826  -7.7933  -7.0079
    -6.4449  -5.9512  -5.2877  -4.5561  -2.4307  -0.7286   0.6419   1.1118

          k = 0.3485 0.5774 0.0000 ( 12984 PWs)   bands (ev):

   -63.2529 -37.5101 -37.4643 -37.3529 -14.3589 -14.2824  -7.7937  -7.0057
    -6.4468  -5.9521  -5.2871  -4.5567  -2.4301  -0.7294   0.6416   1.1125

          k = 0.3485 0.5824 0.0000 ( 12996 PWs)   bands (ev):

   -63.2529 -37.5102 -37.4641 -37.3529 -14.3591 -14.2826  -7.7933  -7.0079
    -6.4449  -5.9512  -5.2877  -4.5561  -2.4307  -0.7286   0.6419   1.1118

          k = 0.3485 0.5875 0.0000 ( 13006 PWs)   bands (ev):

   -63.2529 -37.5108 -37.4635 -37.3529 -14.3597 -14.2829  -7.7921  -7.0145
    -6.4393  -5.9485  -5.2894  -4.5543  -2.4325  -0.7263   0.6429   1.1096

          k = 0.3485 0.5925 0.0000 ( 13016 PWs)   bands (ev):

   -63.2529 -37.5116 -37.4624 -37.3529 -14.3607 -14.2834  -7.7901  -7.0252
    -6.4304  -5.9439  -5.2921  -4.5512  -2.4355  -0.7223   0.6445   1.1060

          k = 0.0000 0.0000 0.0000 ( 13229 PWs)   bands (ev):

   -63.2952 -37.4368 -37.2301 -37.2301 -16.4869 -15.1903  -8.0094  -5.0068
    -5.0068  -4.1856  -3.9024  -3.9024  -2.4215   0.3506   0.3506   0.5912

          k = 0.5000 0.2887 0.0000 ( 13092 PWs)   bands (ev):

   -63.2577 -37.5996 -37.3621 -37.3158 -14.6221 -14.4407  -8.1654  -7.1846
    -6.4656  -5.5598  -4.2833  -3.3796  -3.0432  -0.1682   0.3398   1.4530

          k =-0.3333-0.5774 0.0000 ( 12990 PWs)   bands (ev):

   -63.2528 -37.5086 -37.4662 -37.3528 -14.3568 -14.2814  -7.7975  -6.9852
    -6.4675  -5.9570  -5.2815  -4.5632  -2.4238  -0.7370   0.6393   1.1197

          k = 0.0833 0.1443 0.0000 ( 13163 PWs)   bands (ev):

   -63.2879 -37.4225 -37.3014 -37.2480 -16.1884 -15.0666  -7.6831  -5.6053
    -5.0962  -4.7059  -4.4445  -3.3883  -2.6147  -0.0202   0.0762   0.2724

          k = 0.1000 0.1732 0.0000 ( 13155 PWs)   bands (ev):

   -63.2851 -37.4168 -37.3287 -37.2559 -16.0645 -15.0153  -7.5656  -5.7971
    -5.2867  -4.6766  -4.5937  -3.3492  -2.7258  -0.1569   0.0527   0.1729

          k = 0.1167 0.2021 0.0000 ( 13159 PWs)   bands (ev):

   -63.2820 -37.4106 -37.3581 -37.2652 -15.9239 -14.9570  -7.4517  -5.9757
    -5.4659  -4.9328  -4.4826  -3.3377  -2.8596  -0.2732   0.0620   0.0932

          k = 0.1333 0.2309 0.0000 ( 13155 PWs)   bands (ev):

   -63.2786 -37.4039 -37.3882 -37.2760 -15.7697 -14.8930  -7.3596  -6.1194
    -5.6408  -5.1923  -4.3906  -3.3525  -2.9999  -0.3709   0.0484   0.1026

          k = 0.1500 0.2598 0.0000 ( 13133 PWs)   bands (ev):

   -63.2752 -37.4179 -37.3971 -37.2882 -15.6051 -14.8247  -7.3112  -6.2051
    -5.8324  -5.4209  -4.3437  -3.3925  -3.1207  -0.4445   0.0408   0.1699

          k = 0.1667 0.2887 0.0000 ( 13151 PWs)   bands (ev):

   -63.2718 -37.4461 -37.3902 -37.3017 -15.4342 -14.7536  -7.3186  -6.2215
    -6.0654  -5.5820  -4.3689  -3.4562  -3.1943  -0.4802   0.0607   0.2575

          k = 0.1833 0.3175 0.0000 ( 13139 PWs)   bands (ev):

   -63.2684 -37.4717 -37.3836 -37.3165 -15.2613 -14.6814  -7.3686  -6.3307
    -6.1836  -5.6745  -4.4745  -3.5419  -3.2107  -0.4649   0.0941   0.3574

          k = 0.2000 0.3464 0.0000 ( 13121 PWs)   bands (ev):

   -63.2653 -37.4937 -37.3773 -37.3326 -15.0913 -14.6098  -7.4332  -6.6025
    -6.1220  -5.7163  -4.6428  -3.6473  -3.1818  -0.3970   0.1298   0.4601

          k = 0.2167 0.3753 0.0000 ( 13107 PWs)   bands (ev):

   -63.2624 -37.5114 -37.3716 -37.3496 -14.9293 -14.5410  -7.4878  -6.8628
    -6.0630  -5.7192  -4.8496  -3.7691  -3.1215  -0.2973   0.1700   0.5551

          k = 0.2333 0.4041 0.0000 ( 13097 PWs)   bands (ev):

   -63.2598 -37.5241 -37.3676 -37.3665 -14.7806 -14.4768  -7.5157  -7.1012
    -6.0226  -5.6899  -5.0770  -3.9035  -3.0351  -0.2244   0.2487   0.6313

          k = 0.2500 0.4330 0.0000 ( 13077 PWs)   bands (ev):

   -63.2577 -37.5317 -37.3862 -37.3622 -14.6500 -14.4192  -7.5064  -7.3105
    -6.0083  -5.6336  -5.3125  -4.0456  -2.9249  -0.2402   0.4037   0.6803

          k = 0.2667 0.4619 0.0000 ( 13081 PWs)   bands (ev):

   -63.2559 -37.5340 -37.4051 -37.3587 -14.5415 -14.3702  -7.4857  -7.4540
    -6.0250  -5.5564  -5.5429  -4.1894  -2.7964  -0.3340   0.6067   0.6991

          k = 0.2833 0.4907 0.0000 ( 13037 PWs)   bands (ev):

   -63.2545 -37.5311 -37.4241 -37.3560 -14.4578 -14.3311  -7.6233  -7.3571
    -6.0860  -5.7429  -5.4669  -4.3269  -2.6617  -0.4665   0.6926   0.8099

          k = 0.3000 0.5196 0.0000 ( 13034 PWs)   bands (ev):

   -63.2536 -37.5240 -37.4424 -37.3542 -14.3999 -14.3032  -7.7212  -7.2213
    -6.2154  -5.8726  -5.3776  -4.4469  -2.5398  -0.6008   0.6715   0.9773

          k = 0.3167 0.5485 0.0000 ( 13020 PWs)   bands (ev):

   -63.2530 -37.5144 -37.4584 -37.3531 -14.3670 -14.2867  -7.7789  -7.0696
    -6.3797  -5.9353  -5.3081  -4.5323  -2.4540  -0.7006   0.6494   1.0843

          k =-0.1667-0.0000 0.0000 ( 13163 PWs)   bands (ev):

   -63.2879 -37.4225 -37.3014 -37.2480 -16.1884 -15.0666  -7.6831  -5.6053
    -5.0962  -4.7059  -4.4445  -3.3883  -2.6147  -0.0202   0.0762   0.2724

          k =-0.2000-0.0000 0.0000 ( 13155 PWs)   bands (ev):

   -63.2851 -37.4168 -37.3287 -37.2559 -16.0645 -15.0153  -7.5656  -5.7971
    -5.2867  -4.6766  -4.5937  -3.3492  -2.7258  -0.1569   0.0527   0.1729

          k =-0.2333 0.0000 0.0000 ( 13159 PWs)   bands (ev):

   -63.2820 -37.4106 -37.3581 -37.2652 -15.9239 -14.9570  -7.4517  -5.9757
    -5.4659  -4.9328  -4.4826  -3.3377  -2.8596  -0.2732   0.0620   0.0932

          k =-0.2667-0.0000 0.0000 ( 13155 PWs)   bands (ev):

   -63.2786 -37.4039 -37.3882 -37.2760 -15.7697 -14.8930  -7.3596  -6.1194
    -5.6408  -5.1923  -4.3906  -3.3525  -2.9999  -0.3709   0.0484   0.1026

          k =-0.3000-0.0000 0.0000 ( 13133 PWs)   bands (ev):

   -63.2752 -37.4179 -37.3971 -37.2882 -15.6051 -14.8247  -7.3112  -6.2051
    -5.8324  -5.4209  -4.3437  -3.3925  -3.1207  -0.4445   0.0408   0.1699

          k =-0.3333 0.0000 0.0000 ( 13151 PWs)   bands (ev):

   -63.2718 -37.4461 -37.3902 -37.3017 -15.4342 -14.7536  -7.3186  -6.2215
    -6.0654  -5.5820  -4.3689  -3.4562  -3.1943  -0.4802   0.0607   0.2575

          k =-0.3667-0.0000 0.0000 ( 13139 PWs)   bands (ev):

   -63.2684 -37.4717 -37.3836 -37.3165 -15.2613 -14.6814  -7.3686  -6.3307
    -6.1836  -5.6745  -4.4745  -3.5419  -3.2107  -0.4649   0.0941   0.3574

          k =-0.4000-0.0000 0.0000 ( 13121 PWs)   bands (ev):

   -63.2653 -37.4937 -37.3773 -37.3326 -15.0913 -14.6098  -7.4332  -6.6025
    -6.1220  -5.7163  -4.6428  -3.6473  -3.1818  -0.3970   0.1298   0.4601

          k =-0.4333 0.0000 0.0000 ( 13107 PWs)   bands (ev):

   -63.2624 -37.5114 -37.3716 -37.3496 -14.9293 -14.5410  -7.4878  -6.8628
    -6.0630  -5.7192  -4.8496  -3.7691  -3.1215  -0.2973   0.1700   0.5551

          k =-0.4667-0.0000 0.0000 ( 13097 PWs)   bands (ev):

   -63.2598 -37.5241 -37.3676 -37.3665 -14.7806 -14.4768  -7.5157  -7.1012
    -6.0226  -5.6899  -5.0770  -3.9035  -3.0351  -0.2244   0.2487   0.6313

          k =-0.5000-0.0000 0.0000 ( 13077 PWs)   bands (ev):

   -63.2577 -37.5317 -37.3862 -37.3622 -14.6500 -14.4192  -7.5064  -7.3105
    -6.0083  -5.6336  -5.3125  -4.0456  -2.9249  -0.2402   0.4037   0.6803

          k =-0.5333 0.0000 0.0000 ( 13081 PWs)   bands (ev):

   -63.2559 -37.5340 -37.4051 -37.3587 -14.5415 -14.3702  -7.4857  -7.4540
    -6.0250  -5.5564  -5.5429  -4.1894  -2.7964  -0.3340   0.6067   0.6991

          k =-0.5667-0.0000 0.0000 ( 13037 PWs)   bands (ev):

   -63.2545 -37.5311 -37.4241 -37.3560 -14.4578 -14.3311  -7.6233  -7.3571
    -6.0860  -5.7429  -5.4669  -4.3269  -2.6617  -0.4665   0.6926   0.8099

          k =-0.6000-0.0000 0.0000 ( 13034 PWs)   bands (ev):

   -63.2536 -37.5240 -37.4424 -37.3542 -14.3999 -14.3032  -7.7212  -7.2213
    -6.2154  -5.8726  -5.3776  -4.4469  -2.5398  -0.6008   0.6715   0.9773

          k =-0.6333 0.0000 0.0000 ( 13020 PWs)   bands (ev):

   -63.2530 -37.5144 -37.4584 -37.3531 -14.3670 -14.2867  -7.7789  -7.0696
    -6.3797  -5.9353  -5.3081  -4.5323  -2.4540  -0.7006   0.6494   1.0843

          k = 0.0833-0.1443 0.0000 ( 13163 PWs)   bands (ev):

   -63.2879 -37.4225 -37.3014 -37.2480 -16.1884 -15.0666  -7.6831  -5.6053
    -5.0962  -4.7059  -4.4445  -3.3883  -2.6147  -0.0202   0.0762   0.2724

          k = 0.1000-0.1732 0.0000 ( 13155 PWs)   bands (ev):

   -63.2851 -37.4168 -37.3287 -37.2559 -16.0645 -15.0153  -7.5656  -5.7971
    -5.2867  -4.6766  -4.5937  -3.3492  -2.7258  -0.1569   0.0527   0.1729

          k = 0.1167-0.2021 0.0000 ( 13159 PWs)   bands (ev):

   -63.2820 -37.4106 -37.3581 -37.2652 -15.9239 -14.9570  -7.4517  -5.9757
    -5.4659  -4.9328  -4.4826  -3.3377  -2.8596  -0.2732   0.0620   0.0932

          k = 0.1333-0.2309 0.0000 ( 13155 PWs)   bands (ev):

   -63.2786 -37.4039 -37.3882 -37.2760 -15.7697 -14.8930  -7.3596  -6.1194
    -5.6408  -5.1923  -4.3906  -3.3525  -2.9999  -0.3709   0.0484   0.1026

          k = 0.1500-0.2598 0.0000 ( 13133 PWs)   bands (ev):

   -63.2752 -37.4179 -37.3971 -37.2882 -15.6051 -14.8247  -7.3112  -6.2051
    -5.8324  -5.4209  -4.3437  -3.3925  -3.1207  -0.4445   0.0408   0.1699

          k = 0.1667-0.2887 0.0000 ( 13151 PWs)   bands (ev):

   -63.2718 -37.4461 -37.3902 -37.3017 -15.4342 -14.7536  -7.3186  -6.2215
    -6.0654  -5.5820  -4.3689  -3.4562  -3.1943  -0.4802   0.0607   0.2575

          k = 0.1833-0.3175 0.0000 ( 13139 PWs)   bands (ev):

   -63.2684 -37.4717 -37.3836 -37.3165 -15.2613 -14.6814  -7.3686  -6.3307
    -6.1836  -5.6745  -4.4745  -3.5419  -3.2107  -0.4649   0.0941   0.3574

          k = 0.2000-0.3464 0.0000 ( 13121 PWs)   bands (ev):

   -63.2653 -37.4937 -37.3773 -37.3326 -15.0913 -14.6098  -7.4332  -6.6025
    -6.1220  -5.7163  -4.6428  -3.6473  -3.1818  -0.3970   0.1298   0.4601

          k = 0.2167-0.3753 0.0000 ( 13107 PWs)   bands (ev):

   -63.2624 -37.5114 -37.3716 -37.3496 -14.9293 -14.5410  -7.4878  -6.8628
    -6.0630  -5.7192  -4.8496  -3.7691  -3.1215  -0.2973   0.1700   0.5551

          k = 0.2333-0.4041 0.0000 ( 13097 PWs)   bands (ev):

   -63.2598 -37.5241 -37.3676 -37.3665 -14.7806 -14.4768  -7.5157  -7.1012
    -6.0226  -5.6899  -5.0770  -3.9035  -3.0351  -0.2244   0.2487   0.6313

          k = 0.2500-0.4330 0.0000 ( 13077 PWs)   bands (ev):

   -63.2577 -37.5317 -37.3862 -37.3622 -14.6500 -14.4192  -7.5064  -7.3105
    -6.0083  -5.6336  -5.3125  -4.0456  -2.9249  -0.2402   0.4037   0.6803

          k = 0.2667-0.4619 0.0000 ( 13081 PWs)   bands (ev):

   -63.2559 -37.5340 -37.4051 -37.3587 -14.5415 -14.3702  -7.4857  -7.4540
    -6.0250  -5.5564  -5.5429  -4.1894  -2.7964  -0.3340   0.6067   0.6991

          k = 0.2833-0.4907 0.0000 ( 13037 PWs)   bands (ev):

   -63.2545 -37.5311 -37.4241 -37.3560 -14.4578 -14.3311  -7.6233  -7.3571
    -6.0860  -5.7429  -5.4669  -4.3269  -2.6617  -0.4665   0.6926   0.8099

          k = 0.3000-0.5196 0.0000 ( 13034 PWs)   bands (ev):

   -63.2536 -37.5240 -37.4424 -37.3542 -14.3999 -14.3032  -7.7212  -7.2213
    -6.2154  -5.8726  -5.3776  -4.4469  -2.5398  -0.6008   0.6715   0.9773

          k = 0.3167-0.5485 0.0000 ( 13020 PWs)   bands (ev):

   -63.2530 -37.5144 -37.4584 -37.3531 -14.3670 -14.2867  -7.7789  -7.0696
    -6.3797  -5.9353  -5.3081  -4.5323  -2.4540  -0.7006   0.6494   1.0843

     Writing all to output data dir ./tmp/mos2.save/ :
     XML data file, pseudopotentials, collected wavefunctions
 
     init_run     :      0.97s CPU      1.44s WALL (       1 calls)
     electrons    :    213.72s CPU    219.83s WALL (       1 calls)

     Called by init_run:
     wfcinit      :      0.00s CPU      0.00s WALL (       1 calls)
     wfcinit:atom :      0.06s CPU      0.07s WALL (      97 calls)
     wfcinit:wfcr :      3.19s CPU      3.25s WALL (      97 calls)
     potinit      :      0.18s CPU      0.22s WALL (       1 calls)
     hinit0       :      0.12s CPU      0.14s WALL (       1 calls)

     Called by electrons:
     c_bands      :    213.72s CPU    219.83s WALL (       1 calls)
     v_of_rho     :      0.15s CPU      0.18s WALL (       1 calls)
     v_h          :      0.01s CPU      0.02s WALL (       1 calls)
     v_xc         :      0.14s CPU      0.16s WALL (       1 calls)
     newd         :      0.56s CPU      0.95s WALL (       1 calls)

     Called by c_bands:
     init_us_2    :      0.17s CPU      0.19s WALL (      97 calls)
     ccgdiagg     :    210.09s CPU    215.90s WALL (     100 calls)
     wfcrot       :      3.28s CPU      3.33s WALL (     100 calls)

     Called by sum_band:

     Called by *cgdiagg:
     h_psi        :    145.46s CPU    149.43s WALL (   53000 calls)
     s_psi        :     20.26s CPU     20.85s WALL (  105900 calls)

     Called by h_psi:
     h_psi:calbec :     41.28s CPU     42.42s WALL (   53000 calls)
     vloc_psi     :     80.94s CPU     83.28s WALL (   53000 calls)
                                        0.00s GPU  (   53000 calls)
     add_vuspsi   :     21.82s CPU     22.30s WALL (   53000 calls)
     hs_1psi      :    155.15s CPU    159.34s WALL (   52900 calls)
     s_1psi       :     22.70s CPU     23.41s WALL (   52900 calls)

     General routines
     calbec       :     53.93s CPU     55.49s WALL (  105900 calls)
     fft          :      0.10s CPU      0.12s WALL (      13 calls)
     ffts         :      0.00s CPU      0.00s WALL (       1 calls)
     fftw         :     56.51s CPU     58.10s WALL (  109388 calls)
     interpolate  :      0.01s CPU      0.01s WALL (       1 calls)
     davcio       :      0.04s CPU      0.17s WALL (     194 calls)
 
     Parallel routines
 
     PWSCF        :   3m34.94s CPU   3m41.71s WALL

 
   This run was terminated on:   0:31: 0  23Sep2026            

=------------------------------------------------------------------------------=
   JOB DONE.
=------------------------------------------------------------------------------=
