
     Program PWSCF v.7.5 starts on 23Sep2026 at  0:12:53 

     This program is part of the open-source Quantum ESPRESSO suite
     for quantum simulation of materials; please cite
         "P. Giannozzi et al., J. Phys.:Condens. Matter 21 395502 (2009);
         "P. Giannozzi et al., J. Phys.:Condens. Matter 29 465901 (2017);
         "P. Giannozzi et al., J. Chem. Phys. 152 154105 (2020);
          URL http://www.quantum-espresso.org", 
     in publications or presentations arising from this work. More details at
     http://www.quantum-espresso.org/quote

     Parallel version (MPI), running on     8 processors

     MPI processes distributed on     1 nodes
     5621 MiB available memory on the printing compute node when the environment starts

     Reading input from relax.in

     Current dimensions of program PWSCF are:
     Max number of different atomic species (ntypx) = 10
     Max number of k-points (npk) =  40000
     Max angular momentum in pseudopotentials (lmaxx) =  4
     Message from routine setup:
     using ibrav=0 with symmetry is DISCOURAGED, use correct ibrav instead

     R & G space division:  proc/nbgrp/npool/nimage =       8
     Subspace diagonalization in iterative solution of the eigenvalue problem:
     a serial algorithm will be used


     Parallelization info
     --------------------
     sticks:   dense  smooth     PW     G-vecs:    dense   smooth      PW
     Min         160      60     18                37328     8555    1478
     Max         161      64     19                37363     8570    1505
     Sum        1285     499    151               298799    68499   11969

     Using Slab Decomposition



     bravais-lattice index     =            0
     lattice parameter (alat)  =       5.4022  a.u.
     unit-cell volume          =    1092.1863 (a.u.)^3
     number of atoms/cell      =            3
     number of atomic types    =            1
     number of electrons       =         9.00
     number of Kohn-Sham states=           10
     kinetic-energy cutoff     =      60.0000  Ry
     charge density cutoff     =     640.0000  Ry
     scf convergence threshold =      1.0E-09
     mixing beta               =       0.7000
     number of iterations used =            8  plain     mixing
     energy convergence thresh.=      1.0E-05
     force convergence thresh. =      2.0E-04
     Exchange-correlation= PBE
                           (   1   4   3   4   0   0   0)
     nstep                     =           35


     celldm(1)=   5.402158  celldm(2)=   0.000000  celldm(3)=   0.000000
     celldm(4)=   0.000000  celldm(5)=   0.000000  celldm(6)=   0.000000

     crystal axes: (cart. coord. in units of alat)
               a(1) = (   1.000000   0.000000   0.000000 )  
               a(2) = (   0.500000   0.866025   0.000000 )  
               a(3) = (   0.000000   0.000000   7.999526 )  

     reciprocal axes: (cart. coord. in units 2 pi/alat)
               b(1) = (  1.000000 -0.577350  0.000000 )  
               b(2) = (  0.000000  1.154701  0.000000 )  
               b(3) = (  0.000000  0.000000  0.125007 )  


     PseudoPot. # 1 for Al read from file:
     ../pseudo/Al.pbe-n-rrkjus_psl.1.0.0.UPF
     MD5 check sum: bbe9f3f15d9b3b5ab9a58e4859ebdbfe
     Pseudo is Ultrasoft + core correction, Zval =  3.0
     Generated using &quot;atomic&quot; code by A. Dal Corso  v.6.3
     Using radial grid of 1135 points,  6 beta functions with: 
                l(1) =   0
                l(2) =   0
                l(3) =   1
                l(4) =   1
                l(5) =   2
                l(6) =   2
     Q(r) pseudized with 0 coefficients 


     atomic species   valence    mass     pseudopotential
     Al                3.00    26.98154     Al( 1.00)

     12 Sym. Ops., with inversion, found



   Cartesian axes

     site n.     atom                  positions (alat units)
         1        Al     tau(   1) = (   1.0000000   0.5773503   3.1602541  )
         2        Al     tau(   2) = (   0.0000000   0.0000000   3.9997629  )
         3        Al     tau(   3) = (   0.5000000   0.2886751   4.8392717  )

     number of k points=    19  Marzari-Vanderbilt smearing, width (Ry)=  0.0100
                       cart. coord. in units 2pi/alat
        k(    1) = (   0.0000000   0.0000000   0.0000000), wk =   0.0138889
        k(    2) = (   0.0000000   0.0962250   0.0000000), wk =   0.0833333
        k(    3) = (   0.0000000   0.1924501   0.0000000), wk =   0.0833333
        k(    4) = (   0.0000000   0.2886751   0.0000000), wk =   0.0833333
        k(    5) = (   0.0000000   0.3849002   0.0000000), wk =   0.0833333
        k(    6) = (   0.0000000   0.4811252   0.0000000), wk =   0.0833333
        k(    7) = (   0.0000000  -0.5773503   0.0000000), wk =   0.0416667
        k(    8) = (   0.0833333   0.1443376   0.0000000), wk =   0.0833333
        k(    9) = (   0.0833333   0.2405626   0.0000000), wk =   0.1666667
        k(   10) = (   0.0833333   0.3367877   0.0000000), wk =   0.1666667
        k(   11) = (   0.0833333   0.4330127   0.0000000), wk =   0.1666667
        k(   12) = (   0.0833333  -0.6254628   0.0000000), wk =   0.1666667
        k(   13) = (   0.1666667   0.2886751   0.0000000), wk =   0.0833333
        k(   14) = (   0.1666667   0.3849002   0.0000000), wk =   0.1666667
        k(   15) = (   0.1666667  -0.6735753   0.0000000), wk =   0.1666667
        k(   16) = (   0.1666667  -0.5773503   0.0000000), wk =   0.0833333
        k(   17) = (   0.2500000  -0.7216878   0.0000000), wk =   0.0833333
        k(   18) = (   0.2500000  -0.6254628   0.0000000), wk =   0.1666667
        k(   19) = (   0.3333333  -0.5773503   0.0000000), wk =   0.0277778

     Dense  grid:   298799 G-vectors     FFT dimensions: (  45,  45, 360)

     Smooth grid:    68499 G-vectors     FFT dimensions: (  27,  27, 216)

     Estimated max dynamical RAM per process >     142.35 MB

     Estimated total dynamical RAM >       1.11 GB

     Initial potential from superposition of free atoms

     starting charge       8.9931, renormalised to       9.0000

     negative rho (up, down):  3.220E-05 0.000E+00
     Starting wfcs are   12 randomized atomic wfcs

     total cpu time spent up to now is        1.4 secs

     per-process dynamical memory:    28.3 Mb

     Self-consistent Calculation

     iteration #  1     ecut=    60.00 Ry     beta= 0.70
     Davidson diagonalization with overlap
     ethr =  1.00E-02,  avg # of iterations =  4.8

     negative rho (up, down):  1.831E-07 0.000E+00

     total cpu time spent up to now is        3.4 secs

     total energy              =     -14.94606658 Ry
     estimated scf accuracy    <       0.18780637 Ry

     iteration #  2     ecut=    60.00 Ry     beta= 0.70
     Davidson diagonalization with overlap
     ethr =  2.09E-03,  avg # of iterations =  5.8

     total cpu time spent up to now is        5.5 secs

     total energy              =     -14.66248362 Ry
     estimated scf accuracy    <       3.42682619 Ry

     iteration #  3     ecut=    60.00 Ry     beta= 0.70
     Davidson diagonalization with overlap
     ethr =  2.09E-03,  avg # of iterations =  2.9

     total cpu time spent up to now is        7.2 secs

     total energy              =     -15.06278715 Ry
     estimated scf accuracy    <       0.01716469 Ry

     iteration #  4     ecut=    60.00 Ry     beta= 0.70
     Davidson diagonalization with overlap
     ethr =  1.91E-04,  avg # of iterations =  4.0

     total cpu time spent up to now is        8.8 secs

     total energy              =     -15.06463268 Ry
     estimated scf accuracy    <       0.00117213 Ry

     iteration #  5     ecut=    60.00 Ry     beta= 0.70
     Davidson diagonalization with overlap
     c_bands:  1 eigenvalues not converged
     ethr =  1.30E-05,  avg # of iterations =  7.9

     total cpu time spent up to now is       10.7 secs

     total energy              =     -15.06482517 Ry
     estimated scf accuracy    <       0.00011686 Ry

     iteration #  6     ecut=    60.00 Ry     beta= 0.70
     Davidson diagonalization with overlap
     ethr =  1.30E-06,  avg # of iterations =  4.9

     negative rho (up, down):  5.496E-07 0.000E+00

     total cpu time spent up to now is       12.4 secs

     total energy              =     -15.06483648 Ry
     estimated scf accuracy    <       0.00000653 Ry

     iteration #  7     ecut=    60.00 Ry     beta= 0.70
     Davidson diagonalization with overlap
     ethr =  7.25E-08,  avg # of iterations =  4.1

     negative rho (up, down):  1.622E-06 0.000E+00

     total cpu time spent up to now is       14.0 secs

     total energy              =     -15.06483880 Ry
     estimated scf accuracy    <       0.00000070 Ry

     iteration #  8     ecut=    60.00 Ry     beta= 0.70
     Davidson diagonalization with overlap
     ethr =  7.73E-09,  avg # of iterations =  1.7

     negative rho (up, down):  1.301E-06 0.000E+00

     total cpu time spent up to now is       15.5 secs

     total energy              =     -15.06483892 Ry
     estimated scf accuracy    <       0.00000006 Ry

     iteration #  9     ecut=    60.00 Ry     beta= 0.70
     Davidson diagonalization with overlap
     ethr =  6.98E-10,  avg # of iterations =  2.9

     negative rho (up, down):  1.138E-06 0.000E+00

     total cpu time spent up to now is       17.1 secs

     total energy              =     -15.06483894 Ry
     estimated scf accuracy    <          1.8E-09 Ry

     iteration # 10     ecut=    60.00 Ry     beta= 0.70
     Davidson diagonalization with overlap
     ethr =  2.00E-11,  avg # of iterations =  3.9

     negative rho (up, down):  1.166E-06 0.000E+00

     total cpu time spent up to now is       18.8 secs

     End of self-consistent calculation

          k = 0.0000 0.0000 0.0000 (  8639 PWs)   bands (ev):

   -10.5482  -8.9680  -6.5207  -3.3545   0.0105   2.5797   3.4314   4.2804
     4.3557   6.2015

          k = 0.0000 0.0962 0.0000 (  8641 PWs)   bands (ev):

   -10.3809  -8.8018  -6.3550  -3.1964   0.1683   2.7414   3.5996   4.4473
     4.5187   6.3557

          k = 0.0000 0.1925 0.0000 (  8619 PWs)   bands (ev):

    -9.8802  -8.3045  -5.8598  -2.7226   0.6355   3.2111   4.1004   4.9165
     4.9763   5.5751

          k = 0.0000 0.2887 0.0000 (  8616 PWs)   bands (ev):

    -9.0497  -7.4800  -5.0411  -1.9364   1.3344   2.5873   3.9478   4.1607
     4.9549   5.7581

          k = 0.0000 0.3849 0.0000 (  8528 PWs)   bands (ev):

    -7.8952  -6.3350  -3.9145  -0.8896  -0.1152   1.3382   2.6479   3.6466
     5.2577   6.1246

          k = 0.0000 0.4811 0.0000 (  8564 PWs)   bands (ev):

    -6.4254  -4.8827  -2.8059  -2.2344  -0.9536   0.6041   1.4063   3.7960
     4.6132   6.2557

          k = 0.0000-0.5774 0.0000 (  8530 PWs)   bands (ev):

    -4.6724  -4.6376  -3.3657  -2.8580  -0.7346  -0.5170   2.3298   2.3300
     5.5833   6.1127

          k = 0.0833 0.1443 0.0000 (  8623 PWs)   bands (ev):

   -10.0469  -8.4701  -6.0245  -2.8804   0.4813   3.0596   3.9351   4.7787
     4.8369   6.5979

          k = 0.0833 0.2406 0.0000 (  8588 PWs)   bands (ev):

    -9.3813  -7.8092  -5.3675  -2.2500   1.0878   3.5662   4.2127   4.6285
     5.3962   5.4394

          k = 0.0833 0.3368 0.0000 (  8559 PWs)   bands (ev):

    -8.3888  -6.8243  -4.3933  -1.3141   1.1364   2.1453   2.8222   4.5801
     4.7306   5.4346

          k = 0.0833 0.4330 0.0000 (  8547 PWs)   bands (ev):

    -7.0765  -5.5245  -3.1381  -1.2815  -0.0275   0.3016   2.5780   3.2857
     4.4170   5.6709

          k = 0.0833-0.6255 0.0000 (  8558 PWs)   bands (ev):

    -5.4552  -3.9371  -3.5544  -2.0472  -1.3236   0.4384   1.5653   3.3535
     3.9474   5.1204

          k = 0.1667 0.2887 0.0000 (  8535 PWs)   bands (ev):

    -8.5537  -6.9879  -4.5542  -1.4668   1.7395   2.8351   3.2280   4.1248
     4.6370   4.7918

          k = 0.1667 0.3849 0.0000 (  8571 PWs)   bands (ev):

    -7.4033  -5.8476  -3.4367  -0.4316   0.3518   1.7729   2.0493   3.1159
     3.8149   4.2928

          k = 0.1667-0.6736 0.0000 (  8581 PWs)   bands (ev):

    -5.9388  -4.4021  -2.3419  -1.7647  -0.4955   0.9897   1.5369   2.1079
     3.3046   4.3538

          k = 0.1667-0.5774 0.0000 (  8550 PWs)   bands (ev):

    -4.1967  -4.1541  -2.9016  -2.3770  -0.2906  -0.1332   1.6289   2.7418
     2.8578   3.2214

          k = 0.2500-0.7217 0.0000 (  8589 PWs)   bands (ev):

    -6.1005  -4.5600  -2.2220  -0.4757  -0.2289   0.8295   1.0700   1.5137
     3.5165   3.8030

          k = 0.2500-0.6255 0.0000 (  8555 PWs)   bands (ev):

    -4.4919  -2.9940  -2.6084  -1.1394  -0.8729  -0.2697   0.9354   1.6359
     2.5301   3.3616

          k = 0.3333-0.5774 0.0000 (  8568 PWs)   bands (ev):

    -2.7767  -2.7767  -2.7076  -1.7166  -0.9925  -0.9925   1.2908   1.2908
     1.6239   4.2213

     the Fermi energy is    -0.2066 ev

!    total energy              =     -15.06483894 Ry
     estimated scf accuracy    <          1.1E-10 Ry
     smearing contrib. (-TS)   =      -0.00000608 Ry
     internal energy E=F+TS    =     -15.06483286 Ry

     The total energy is F=E-TS. E is the sum of the following terms:
     one-electron contribution =    -129.56789170 Ry
     hartree contribution      =      66.55149357 Ry
     xc contribution           =      -7.58297317 Ry
     ewald contribution        =      55.53453844 Ry

     convergence has been achieved in  10 iterations

     negative rho (up, down):  1.166E-06 0.000E+00

     Forces acting on atoms (cartesian axes, Ry/au):

     atom    1 type  1   force =     0.00000000   -0.00000000    0.00877858
     atom    2 type  1   force =    -0.00000000    0.00000000    0.00000000
     atom    3 type  1   force =     0.00000000   -0.00000000   -0.00877858

     Total force =     0.012415     Total SCF correction =     0.000013


     Computing stress (Cartesian axis) and pressure


     negative rho (up, down):  1.166E-06 0.000E+00
          total   stress  (Ry/bohr**3)                   (kbar)     P=      -11.16
  -0.00007735   0.00000000   0.00000000          -11.38        0.00        0.00
   0.00000000  -0.00007735  -0.00000000            0.00      -11.38       -0.00
   0.00000000   0.00000000  -0.00007294            0.00        0.00      -10.73


     BFGS Geometry Optimization
     Energy error            =      1.5E-04 Ry
     Gradient error          =      8.8E-03 Ry/Bohr

     number of scf cycles    =   1
     number of bfgs steps    =   0

     energy             new  =     -15.0648389423 Ry

     new trust radius        =       0.0087785775 bohr
     new conv_thr            =       0.0000000010 Ry


ATOMIC_POSITIONS (angstrom)
Al               2.8586989056        1.6504705827        9.0388603645
Al               0.0000000000        0.0000000000       11.4341178823    0   0   0
Al               1.4293494528        0.8252352913       13.8293754001



     Writing config-only to output data dir ./tmp/clean-k12-relax.save/ :
     XML data file
     NEW-OLD atomic charge density approx. for the potential

     negative rho (up, down):  2.979E-06 0.000E+00

     total cpu time spent up to now is       22.3 secs

     per-process dynamical memory:    41.8 Mb

     Self-consistent Calculation

     iteration #  1     ecut=    60.00 Ry     beta= 0.70
     Davidson diagonalization with overlap
     ethr =  1.00E-06,  avg # of iterations =  2.6

     negative rho (up, down):  1.413E-06 0.000E+00

     total cpu time spent up to now is       24.0 secs

     total energy              =     -15.06497932 Ry
     estimated scf accuracy    <       0.00001586 Ry

     iteration #  2     ecut=    60.00 Ry     beta= 0.70
     Davidson diagonalization with overlap
     ethr =  1.76E-07,  avg # of iterations =  2.5

     negative rho (up, down):  1.198E-06 0.000E+00

     total cpu time spent up to now is       25.6 secs

     total energy              =     -15.06496112 Ry
     estimated scf accuracy    <       0.00025786 Ry

     iteration #  3     ecut=    60.00 Ry     beta= 0.70
     Davidson diagonalization with overlap
     ethr =  1.76E-07,  avg # of iterations =  2.1

     negative rho (up, down):  1.176E-06 0.000E+00

     total cpu time spent up to now is       27.1 secs

     total energy              =     -15.06499018 Ry
     estimated scf accuracy    <       0.00000018 Ry

     iteration #  4     ecut=    60.00 Ry     beta= 0.70
     Davidson diagonalization with overlap
     ethr =  1.98E-09,  avg # of iterations =  3.4

     negative rho (up, down):  1.173E-06 0.000E+00

     total cpu time spent up to now is       28.8 secs

     total energy              =     -15.06499031 Ry
     estimated scf accuracy    <       0.00000004 Ry

     iteration #  5     ecut=    60.00 Ry     beta= 0.70
     Davidson diagonalization with overlap
     ethr =  4.42E-10,  avg # of iterations =  1.5

     negative rho (up, down):  1.171E-06 0.000E+00

     total cpu time spent up to now is       30.3 secs

     total energy              =     -15.06499031 Ry
     estimated scf accuracy    <          5.1E-09 Ry

     iteration #  6     ecut=    60.00 Ry     beta= 0.70
     Davidson diagonalization with overlap
     ethr =  5.61E-11,  avg # of iterations =  2.9

     negative rho (up, down):  1.171E-06 0.000E+00

     total cpu time spent up to now is       31.9 secs

     total energy              =     -15.06499032 Ry
     estimated scf accuracy    <          1.0E-09 Ry

     iteration #  7     ecut=    60.00 Ry     beta= 0.70
     Davidson diagonalization with overlap
     ethr =  1.14E-11,  avg # of iterations =  1.7

     negative rho (up, down):  1.170E-06 0.000E+00

     total cpu time spent up to now is       33.4 secs

     End of self-consistent calculation

          k = 0.0000 0.0000 0.0000 (  8639 PWs)   bands (ev):

   -10.5615  -8.9752  -6.5163  -3.3532   0.0211   2.5857   3.4338   4.2822
     4.3595   6.2053

          k = 0.0000 0.0962 0.0000 (  8641 PWs)   bands (ev):

   -10.3942  -8.8090  -6.3506  -3.1951   0.1789   2.7474   3.6020   4.4491
     4.5225   6.3593

          k = 0.0000 0.1925 0.0000 (  8619 PWs)   bands (ev):

    -9.8935  -8.3118  -5.8555  -2.7215   0.6458   3.2169   4.1027   4.9169
     4.9788   5.5647

          k = 0.0000 0.2887 0.0000 (  8616 PWs)   bands (ev):

    -9.0631  -7.4874  -5.0369  -1.9354   1.3418   2.5771   3.9442   4.1632
     4.9573   5.7602

          k = 0.0000 0.3849 0.0000 (  8528 PWs)   bands (ev):

    -7.9086  -6.3425  -3.9105  -0.8902  -0.1272   1.3307   2.6587   3.6512
     5.2632   6.1269

          k = 0.0000 0.4811 0.0000 (  8564 PWs)   bands (ev):

    -6.4388  -4.8903  -2.8131  -2.2372  -0.9606   0.6045   1.4109   3.8045
     4.6153   6.2414

          k = 0.0000-0.5774 0.0000 (  8530 PWs)   bands (ev):

    -4.6860  -4.6511  -3.3742  -2.8647  -0.7310  -0.5125   2.3296   2.3320
     5.5949   6.0972

          k = 0.0833 0.1443 0.0000 (  8623 PWs)   bands (ev):

   -10.0602  -8.4773  -6.0202  -2.8792   0.4917   3.0656   3.9375   4.7804
     4.8404   6.5972

          k = 0.0833 0.2406 0.0000 (  8588 PWs)   bands (ev):

    -9.3947  -7.8165  -5.3632  -2.2489   1.0976   3.5676   4.2047   4.6304
     5.3948   5.4361

          k = 0.0833 0.3368 0.0000 (  8559 PWs)   bands (ev):

    -8.4022  -6.8317  -4.3891  -1.3133   1.1251   2.1507   2.8173   4.5846
     4.7251   5.4335

          k = 0.0833 0.4330 0.0000 (  8547 PWs)   bands (ev):

    -7.0900  -5.5321  -3.1347  -1.2941  -0.0281   0.2950   2.5817   3.2939
     4.4075   5.6736

          k = 0.0833-0.6255 0.0000 (  8558 PWs)   bands (ev):

    -5.4687  -3.9449  -3.5679  -2.0532  -1.3211   0.4421   1.5664   3.3542
     3.9366   5.1248

          k = 0.1667 0.2887 0.0000 (  8535 PWs)   bands (ev):

    -8.5671  -6.9953  -4.5500  -1.4659   1.7453   2.8219   3.2192   4.1168
     4.6422   4.7872

          k = 0.1667 0.3849 0.0000 (  8571 PWs)   bands (ev):

    -7.4168  -5.8551  -3.4329  -0.4324   0.3399   1.7651   2.0376   3.1203
     3.8152   4.2963

          k = 0.1667-0.6736 0.0000 (  8581 PWs)   bands (ev):

    -5.9523  -4.4098  -2.3490  -1.7678  -0.5027   0.9878   1.5324   2.1055
     3.2983   4.3620

          k = 0.1667-0.5774 0.0000 (  8550 PWs)   bands (ev):

    -4.2104  -4.1676  -2.9101  -2.3837  -0.2873  -0.1305   1.6179   2.7420
     2.8572   3.2162

          k = 0.2500-0.7217 0.0000 (  8589 PWs)   bands (ev):

    -6.1140  -4.5676  -2.2193  -0.4890  -0.2412   0.8231   1.0681   1.5073
     3.5208   3.8084

          k = 0.2500-0.6255 0.0000 (  8555 PWs)   bands (ev):

    -4.5054  -3.0019  -2.6219  -1.1456  -0.8830  -0.2715   0.9309   1.6383
     2.5311   3.3666

          k = 0.3333-0.5774 0.0000 (  8568 PWs)   bands (ev):

    -2.7904  -2.7904  -2.7211  -1.7261  -0.9990  -0.9990   1.2943   1.2943
     1.6300   4.2234

     the Fermi energy is    -0.2098 ev

!    total energy              =     -15.06499032 Ry
     estimated scf accuracy    <          8.9E-12 Ry
     smearing contrib. (-TS)   =      -0.00003145 Ry
     internal energy E=F+TS    =     -15.06495886 Ry

     The total energy is F=E-TS. E is the sum of the following terms:
     one-electron contribution =    -129.77696188 Ry
     hartree contribution      =      66.65511644 Ry
     xc contribution           =      -7.58483613 Ry
     ewald contribution        =      55.64172271 Ry

     convergence has been achieved in   7 iterations

     negative rho (up, down):  1.170E-06 0.000E+00

     Forces acting on atoms (cartesian axes, Ry/au):

     atom    1 type  1   force =     0.00000000   -0.00000000    0.00846937
     atom    2 type  1   force =     0.00000000    0.00000000    0.00000000
     atom    3 type  1   force =     0.00000000    0.00000000   -0.00846937

     Total force =     0.011977     Total SCF correction =     0.000003


     Computing stress (Cartesian axis) and pressure


     negative rho (up, down):  1.170E-06 0.000E+00
          total   stress  (Ry/bohr**3)                   (kbar)     P=      -10.91
  -0.00007613   0.00000000   0.00000000          -11.20        0.00        0.00
   0.00000000  -0.00007613   0.00000000            0.00      -11.20        0.00
   0.00000000   0.00000000  -0.00007025            0.00        0.00      -10.33

     Energy error            =      1.5E-04 Ry
     Gradient error          =      8.5E-03 Ry/Bohr

     number of scf cycles    =   2
     number of bfgs steps    =   1

     energy             old  =     -15.0648389423 Ry
     energy             new  =     -15.0649903166 Ry

     CASE: energy            _new < energy            _old


     WARNING: bfgs curvature condition failed, Theta= 0.829
     new trust radius        =       0.0096564353 bohr
     new conv_thr            =       0.0000000002 Ry


ATOMIC_POSITIONS (angstrom)
Al               2.8586989056        1.6504705827        9.0439703300
Al               0.0000000000        0.0000000000       11.4341178823    0   0   0
Al               1.4293494528        0.8252352913       13.8242654347



     Writing config-only to output data dir ./tmp/clean-k12-relax.save/ :
     XML data file
     NEW-OLD atomic charge density approx. for the potential

     negative rho (up, down):  3.218E-06 0.000E+00

     total cpu time spent up to now is       36.8 secs

     per-process dynamical memory:    41.8 Mb

     Self-consistent Calculation

     iteration #  1     ecut=    60.00 Ry     beta= 0.70
     Davidson diagonalization with overlap
     ethr =  1.00E-06,  avg # of iterations =  2.8

     negative rho (up, down):  1.447E-06 0.000E+00

     total cpu time spent up to now is       38.6 secs

     total energy              =     -15.06513601 Ry
     estimated scf accuracy    <       0.00002111 Ry

     iteration #  2     ecut=    60.00 Ry     beta= 0.70
     Davidson diagonalization with overlap
     ethr =  2.35E-07,  avg # of iterations =  3.6

     negative rho (up, down):  1.204E-06 0.000E+00

     total cpu time spent up to now is       40.3 secs

     total energy              =     -15.06511113 Ry
     estimated scf accuracy    <       0.00035273 Ry

     iteration #  3     ecut=    60.00 Ry     beta= 0.70
     Davidson diagonalization with overlap
     ethr =  2.35E-07,  avg # of iterations =  2.1

     negative rho (up, down):  1.180E-06 0.000E+00

     total cpu time spent up to now is       41.8 secs

     total energy              =     -15.06515045 Ry
     estimated scf accuracy    <       0.00000018 Ry

     iteration #  4     ecut=    60.00 Ry     beta= 0.70
     Davidson diagonalization with overlap
     ethr =  2.05E-09,  avg # of iterations =  3.5

     negative rho (up, down):  1.175E-06 0.000E+00

     total cpu time spent up to now is       43.5 secs

     total energy              =     -15.06515063 Ry
     estimated scf accuracy    <       0.00000006 Ry

     iteration #  5     ecut=    60.00 Ry     beta= 0.70
     Davidson diagonalization with overlap
     ethr =  6.29E-10,  avg # of iterations =  1.1

     negative rho (up, down):  1.173E-06 0.000E+00

     total cpu time spent up to now is       45.0 secs

     total energy              =     -15.06515064 Ry
     estimated scf accuracy    <          8.1E-09 Ry

     iteration #  6     ecut=    60.00 Ry     beta= 0.70
     Davidson diagonalization with overlap
     ethr =  8.96E-11,  avg # of iterations =  1.9

     negative rho (up, down):  1.173E-06 0.000E+00

     total cpu time spent up to now is       46.5 secs

     total energy              =     -15.06515064 Ry
     estimated scf accuracy    <          1.5E-09 Ry

     iteration #  7     ecut=    60.00 Ry     beta= 0.70
     Davidson diagonalization with overlap
     ethr =  1.70E-11,  avg # of iterations =  1.7

     negative rho (up, down):  1.173E-06 0.000E+00

     total cpu time spent up to now is       48.1 secs

     End of self-consistent calculation

          k = 0.0000 0.0000 0.0000 (  8639 PWs)   bands (ev):

   -10.5761  -8.9832  -6.5115  -3.3519   0.0327   2.5921   3.4360   4.2841
     4.3632   6.2093

          k = 0.0000 0.0962 0.0000 (  8641 PWs)   bands (ev):

   -10.4088  -8.8171  -6.3459  -3.1938   0.1904   2.7537   3.6042   4.4510
     4.5261   6.3630

          k = 0.0000 0.1925 0.0000 (  8619 PWs)   bands (ev):

    -9.9082  -8.3199  -5.8507  -2.7202   0.6572   3.2231   4.1048   4.9171
     4.9812   5.5534

          k = 0.0000 0.2887 0.0000 (  8616 PWs)   bands (ev):

    -9.0777  -7.4955  -5.0323  -1.9343   1.3498   2.5661   3.9398   4.1660
     4.9595   5.7595

          k = 0.0000 0.3849 0.0000 (  8528 PWs)   bands (ev):

    -7.9234  -6.3508  -3.9061  -0.8908  -0.1403   1.3223   2.6705   3.6561
     5.2691   6.1290

          k = 0.0000 0.4811 0.0000 (  8564 PWs)   bands (ev):

    -6.4536  -4.8987  -2.8213  -2.2400  -0.9684   0.6050   1.4160   3.8137
     4.6176   6.2257

          k = 0.0000-0.5774 0.0000 (  8530 PWs)   bands (ev):

    -4.7009  -4.6659  -3.3836  -2.8721  -0.7270  -0.5075   2.3294   2.3343
     5.6076   5.7461

          k = 0.0833 0.1443 0.0000 (  8623 PWs)   bands (ev):

   -10.0749  -8.4854  -6.0154  -2.8780   0.5032   3.0719   3.9397   4.7822
     4.8438   6.5962

          k = 0.0833 0.2406 0.0000 (  8588 PWs)   bands (ev):

    -9.4093  -7.8246  -5.3585  -2.2478   1.1083   3.5688   4.1960   4.6321
     5.3931   5.4341

          k = 0.0833 0.3368 0.0000 (  8559 PWs)   bands (ev):

    -8.4169  -6.8400  -4.3846  -1.3124   1.1127   2.1565   2.8121   4.5890
     4.7195   5.4323

          k = 0.0833 0.4330 0.0000 (  8547 PWs)   bands (ev):

    -7.1047  -5.5404  -3.1311  -1.3080  -0.0289   0.2877   2.5857   3.3029
     4.3971   5.6765

          k = 0.0833-0.6255 0.0000 (  8558 PWs)   bands (ev):

    -5.4836  -3.9536  -3.5827  -2.0600  -1.3183   0.4461   1.5676   3.3550
     3.9246   5.1296

          k = 0.1667 0.2887 0.0000 (  8535 PWs)   bands (ev):

    -8.5818  -7.0035  -4.5455  -1.4650   1.7516   2.8074   3.2096   4.1080
     4.6478   4.7820

          k = 0.1667 0.3849 0.0000 (  8571 PWs)   bands (ev):

    -7.4315  -5.8634  -3.4286  -0.4334   0.3268   1.7565   2.0246   3.1250
     3.8157   4.3004

          k = 0.1667-0.6736 0.0000 (  8581 PWs)   bands (ev):

    -5.9671  -4.4183  -2.3572  -1.7709  -0.5106   0.9855   1.5274   2.1031
     3.2913   4.3709

          k = 0.1667-0.5774 0.0000 (  8550 PWs)   bands (ev):

    -4.2253  -4.1825  -2.9196  -2.3911  -0.2837  -0.1277   1.6058   2.7421
     2.8566   3.2104

          k = 0.2500-0.7217 0.0000 (  8589 PWs)   bands (ev):

    -6.1288  -4.5761  -2.2165  -0.5036  -0.2546   0.8159   1.0661   1.5001
     3.5255   3.8145

          k = 0.2500-0.6255 0.0000 (  8555 PWs)   bands (ev):

    -4.5203  -3.0108  -2.6368  -1.1526  -0.8943  -0.2735   0.9259   1.6410
     2.5323   3.3720

          k = 0.3333-0.5774 0.0000 (  8568 PWs)   bands (ev):

    -2.8054  -2.8054  -2.7359  -1.7366  -1.0063  -1.0063   1.2981   1.2981
     1.6366   4.2252

     the Fermi energy is    -0.2135 ev

!    total energy              =     -15.06515064 Ry
     estimated scf accuracy    <          3.5E-11 Ry
     smearing contrib. (-TS)   =      -0.00005555 Ry
     internal energy E=F+TS    =     -15.06509508 Ry

     The total energy is F=E-TS. E is the sum of the following terms:
     one-electron contribution =    -130.00724155 Ry
     hartree contribution      =      66.76931255 Ry
     xc contribution           =      -7.58689498 Ry
     ewald contribution        =      55.75972889 Ry

     convergence has been achieved in   7 iterations

     negative rho (up, down):  1.173E-06 0.000E+00

     Forces acting on atoms (cartesian axes, Ry/au):

     atom    1 type  1   force =     0.00000000    0.00000000    0.00813579
     atom    2 type  1   force =     0.00000000    0.00000000    0.00000000
     atom    3 type  1   force =     0.00000000    0.00000000   -0.00813579

     Total force =     0.011506     Total SCF correction =     0.000006


     Computing stress (Cartesian axis) and pressure


     negative rho (up, down):  1.173E-06 0.000E+00
          total   stress  (Ry/bohr**3)                   (kbar)     P=      -10.63
  -0.00007476  -0.00000000   0.00000000          -11.00       -0.00        0.00
  -0.00000000  -0.00007476   0.00000000           -0.00      -11.00        0.00
   0.00000000   0.00000000  -0.00006734            0.00        0.00       -9.91

     Energy error            =      1.6E-04 Ry
     Gradient error          =      8.1E-03 Ry/Bohr

     number of scf cycles    =   3
     number of bfgs steps    =   2

     energy             old  =     -15.0649903166 Ry
     energy             new  =     -15.0651506390 Ry

     CASE: energy            _new < energy            _old

     new trust radius        =       0.0144846529 bohr
     new conv_thr            =       0.0000000002 Ry


ATOMIC_POSITIONS (angstrom)
Al               2.8586989056        1.6504705827        9.0516352782
Al               0.0000000000        0.0000000000       11.4341178823    0   0   0
Al               1.4293494528        0.8252352913       13.8166004865



     Writing config-only to output data dir ./tmp/clean-k12-relax.save/ :
     XML data file
     NEW-OLD atomic charge density approx. for the potential

     negative rho (up, down):  5.143E-06 0.000E+00

     total cpu time spent up to now is       51.6 secs

     per-process dynamical memory:    41.8 Mb

     Self-consistent Calculation

     iteration #  1     ecut=    60.00 Ry     beta= 0.70
     Davidson diagonalization with overlap
     ethr =  1.00E-06,  avg # of iterations =  3.3

     negative rho (up, down):  1.715E-06 0.000E+00

     total cpu time spent up to now is       53.4 secs

     total energy              =     -15.06534161 Ry
     estimated scf accuracy    <       0.00005433 Ry

     iteration #  2     ecut=    60.00 Ry     beta= 0.70
     Davidson diagonalization with overlap
     ethr =  6.04E-07,  avg # of iterations =  2.5

     negative rho (up, down):  1.240E-06 0.000E+00

     total cpu time spent up to now is       55.1 secs

     total energy              =     -15.06527562 Ry
     estimated scf accuracy    <       0.00094700 Ry

     iteration #  3     ecut=    60.00 Ry     beta= 0.70
     Davidson diagonalization with overlap
     ethr =  6.04E-07,  avg # of iterations =  2.0

     negative rho (up, down):  1.194E-06 0.000E+00

     total cpu time spent up to now is       56.7 secs

     total energy              =     -15.06537872 Ry
     estimated scf accuracy    <       0.00000024 Ry

     iteration #  4     ecut=    60.00 Ry     beta= 0.70
     Davidson diagonalization with overlap
     ethr =  2.70E-09,  avg # of iterations =  4.1

     negative rho (up, down):  1.181E-06 0.000E+00

     total cpu time spent up to now is       58.5 secs

     total energy              =     -15.06537916 Ry
     estimated scf accuracy    <       0.00000015 Ry

     iteration #  5     ecut=    60.00 Ry     beta= 0.70
     Davidson diagonalization with overlap
     ethr =  1.66E-09,  avg # of iterations =  1.0

     negative rho (up, down):  1.172E-06 0.000E+00

     total cpu time spent up to now is       59.9 secs

     total energy              =     -15.06537917 Ry
     estimated scf accuracy    <       0.00000002 Ry

     iteration #  6     ecut=    60.00 Ry     beta= 0.70
     Davidson diagonalization with overlap
     ethr =  2.31E-10,  avg # of iterations =  1.9

     negative rho (up, down):  1.172E-06 0.000E+00

     total cpu time spent up to now is       61.4 secs

     total energy              =     -15.06537918 Ry
     estimated scf accuracy    <          3.7E-09 Ry

     iteration #  7     ecut=    60.00 Ry     beta= 0.70
     Davidson diagonalization with overlap
     ethr =  4.08E-11,  avg # of iterations =  1.4

     negative rho (up, down):  1.171E-06 0.000E+00

     total cpu time spent up to now is       62.9 secs

     End of self-consistent calculation

          k = 0.0000 0.0000 0.0000 (  8639 PWs)   bands (ev):

   -10.5978  -8.9953  -6.5043  -3.3497   0.0502   2.6015   3.4392   4.2869
     4.3686   6.2152

          k = 0.0000 0.0962 0.0000 (  8641 PWs)   bands (ev):

   -10.4306  -8.8291  -6.3386  -3.1917   0.2079   2.7632   3.6074   4.4537
     4.5314   6.3685

          k = 0.0000 0.1925 0.0000 (  8619 PWs)   bands (ev):

    -9.9300  -8.3320  -5.8436  -2.7182   0.6743   3.2322   4.1078   4.9171
     4.9846   5.5369

          k = 0.0000 0.2887 0.0000 (  8616 PWs)   bands (ev):

    -9.0996  -7.5078  -5.0253  -1.9326   1.3616   2.5498   3.9327   4.1708
     4.9627   5.7640

          k = 0.0000 0.3849 0.0000 (  8528 PWs)   bands (ev):

    -7.9453  -6.3632  -3.8996  -0.8918  -0.1597   1.3097   2.6884   3.6637
     5.2778   6.1321

          k = 0.0000 0.4811 0.0000 (  8564 PWs)   bands (ev):

    -6.4757  -4.9114  -2.8340  -2.2436  -0.9801   0.6058   1.4237   3.8277
     4.6212   6.2024

          k = 0.0000-0.5774 0.0000 (  8530 PWs)   bands (ev):

    -4.7231  -4.6880  -3.3976  -2.8833  -0.7210  -0.5000   2.3293   2.3378
     5.6268   5.7494

          k = 0.0833 0.1443 0.0000 (  8623 PWs)   bands (ev):

   -10.0966  -8.4975  -6.0083  -2.8759   0.5204   3.0813   3.9428   4.7848
     4.8486   6.5944

          k = 0.0833 0.2406 0.0000 (  8588 PWs)   bands (ev):

    -9.4311  -7.8368  -5.3515  -2.2459   1.1245   3.5700   4.1834   4.6347
     5.3898   5.4314

          k = 0.0833 0.3368 0.0000 (  8559 PWs)   bands (ev):

    -8.4388  -6.8523  -4.3778  -1.3110   1.0939   2.1652   2.8046   4.5940
     4.7122   5.4308

          k = 0.0833 0.4330 0.0000 (  8547 PWs)   bands (ev):

    -7.1267  -5.5529  -3.1255  -1.3287  -0.0299   0.2770   2.5917   3.3162
     4.3819   5.6809

          k = 0.0833-0.6255 0.0000 (  8558 PWs)   bands (ev):

    -5.5057  -3.9665  -3.6047  -2.0702  -1.3139   0.4522   1.5696   3.3562
     3.9067   5.1363

          k = 0.1667 0.2887 0.0000 (  8535 PWs)   bands (ev):

    -8.6037  -7.0158  -4.5386  -1.4634   1.7608   2.7857   3.1956   4.0946
     4.6561   4.7744

          k = 0.1667 0.3849 0.0000 (  8571 PWs)   bands (ev):

    -7.4535  -5.8759  -3.4223  -0.4348   0.3075   1.7435   2.0052   3.1317
     3.8169   4.3066

          k = 0.1667-0.6736 0.0000 (  8581 PWs)   bands (ev):

    -5.9892  -4.4311  -2.3697  -1.7751  -0.5225   0.9820   1.5197   2.1000
     3.2808   4.3844

          k = 0.1667-0.5774 0.0000 (  8550 PWs)   bands (ev):

    -4.2476  -4.2047  -2.9339  -2.4022  -0.2782  -0.1234   1.5880   2.7422
     2.8558   3.2020

          k = 0.2500-0.7217 0.0000 (  8589 PWs)   bands (ev):

    -6.1509  -4.5888  -2.2121  -0.5253  -0.2746   0.8048   1.0634   1.4895
     3.5327   3.8237

          k = 0.2500-0.6255 0.0000 (  8555 PWs)   bands (ev):

    -4.5426  -3.0240  -2.6589  -1.1630  -0.9114  -0.2760   0.9184   1.6450
     2.5343   3.3803

          k = 0.3333-0.5774 0.0000 (  8568 PWs)   bands (ev):

    -2.8278  -2.8278  -2.7581  -1.7523  -1.0171  -1.0171   1.3038   1.3038
     1.6468   4.2277

     the Fermi energy is    -0.2190 ev

!    total energy              =     -15.06537918 Ry
     estimated scf accuracy    <          9.8E-11 Ry
     smearing contrib. (-TS)   =      -0.00008330 Ry
     internal energy E=F+TS    =     -15.06529587 Ry

     The total energy is F=E-TS. E is the sum of the following terms:
     one-electron contribution =    -130.35309212 Ry
     hartree contribution      =      66.94085395 Ry
     xc contribution           =      -7.58999890 Ry
     ewald contribution        =      55.93694120 Ry

     convergence has been achieved in   7 iterations

     negative rho (up, down):  1.171E-06 0.000E+00

     Forces acting on atoms (cartesian axes, Ry/au):

     atom    1 type  1   force =     0.00000000    0.00000000    0.00764298
     atom    2 type  1   force =     0.00000000    0.00000000    0.00000000
     atom    3 type  1   force =     0.00000000    0.00000000   -0.00764298

     Total force =     0.010809     Total SCF correction =     0.000009


     Computing stress (Cartesian axis) and pressure


     negative rho (up, down):  1.171E-06 0.000E+00
          total   stress  (Ry/bohr**3)                   (kbar)     P=      -10.22
  -0.00007266   0.00000000   0.00000000          -10.69        0.00        0.00
   0.00000000  -0.00007266   0.00000000            0.00      -10.69        0.00
   0.00000000   0.00000000  -0.00006306            0.00        0.00       -9.28

     Energy error            =      2.3E-04 Ry
     Gradient error          =      7.6E-03 Ry/Bohr

     number of scf cycles    =   4
     number of bfgs steps    =   3

     energy             old  =     -15.0651506390 Ry
     energy             new  =     -15.0653791757 Ry

     CASE: energy            _new < energy            _old

     new trust radius        =       0.0217269793 bohr
     new conv_thr            =       0.0000000002 Ry


ATOMIC_POSITIONS (angstrom)
Al               2.8586989056        1.6504705827        9.0631327006
Al               0.0000000000        0.0000000000       11.4341178823    0   0   0
Al               1.4293494528        0.8252352913       13.8051030641



     Writing config-only to output data dir ./tmp/clean-k12-relax.save/ :
     XML data file
     NEW-OLD atomic charge density approx. for the potential

     negative rho (up, down):  9.196E-06 0.000E+00

     total cpu time spent up to now is       66.4 secs

     per-process dynamical memory:    41.8 Mb

     Self-consistent Calculation

     iteration #  1     ecut=    60.00 Ry     beta= 0.70
     Davidson diagonalization with overlap
     ethr =  1.00E-06,  avg # of iterations =  4.5

     negative rho (up, down):  2.245E-06 0.000E+00

     total cpu time spent up to now is       68.4 secs

     total energy              =     -15.06559472 Ry
     estimated scf accuracy    <       0.00014501 Ry

     iteration #  2     ecut=    60.00 Ry     beta= 0.70
     Davidson diagonalization with overlap
     ethr =  1.61E-06,  avg # of iterations =  3.4

     negative rho (up, down):  1.301E-06 0.000E+00

     total cpu time spent up to now is       70.2 secs

     total energy              =     -15.06541338 Ry
     estimated scf accuracy    <       0.00265271 Ry

     iteration #  3     ecut=    60.00 Ry     beta= 0.70
     Davidson diagonalization with overlap
     ethr =  1.61E-06,  avg # of iterations =  3.3

     negative rho (up, down):  1.182E-06 0.000E+00

     total cpu time spent up to now is       71.9 secs

     total energy              =     -15.06569467 Ry
     estimated scf accuracy    <       0.00000021 Ry

     iteration #  4     ecut=    60.00 Ry     beta= 0.70
     Davidson diagonalization with overlap
     ethr =  2.39E-09,  avg # of iterations =  4.4

     negative rho (up, down):  1.161E-06 0.000E+00

     total cpu time spent up to now is       73.7 secs

     total energy              =     -15.06569526 Ry
     estimated scf accuracy    <       0.00000021 Ry

     iteration #  5     ecut=    60.00 Ry     beta= 0.70
     Davidson diagonalization with overlap
     ethr =  2.37E-09,  avg # of iterations =  1.5

     negative rho (up, down):  1.156E-06 0.000E+00

     total cpu time spent up to now is       75.2 secs

     total energy              =     -15.06569529 Ry
     estimated scf accuracy    <          3.5E-09 Ry

     iteration #  6     ecut=    60.00 Ry     beta= 0.70
     Davidson diagonalization with overlap
     ethr =  3.85E-11,  avg # of iterations =  3.1

     negative rho (up, down):  1.155E-06 0.000E+00

     total cpu time spent up to now is       76.8 secs

     total energy              =     -15.06569529 Ry
     estimated scf accuracy    <          6.3E-09 Ry

     iteration #  7     ecut=    60.00 Ry     beta= 0.70
     Davidson diagonalization with overlap
     ethr =  3.85E-11,  avg # of iterations =  1.1

     negative rho (up, down):  1.155E-06 0.000E+00

     total cpu time spent up to now is       78.3 secs

     End of self-consistent calculation

          k = 0.0000 0.0000 0.0000 (  8639 PWs)   bands (ev):

   -10.6302  -9.0132  -6.4932  -3.3461   0.0767   2.6153   3.4440   4.2912
     4.3765   6.2241

          k = 0.0000 0.0962 0.0000 (  8641 PWs)   bands (ev):

   -10.4629  -8.8471  -6.3276  -3.1882   0.2343   2.7770   3.6122   4.4580
     4.5392   6.3767

          k = 0.0000 0.1925 0.0000 (  8619 PWs)   bands (ev):

    -9.9624  -8.3501  -5.8327  -2.7149   0.7001   3.2456   4.1123   4.9166
     4.9896   5.5130

          k = 0.0000 0.2887 0.0000 (  8616 PWs)   bands (ev):

    -9.1321  -7.5260  -5.0146  -1.9296   1.3790   2.5261   3.9209   4.1788
     4.9674   5.7708

          k = 0.0000 0.3849 0.0000 (  8528 PWs)   bands (ev):

    -7.9779  -6.3817  -3.8896  -0.8932  -0.1884   1.2907   2.7154   3.6751
     5.2905   6.1366

          k = 0.0000 0.4811 0.0000 (  8564 PWs)   bands (ev):

    -6.5084  -4.9304  -2.8540  -2.2477  -0.9976   0.6072   1.4354   3.8487
     4.6270   6.1675

          k = 0.0000-0.5774 0.0000 (  8530 PWs)   bands (ev):

    -4.7561  -4.7209  -3.4187  -2.8999  -0.7120  -0.4886   2.3295   2.3433
     5.6558   5.7540

          k = 0.0833 0.1443 0.0000 (  8623 PWs)   bands (ev):

   -10.1290  -8.5156  -5.9973  -2.8725   0.5465   3.0950   3.9475   4.7889
     4.8558   6.5899

          k = 0.0833 0.2406 0.0000 (  8588 PWs)   bands (ev):

    -9.4636  -7.8550  -5.3407  -2.2428   1.1488   3.5707   4.1657   4.6386
     5.3819   5.4265

          k = 0.0833 0.3368 0.0000 (  8559 PWs)   bands (ev):

    -8.4713  -6.8707  -4.3674  -1.3086   1.0656   2.1780   2.7941   4.5973
     4.7050   5.4291

          k = 0.0833 0.4330 0.0000 (  8547 PWs)   bands (ev):

    -7.1594  -5.5717  -3.1172  -1.3594  -0.0316   0.2611   2.6008   3.3358
     4.3600   5.6875

          k = 0.0833-0.6255 0.0000 (  8558 PWs)   bands (ev):

    -5.5386  -3.9859  -3.6375  -2.0857  -1.3071   0.4615   1.5730   3.3582
     3.8800   5.1450

          k = 0.1667 0.2887 0.0000 (  8535 PWs)   bands (ev):

    -8.6362  -7.0342  -4.5281  -1.4608   1.7740   2.7535   3.1755   4.0743
     4.6687   4.7630

          k = 0.1667 0.3849 0.0000 (  8571 PWs)   bands (ev):

    -7.4861  -5.8945  -3.4126  -0.4369   0.2790   1.7240   1.9760   3.1409
     3.8200   4.3163

          k = 0.1667-0.6736 0.0000 (  8581 PWs)   bands (ev):

    -6.0220  -4.4502  -2.3895  -1.7801  -0.5403   0.9765   1.5078   2.0964
     3.2651   4.4047

          k = 0.1667-0.5774 0.0000 (  8550 PWs)   bands (ev):

    -4.2806  -4.2377  -2.9552  -2.4189  -0.2700  -0.1171   1.5616   2.7422
     2.8548   3.1899

          k = 0.2500-0.7217 0.0000 (  8589 PWs)   bands (ev):

    -6.1837  -4.6078  -2.2056  -0.5577  -0.3043   0.7878   1.0601   1.4735
     3.5436   3.8377

          k = 0.2500-0.6255 0.0000 (  8555 PWs)   bands (ev):

    -4.5756  -3.0438  -2.6918  -1.1788  -0.9372  -0.2791   0.9070   1.6513
     2.5375   3.3929

          k = 0.3333-0.5774 0.0000 (  8568 PWs)   bands (ev):

    -2.8611  -2.8611  -2.7911  -1.7760  -1.0334  -1.0334   1.3124   1.3124
     1.6622   4.1952

     the Fermi energy is    -0.2274 ev

!    total energy              =     -15.06569529 Ry
     estimated scf accuracy    <          4.2E-11 Ry
     smearing contrib. (-TS)   =      -0.00010490 Ry
     internal energy E=F+TS    =     -15.06559039 Ry

     The total energy is F=E-TS. E is the sum of the following terms:
     one-electron contribution =    -130.87279942 Ry
     hartree contribution      =      67.19868661 Ry
     xc contribution           =      -7.59469348 Ry
     ewald contribution        =      56.20321591 Ry

     convergence has been achieved in   7 iterations

     negative rho (up, down):  1.155E-06 0.000E+00

     Forces acting on atoms (cartesian axes, Ry/au):

     atom    1 type  1   force =     0.00000000   -0.00000000    0.00690376
     atom    2 type  1   force =    -0.00000000    0.00000000    0.00000000
     atom    3 type  1   force =     0.00000000    0.00000000   -0.00690376

     Total force =     0.009763     Total SCF correction =     0.000009


     Computing stress (Cartesian axis) and pressure


     negative rho (up, down):  1.155E-06 0.000E+00
          total   stress  (Ry/bohr**3)                   (kbar)     P=       -9.59
  -0.00006942   0.00000000   0.00000000          -10.21        0.00        0.00
   0.00000000  -0.00006942   0.00000000            0.00      -10.21        0.00
   0.00000000   0.00000000  -0.00005669            0.00        0.00       -8.34

     Energy error            =      3.2E-04 Ry
     Gradient error          =      6.9E-03 Ry/Bohr

     number of scf cycles    =   5
     number of bfgs steps    =   4

     energy             old  =     -15.0653791757 Ry
     energy             new  =     -15.0656952923 Ry

     CASE: energy            _new < energy            _old

     new trust radius        =       0.0325904690 bohr
     new conv_thr            =       0.0000000003 Ry


ATOMIC_POSITIONS (angstrom)
Al               2.8586989056        1.6504705827        9.0803788341
Al               0.0000000000        0.0000000000       11.4341178823    0   0   0
Al               1.4293494528        0.8252352913       13.7878569306



     Writing config-only to output data dir ./tmp/clean-k12-relax.save/ :
     XML data file
     NEW-OLD atomic charge density approx. for the potential

     negative rho (up, down):  1.733E-05 0.000E+00

     total cpu time spent up to now is       81.8 secs

     per-process dynamical memory:    41.8 Mb

     Self-consistent Calculation

     iteration #  1     ecut=    60.00 Ry     beta= 0.70
     Davidson diagonalization with overlap
     ethr =  1.00E-06,  avg # of iterations =  5.3

     negative rho (up, down):  3.475E-06 0.000E+00

     total cpu time spent up to now is       84.0 secs

     total energy              =     -15.06586828 Ry
     estimated scf accuracy    <       0.00034481 Ry

     iteration #  2     ecut=    60.00 Ry     beta= 0.70
     Davidson diagonalization with overlap
     ethr =  3.83E-06,  avg # of iterations =  3.9

     negative rho (up, down):  1.515E-06 0.000E+00

     total cpu time spent up to now is       85.9 secs

     total energy              =     -15.06543201 Ry
     estimated scf accuracy    <       0.00640189 Ry

     iteration #  3     ecut=    60.00 Ry     beta= 0.70
     Davidson diagonalization with overlap
     ethr =  3.83E-06,  avg # of iterations =  3.2

     negative rho (up, down):  1.177E-06 0.000E+00

     total cpu time spent up to now is       87.7 secs

     total energy              =     -15.06610625 Ry
     estimated scf accuracy    <       0.00000044 Ry

     iteration #  4     ecut=    60.00 Ry     beta= 0.70
     Davidson diagonalization with overlap
     ethr =  4.84E-09,  avg # of iterations =  4.8

     negative rho (up, down):  1.134E-06 0.000E+00

     total cpu time spent up to now is       89.6 secs

     total energy              =     -15.06610772 Ry
     estimated scf accuracy    <       0.00000057 Ry

     iteration #  5     ecut=    60.00 Ry     beta= 0.70
     Davidson diagonalization with overlap
     ethr =  4.84E-09,  avg # of iterations =  1.1

     negative rho (up, down):  1.129E-06 0.000E+00

     total cpu time spent up to now is       91.1 secs

     total energy              =     -15.06610777 Ry
     estimated scf accuracy    <       0.00000002 Ry

     iteration #  6     ecut=    60.00 Ry     beta= 0.70
     Davidson diagonalization with overlap
     ethr =  2.38E-10,  avg # of iterations =  2.3

     negative rho (up, down):  1.126E-06 0.000E+00

     total cpu time spent up to now is       92.6 secs

     total energy              =     -15.06610777 Ry
     estimated scf accuracy    <       0.00000002 Ry

     iteration #  7     ecut=    60.00 Ry     beta= 0.70
     Davidson diagonalization with overlap
     ethr =  1.86E-10,  avg # of iterations =  1.0

     negative rho (up, down):  1.125E-06 0.000E+00

     total cpu time spent up to now is       94.0 secs

     End of self-consistent calculation

          k = 0.0000 0.0000 0.0000 (  8639 PWs)   bands (ev):

   -10.6787  -9.0405  -6.4765  -3.3403   0.1168   2.6355   3.4510   4.2976
     4.3881   6.2373

          k = 0.0000 0.0962 0.0000 (  8641 PWs)   bands (ev):

   -10.5115  -8.8745  -6.3109  -3.1825   0.2742   2.7972   3.6192   4.4643
     4.5507   6.3887

          k = 0.0000 0.1925 0.0000 (  8619 PWs)   bands (ev):

   -10.0110  -8.3776  -5.8162  -2.7095   0.7391   3.2651   4.1187   4.9142
     4.9967   5.4788

          k = 0.0000 0.2887 0.0000 (  8616 PWs)   bands (ev):

    -9.1808  -7.5538  -4.9986  -1.9249   1.4037   2.4918   3.9012   4.1921
     4.9744   5.7810

          k = 0.0000 0.3849 0.0000 (  8528 PWs)   bands (ev):

    -8.0268  -6.4098  -3.8746  -0.8956  -0.2307   1.2619   2.7564   3.6924
     5.3089   6.1436

          k = 0.0000 0.4811 0.0000 (  8564 PWs)   bands (ev):

    -6.5576  -4.9591  -2.8862  -2.2517  -1.0240   0.6097   1.4531   3.8801
     4.6361   6.1150

          k = 0.0000-0.5774 0.0000 (  8530 PWs)   bands (ev):

    -4.8055  -4.7705  -3.4508  -2.9251  -0.6985  -0.4713   2.3301   2.3520
     5.6997   5.7595

          k = 0.0833 0.1443 0.0000 (  8623 PWs)   bands (ev):

   -10.1776  -8.5430  -5.9808  -2.8671   0.5859   3.1151   3.9543   4.7948
     4.8662   6.5812

          k = 0.0833 0.2406 0.0000 (  8588 PWs)   bands (ev):

    -9.5122  -7.8826  -5.3245  -2.2378   1.1855   3.5684   4.1415   4.6443
     5.3656   5.4193

          k = 0.0833 0.3368 0.0000 (  8559 PWs)   bands (ev):

    -8.5201  -6.8986  -4.3518  -1.3047   1.0224   2.1958   2.7802   4.5895
     4.7054   5.4265

          k = 0.0833 0.4330 0.0000 (  8547 PWs)   bands (ev):

    -7.2084  -5.6001  -3.1047  -1.4055  -0.0347   0.2379   2.6143   3.3639
     4.3286   5.6959

          k = 0.0833-0.6255 0.0000 (  8558 PWs)   bands (ev):

    -5.5880  -4.0154  -3.6867  -2.1095  -1.2966   0.4752   1.5785   3.3609
     3.8398   5.1551

          k = 0.1667 0.2887 0.0000 (  8535 PWs)   bands (ev):

    -8.6850  -7.0621  -4.5123  -1.4564   1.7923   2.7049   3.1467   4.0430
     4.6876   4.7459

          k = 0.1667 0.3849 0.0000 (  8571 PWs)   bands (ev):

    -7.5351  -5.9228  -3.3980  -0.4405   0.2368   1.6944   1.9317   3.1525
     3.8272   4.3315

          k = 0.1667-0.6736 0.0000 (  8581 PWs)   bands (ev):

    -6.0713  -4.4791  -2.4214  -1.7854  -0.5673   0.9674   1.4890   2.0931
     3.2414   4.4349

          k = 0.1667-0.5774 0.0000 (  8550 PWs)   bands (ev):

    -4.3301  -4.2873  -2.9876  -2.4441  -0.2577  -0.1081   1.5226   2.7414
     2.8538   3.1725

          k = 0.2500-0.7217 0.0000 (  8589 PWs)   bands (ev):

    -6.2329  -4.6367  -2.1960  -0.6061  -0.3489   0.7609   1.0564   1.4493
     3.5600   3.8589

          k = 0.2500-0.6255 0.0000 (  8555 PWs)   bands (ev):

    -4.6252  -3.0740  -2.7412  -1.2033  -0.9771  -0.2826   0.8896   1.6612
     2.5428   3.4119

          k = 0.3333-0.5774 0.0000 (  8568 PWs)   bands (ev):

    -2.9108  -2.9108  -2.8411  -1.8119  -1.0580  -1.0580   1.3253   1.3253
     1.6857   4.1992

     the Fermi energy is    -0.2399 ev

!    total energy              =     -15.06610777 Ry
     estimated scf accuracy    <          3.9E-11 Ry
     smearing contrib. (-TS)   =      -0.00009532 Ry
     internal energy E=F+TS    =     -15.06601245 Ry

     The total energy is F=E-TS. E is the sum of the following terms:
     one-electron contribution =    -131.65416851 Ry
     hartree contribution      =      67.58633932 Ry
     xc contribution           =      -7.60183547 Ry
     ewald contribution        =      56.60365221 Ry

     convergence has been achieved in   7 iterations

     negative rho (up, down):  1.125E-06 0.000E+00

     Forces acting on atoms (cartesian axes, Ry/au):

     atom    1 type  1   force =     0.00000000    0.00000000    0.00573248
     atom    2 type  1   force =    -0.00000000   -0.00000000    0.00000000
     atom    3 type  1   force =     0.00000000    0.00000000   -0.00573248

     Total force =     0.008107     Total SCF correction =     0.000007


     Computing stress (Cartesian axis) and pressure


     negative rho (up, down):  1.125E-06 0.000E+00
          total   stress  (Ry/bohr**3)                   (kbar)     P=       -8.62
  -0.00006457   0.00000000   0.00000000           -9.50        0.00        0.00
   0.00000000  -0.00006457   0.00000000            0.00       -9.50        0.00
   0.00000000   0.00000000  -0.00004674            0.00        0.00       -6.88

     Energy error            =      4.1E-04 Ry
     Gradient error          =      5.7E-03 Ry/Bohr

     number of scf cycles    =   6
     number of bfgs steps    =   5

     energy             old  =     -15.0656952923 Ry
     energy             new  =     -15.0661077728 Ry

     CASE: energy            _new < energy            _old

     new trust radius        =       0.0488857035 bohr
     new conv_thr            =       0.0000000003 Ry


ATOMIC_POSITIONS (angstrom)
Al               2.8586989056        1.6504705827        9.1062480343
Al               0.0000000000        0.0000000000       11.4341178823    0   0   0
Al               1.4293494528        0.8252352913       13.7619877304



     Writing config-only to output data dir ./tmp/clean-k12-relax.save/ :
     XML data file
     NEW-OLD atomic charge density approx. for the potential

     negative rho (up, down):  3.188E-05 0.000E+00

     total cpu time spent up to now is       97.5 secs

     per-process dynamical memory:    42.1 Mb

     Self-consistent Calculation

     iteration #  1     ecut=    60.00 Ry     beta= 0.70
     Davidson diagonalization with overlap
     ethr =  1.00E-06,  avg # of iterations =  6.9

     negative rho (up, down):  5.824E-06 0.000E+00

     total cpu time spent up to now is      100.1 secs

     total energy              =     -15.06604801 Ry
     estimated scf accuracy    <       0.00075053 Ry

     iteration #  2     ecut=    60.00 Ry     beta= 0.70
     Davidson diagonalization with overlap
     ethr =  8.34E-06,  avg # of iterations =  4.1

     negative rho (up, down):  2.084E-06 0.000E+00

     total cpu time spent up to now is      101.9 secs

     total energy              =     -15.06510255 Ry
     estimated scf accuracy    <       0.01379496 Ry

     iteration #  3     ecut=    60.00 Ry     beta= 0.70
     Davidson diagonalization with overlap
     ethr =  8.34E-06,  avg # of iterations =  3.4

     negative rho (up, down):  1.338E-06 0.000E+00

     total cpu time spent up to now is      103.6 secs

     total energy              =     -15.06656711 Ry
     estimated scf accuracy    <       0.00000110 Ry

     iteration #  4     ecut=    60.00 Ry     beta= 0.70
     Davidson diagonalization with overlap
     ethr =  1.23E-08,  avg # of iterations =  4.7

     negative rho (up, down):  1.208E-06 0.000E+00

     total cpu time spent up to now is      105.5 secs

     total energy              =     -15.06657011 Ry
     estimated scf accuracy    <       0.00000133 Ry

     iteration #  5     ecut=    60.00 Ry     beta= 0.70
     Davidson diagonalization with overlap
     ethr =  1.23E-08,  avg # of iterations =  1.1

     negative rho (up, down):  1.183E-06 0.000E+00

     total cpu time spent up to now is      107.0 secs

     total energy              =     -15.06657019 Ry
     estimated scf accuracy    <       0.00000012 Ry

     iteration #  6     ecut=    60.00 Ry     beta= 0.70
     Davidson diagonalization with overlap
     ethr =  1.30E-09,  avg # of iterations =  1.7

     negative rho (up, down):  1.173E-06 0.000E+00

     total cpu time spent up to now is      108.5 secs

     total energy              =     -15.06657021 Ry
     estimated scf accuracy    <       0.00000004 Ry

     iteration #  7     ecut=    60.00 Ry     beta= 0.70
     Davidson diagonalization with overlap
     ethr =  3.96E-10,  avg # of iterations =  1.1

     negative rho (up, down):  1.171E-06 0.000E+00

     total cpu time spent up to now is      110.0 secs

     total energy              =     -15.06657022 Ry
     estimated scf accuracy    <          4.6E-10 Ry

     iteration #  8     ecut=    60.00 Ry     beta= 0.70
     Davidson diagonalization with overlap
     ethr =  5.13E-12,  avg # of iterations =  4.2

     negative rho (up, down):  1.170E-06 0.000E+00

     total cpu time spent up to now is      111.8 secs

     End of self-consistent calculation

          k = 0.0000 0.0000 0.0000 (  8639 PWs)   bands (ev):

   -10.7534  -9.0828  -6.4516  -3.3313   0.1773   2.6653   3.4616   4.3070
     4.4052   6.2568

          k = 0.0000 0.0962 0.0000 (  8641 PWs)   bands (ev):

   -10.5862  -8.9169  -6.2861  -3.1736   0.3344   2.8271   3.6298   4.4736
     4.5675   6.4064

          k = 0.0000 0.1925 0.0000 (  8619 PWs)   bands (ev):

   -10.0858  -8.4202  -5.7917  -2.7011   0.7978   3.2936   4.1284   4.9060
     5.0065   5.4306

          k = 0.0000 0.2887 0.0000 (  8616 PWs)   bands (ev):

    -9.2558  -7.5968  -4.9747  -1.9174   1.4363   2.4425   3.8674   4.2144
     4.9851   5.7951

          k = 0.0000 0.3849 0.0000 (  8528 PWs)   bands (ev):

    -8.1021  -6.4535  -3.8524  -0.9011  -0.2941   1.2171   2.8182   3.7180
     5.3356   6.1535

          k = 0.0000 0.4811 0.0000 (  8564 PWs)   bands (ev):

    -6.6333  -5.0038  -2.9407  -2.2542  -1.0647   0.6135   1.4795   3.9264
     4.6502   6.0339

          k = 0.0000-0.5774 0.0000 (  8530 PWs)   bands (ev):

    -4.8814  -4.8471  -3.5007  -2.9640  -0.6785  -0.4458   2.3315   2.3653
     5.7638   5.7656

          k = 0.0833 0.1443 0.0000 (  8623 PWs)   bands (ev):

   -10.2524  -8.5856  -5.9562  -2.8585   0.6454   3.1447   3.9647   4.8034
     4.8814   6.5603

          k = 0.0833 0.2406 0.0000 (  8588 PWs)   bands (ev):

    -9.5872  -7.9255  -5.3003  -2.2299   1.2402   3.5571   4.1105   4.6531
     5.3323   5.4056

          k = 0.0833 0.3368 0.0000 (  8559 PWs)   bands (ev):

    -8.5953  -6.9420  -4.3286  -1.2985   0.9543   2.2179   2.7632   4.5541
     4.7252   5.4244

          k = 0.0833 0.4330 0.0000 (  8547 PWs)   bands (ev):

    -7.2840  -5.6443  -3.0868  -1.4761  -0.0417   0.2043   2.6335   3.4019
     4.2845   5.7069

          k = 0.0833-0.6255 0.0000 (  8558 PWs)   bands (ev):

    -5.6640  -4.0613  -3.7627  -2.1472  -1.2804   0.4952   1.5872   3.3635
     3.7785   5.1618

          k = 0.1667 0.2887 0.0000 (  8535 PWs)   bands (ev):

    -8.7601  -7.1053  -4.4889  -1.4496   1.8149   2.6299   3.1060   3.9935
     4.7161   4.7193

          k = 0.1667 0.3849 0.0000 (  8571 PWs)   bands (ev):

    -7.6105  -5.9668  -3.3765  -0.4478   0.1736   1.6482   1.8624   3.1638
     3.8435   4.3550

          k = 0.1667-0.6736 0.0000 (  8581 PWs)   bands (ev):

    -6.1472  -4.5242  -2.4755  -1.7900  -0.6090   0.9506   1.4582   2.0914
     3.2049   4.4789

          k = 0.1667-0.5774 0.0000 (  8550 PWs)   bands (ev):

    -4.4061  -4.3641  -3.0381  -2.4831  -0.2395  -0.0965   1.4635   2.7373
     2.8528   3.1481

          k = 0.2500-0.7217 0.0000 (  8589 PWs)   bands (ev):

    -6.3088  -4.6815  -2.1829  -0.6807  -0.4171   0.7172   1.0527   1.4119
     3.5847   3.8904

          k = 0.2500-0.6255 0.0000 (  8555 PWs)   bands (ev):

    -4.7015  -3.1209  -2.8174  -1.2424  -1.0404  -0.2866   0.8622   1.6761
     2.5513   3.4403

          k = 0.3333-0.5774 0.0000 (  8568 PWs)   bands (ev):

    -2.9872  -2.9872  -2.9185  -1.8679  -1.0962  -1.0962   1.3444   1.3444
     1.7206   4.2059

     the Fermi energy is    -0.2575 ev

!    total energy              =     -15.06657022 Ry
     estimated scf accuracy    <          1.5E-10 Ry
     smearing contrib. (-TS)   =      -0.00001945 Ry
     internal energy E=F+TS    =     -15.06655077 Ry

     The total energy is F=E-TS. E is the sum of the following terms:
     one-electron contribution =    -132.82943349 Ry
     hartree contribution      =      68.16908489 Ry
     xc contribution           =      -7.61280554 Ry
     ewald contribution        =      57.20660337 Ry

     convergence has been achieved in   8 iterations

     negative rho (up, down):  1.170E-06 0.000E+00

     Forces acting on atoms (cartesian axes, Ry/au):

     atom    1 type  1   force =     0.00000000    0.00000000    0.00364214
     atom    2 type  1   force =     0.00000000    0.00000000    0.00000000
     atom    3 type  1   force =     0.00000000   -0.00000000   -0.00364214

     Total force =     0.005151     Total SCF correction =     0.000015


     Computing stress (Cartesian axis) and pressure


     negative rho (up, down):  1.170E-06 0.000E+00
          total   stress  (Ry/bohr**3)                   (kbar)     P=       -7.11
  -0.00005778   0.00000000   0.00000000           -8.50        0.00        0.00
   0.00000000  -0.00005778   0.00000000            0.00       -8.50        0.00
   0.00000000   0.00000000  -0.00002938            0.00        0.00       -4.32

     Energy error            =      4.6E-04 Ry
     Gradient error          =      3.6E-03 Ry/Bohr

     number of scf cycles    =   7
     number of bfgs steps    =   6

     energy             old  =     -15.0661077728 Ry
     energy             new  =     -15.0665702173 Ry

     CASE: energy            _new < energy            _old

     new trust radius        =       0.0733285553 bohr
     new conv_thr            =       0.0000000002 Ry


ATOMIC_POSITIONS (angstrom)
Al               2.8586989056        1.6504705827        9.1450518347
Al               0.0000000000        0.0000000000       11.4341178823    0   0   0
Al               1.4293494528        0.8252352913       13.7231839300



     Writing config-only to output data dir ./tmp/clean-k12-relax.save/ :
     XML data file
     NEW-OLD atomic charge density approx. for the potential

     negative rho (up, down):  5.240E-05 0.000E+00

     total cpu time spent up to now is      115.2 secs

     per-process dynamical memory:    42.1 Mb

     Self-consistent Calculation

     iteration #  1     ecut=    60.00 Ry     beta= 0.70
     Davidson diagonalization with overlap
     c_bands:  1 eigenvalues not converged
     ethr =  1.00E-06,  avg # of iterations =  8.5

     negative rho (up, down):  8.902E-06 0.000E+00

     total cpu time spent up to now is      118.1 secs

     total energy              =     -15.06592985 Ry
     estimated scf accuracy    <       0.00126461 Ry

     iteration #  2     ecut=    60.00 Ry     beta= 0.70
     Davidson diagonalization with overlap
     ethr =  1.41E-05,  avg # of iterations =  4.2

     negative rho (up, down):  2.675E-06 0.000E+00

     total cpu time spent up to now is      119.9 secs

     total energy              =     -15.06444365 Ry
     estimated scf accuracy    <       0.02114348 Ry

     iteration #  3     ecut=    60.00 Ry     beta= 0.70
     Davidson diagonalization with overlap
     ethr =  1.41E-05,  avg # of iterations =  3.3

     negative rho (up, down):  1.510E-06 0.000E+00

     total cpu time spent up to now is      121.7 secs

     total energy              =     -15.06679673 Ry
     estimated scf accuracy    <       0.00000304 Ry

     iteration #  4     ecut=    60.00 Ry     beta= 0.70
     Davidson diagonalization with overlap
     ethr =  3.38E-08,  avg # of iterations =  4.6

     negative rho (up, down):  1.289E-06 0.000E+00

     total cpu time spent up to now is      123.5 secs

     total energy              =     -15.06680146 Ry
     estimated scf accuracy    <       0.00000203 Ry

     iteration #  5     ecut=    60.00 Ry     beta= 0.70
     Davidson diagonalization with overlap
     ethr =  2.26E-08,  avg # of iterations =  1.1

     negative rho (up, down):  1.237E-06 0.000E+00

     total cpu time spent up to now is      125.0 secs

     total energy              =     -15.06680158 Ry
     estimated scf accuracy    <       0.00000019 Ry

     iteration #  6     ecut=    60.00 Ry     beta= 0.70
     Davidson diagonalization with overlap
     ethr =  2.11E-09,  avg # of iterations =  2.1

     negative rho (up, down):  1.222E-06 0.000E+00

     total cpu time spent up to now is      126.6 secs

     total energy              =     -15.06680163 Ry
     estimated scf accuracy    <       0.00000004 Ry

     iteration #  7     ecut=    60.00 Ry     beta= 0.70
     Davidson diagonalization with overlap
     ethr =  3.99E-10,  avg # of iterations =  1.4

     negative rho (up, down):  1.218E-06 0.000E+00

     total cpu time spent up to now is      128.0 secs

     total energy              =     -15.06680163 Ry
     estimated scf accuracy    <          1.7E-09 Ry

     iteration #  8     ecut=    60.00 Ry     beta= 0.70
     Davidson diagonalization with overlap
     ethr =  1.89E-11,  avg # of iterations =  3.8

     negative rho (up, down):  1.216E-06 0.000E+00

     total cpu time spent up to now is      129.7 secs

     total energy              =     -15.06680163 Ry
     estimated scf accuracy    <          2.6E-10 Ry

     iteration #  9     ecut=    60.00 Ry     beta= 0.70
     Davidson diagonalization with overlap
     ethr =  2.86E-12,  avg # of iterations =  1.7

     negative rho (up, down):  1.216E-06 0.000E+00

     total cpu time spent up to now is      131.2 secs

     End of self-consistent calculation

          k = 0.0000 0.0000 0.0000 (  8639 PWs)   bands (ev):

   -10.8747  -9.1509  -6.4157  -3.3177   0.2684   2.7093   3.4792   4.3232
     4.4312   6.2868

          k = 0.0000 0.0962 0.0000 (  8641 PWs)   bands (ev):

   -10.7076  -8.9851  -6.2504  -3.1603   0.4251   2.8710   3.6472   4.4895
     4.5931   6.4333

          k = 0.0000 0.1925 0.0000 (  8619 PWs)   bands (ev):

   -10.2073  -8.4888  -5.7565  -2.6885   0.8857   3.3350   4.1438   4.8793
     5.0213   5.3664

          k = 0.0000 0.2887 0.0000 (  8616 PWs)   bands (ev):

    -9.3776  -7.6661  -4.9404  -1.9063   1.4703   2.3731   3.8082   4.2505
     5.0029   5.8162

          k = 0.0000 0.3849 0.0000 (  8528 PWs)   bands (ev):

    -8.2244  -6.5238  -3.8209  -0.9178  -0.3904   1.1450   2.9104   3.7544
     5.3737   6.1700

          k = 0.0000 0.4811 0.0000 (  8564 PWs)   bands (ev):

    -6.7564  -5.0758  -3.0391  -2.2535  -1.1297   0.6190   1.5174   3.9926
     4.6713   5.9019

          k = 0.0000-0.5774 0.0000 (  8530 PWs)   bands (ev):

    -5.0045  -4.9717  -3.5815  -3.0264  -0.6494  -0.4099   2.3336   2.3845
     5.7581   5.8640

          k = 0.0833 0.1443 0.0000 (  8623 PWs)   bands (ev):

   -10.3739  -8.6540  -5.9208  -2.8457   0.7347   3.1881   3.9818   4.8179
     4.9040   6.5084

          k = 0.0833 0.2406 0.0000 (  8588 PWs)   bands (ev):

    -9.7089  -7.9945  -5.2656  -2.2181   1.3208   3.5176   4.0763   4.6673
     5.2677   5.3698

          k = 0.0833 0.3368 0.0000 (  8559 PWs)   bands (ev):

    -8.7174  -7.0119  -4.2955  -1.2895   0.8409   2.2353   2.7486   4.4726
     4.7699   5.4226

          k = 0.0833 0.4330 0.0000 (  8547 PWs)   bands (ev):

    -7.4067  -5.7154  -3.0635  -1.5900  -0.0615   0.1583   2.6580   3.4442
     4.2252   5.6917

          k = 0.0833-0.6255 0.0000 (  8558 PWs)   bands (ev):

    -5.7875  -4.1353  -3.8862  -2.2096  -1.2564   0.5229   1.6002   3.3598
     3.6833   5.1511

          k = 0.1667 0.2887 0.0000 (  8535 PWs)   bands (ev):

    -8.8821  -7.1750  -4.4554  -1.4396   1.8337   2.5077   3.0494   3.9124
     4.6757   4.7585

          k = 0.1667 0.3849 0.0000 (  8571 PWs)   bands (ev):

    -7.7331  -6.0376  -3.3462  -0.4672   0.0775   1.5737   1.7478   3.1648
     3.8795   4.3905

          k = 0.1667-0.6736 0.0000 (  8581 PWs)   bands (ev):

    -6.2705  -4.5968  -2.5733  -1.7926  -0.6756   0.9138   1.4069   2.0926
     3.1474   4.5402

          k = 0.1667-0.5774 0.0000 (  8550 PWs)   bands (ev):

    -4.5295  -4.4889  -3.1199  -2.5456  -0.2137  -0.0866   1.3704   2.7224
     2.8516   3.1153

          k = 0.2500-0.7217 0.0000 (  8589 PWs)   bands (ev):

    -6.4320  -4.7538  -2.1679  -0.8024  -0.5261   0.6434   1.0495   1.3520
     3.6211   3.9352

          k = 0.2500-0.6255 0.0000 (  8555 PWs)   bands (ev):

    -4.8255  -3.1966  -2.9414  -1.3090  -1.1462  -0.2916   0.8171   1.6984
     2.5640   3.4811

          k = 0.3333-0.5774 0.0000 (  8568 PWs)   bands (ev):

    -3.1113  -3.1113  -3.0445  -1.9589  -1.1576  -1.1576   1.3722   1.3722
     1.7706   4.2159

     the Fermi energy is    -0.2761 ev

!    total energy              =     -15.06680163 Ry
     estimated scf accuracy    <          5.5E-13 Ry
     smearing contrib. (-TS)   =       0.00009789 Ry
     internal energy E=F+TS    =     -15.06689952 Ry

     The total energy is F=E-TS. E is the sum of the following terms:
     one-electron contribution =    -134.59692982 Ry
     hartree contribution      =      69.04383657 Ry
     xc contribution           =      -7.62997576 Ry
     ewald contribution        =      58.11616949 Ry

     convergence has been achieved in   9 iterations

     negative rho (up, down):  1.216E-06 0.000E+00

     Forces acting on atoms (cartesian axes, Ry/au):

     atom    1 type  1   force =     0.00000000    0.00000000   -0.00078714
     atom    2 type  1   force =     0.00000000    0.00000000    0.00000000
     atom    3 type  1   force =     0.00000000    0.00000000    0.00078714

     Total force =     0.001113     Total SCF correction =     0.000001


     Computing stress (Cartesian axis) and pressure


     negative rho (up, down):  1.216E-06 0.000E+00
          total   stress  (Ry/bohr**3)                   (kbar)     P=       -4.56
  -0.00004963  -0.00000000   0.00000000           -7.30       -0.00        0.00
  -0.00000000  -0.00004963  -0.00000000           -0.00       -7.30       -0.00
   0.00000000   0.00000000   0.00000619            0.00        0.00        0.91

     Energy error            =      2.3E-04 Ry
     Gradient error          =      7.9E-04 Ry/Bohr

     number of scf cycles    =   8
     number of bfgs steps    =   7

     energy             old  =     -15.0665702173 Ry
     energy             new  =     -15.0668016307 Ry

     CASE: energy            _new < energy            _old

     new trust radius        =       0.0130314066 bohr
     new conv_thr            =            3.9E-11 Ry


ATOMIC_POSITIONS (angstrom)
Al               2.8586989056        1.6504705827        9.1381559112
Al               0.0000000000        0.0000000000       11.4341178823    0   0   0
Al               1.4293494528        0.8252352913       13.7300798534



     Writing config-only to output data dir ./tmp/clean-k12-relax.save/ :
     XML data file
     NEW-OLD atomic charge density approx. for the potential

     negative rho (up, down):  4.736E-06 0.000E+00

     total cpu time spent up to now is      134.7 secs

     per-process dynamical memory:    42.1 Mb

     Self-consistent Calculation

     iteration #  1     ecut=    60.00 Ry     beta= 0.70
     Davidson diagonalization with overlap
     ethr =  1.00E-06,  avg # of iterations =  3.3

     negative rho (up, down):  1.789E-06 0.000E+00

     total cpu time spent up to now is      136.5 secs

     total energy              =     -15.06678706 Ry
     estimated scf accuracy    <       0.00003248 Ry

     iteration #  2     ecut=    60.00 Ry     beta= 0.70
     Davidson diagonalization with overlap
     ethr =  3.61E-07,  avg # of iterations =  2.6

     negative rho (up, down):  1.316E-06 0.000E+00

     total cpu time spent up to now is      138.1 secs

     total energy              =     -15.06675255 Ry
     estimated scf accuracy    <       0.00050620 Ry

     iteration #  3     ecut=    60.00 Ry     beta= 0.70
     Davidson diagonalization with overlap
     ethr =  3.61E-07,  avg # of iterations =  2.0

     negative rho (up, down):  1.240E-06 0.000E+00

     total cpu time spent up to now is      139.6 secs

     total energy              =     -15.06680962 Ry
     estimated scf accuracy    <       0.00000019 Ry

     iteration #  4     ecut=    60.00 Ry     beta= 0.70
     Davidson diagonalization with overlap
     ethr =  2.14E-09,  avg # of iterations =  4.1

     negative rho (up, down):  1.226E-06 0.000E+00

     total cpu time spent up to now is      141.4 secs

     total energy              =     -15.06680998 Ry
     estimated scf accuracy    <       0.00000013 Ry

     iteration #  5     ecut=    60.00 Ry     beta= 0.70
     Davidson diagonalization with overlap
     ethr =  1.40E-09,  avg # of iterations =  1.0

     negative rho (up, down):  1.223E-06 0.000E+00

     total cpu time spent up to now is      142.9 secs

     total energy              =     -15.06680998 Ry
     estimated scf accuracy    <          8.6E-09 Ry

     iteration #  6     ecut=    60.00 Ry     beta= 0.70
     Davidson diagonalization with overlap
     ethr =  9.54E-11,  avg # of iterations =  2.2

     negative rho (up, down):  1.222E-06 0.000E+00

     total cpu time spent up to now is      144.5 secs

     total energy              =     -15.06680999 Ry
     estimated scf accuracy    <          7.7E-10 Ry

     iteration #  7     ecut=    60.00 Ry     beta= 0.70
     Davidson diagonalization with overlap
     ethr =  8.54E-12,  avg # of iterations =  2.4

     negative rho (up, down):  1.222E-06 0.000E+00

     total cpu time spent up to now is      146.1 secs

     total energy              =     -15.06680999 Ry
     estimated scf accuracy    <          9.0E-11 Ry

     iteration #  8     ecut=    60.00 Ry     beta= 0.70
     Davidson diagonalization with overlap
     ethr =  1.00E-12,  avg # of iterations =  2.7

     negative rho (up, down):  1.222E-06 0.000E+00

     total cpu time spent up to now is      147.7 secs

     End of self-consistent calculation

          k = 0.0000 0.0000 0.0000 (  8639 PWs)   bands (ev):

   -10.8523  -9.1386  -6.4220  -3.3202   0.2521   2.7015   3.4759   4.3201
     4.4265   6.2814

          k = 0.0000 0.0962 0.0000 (  8641 PWs)   bands (ev):

   -10.6851  -8.9727  -6.2567  -3.1627   0.4089   2.8633   3.6440   4.4864
     4.5885   6.4285

          k = 0.0000 0.1925 0.0000 (  8619 PWs)   bands (ev):

   -10.1848  -8.4764  -5.7627  -2.6909   0.8701   3.3278   4.1410   4.8856
     5.0186   5.3768

          k = 0.0000 0.2887 0.0000 (  8616 PWs)   bands (ev):

    -9.3551  -7.6535  -4.9465  -1.9084   1.4659   2.3848   3.8192   4.2439
     4.9995   5.8122

          k = 0.0000 0.3849 0.0000 (  8528 PWs)   bands (ev):

    -8.2018  -6.5110  -3.8265  -0.9139  -0.3734   1.1581   2.8940   3.7480
     5.3671   6.1667

          k = 0.0000 0.4811 0.0000 (  8564 PWs)   bands (ev):

    -6.7336  -5.0627  -3.0202  -2.2540  -1.1180   0.6180   1.5107   3.9811
     4.6675   5.9263

          k = 0.0000-0.5774 0.0000 (  8530 PWs)   bands (ev):

    -4.9817  -4.9487  -3.5667  -3.0151  -0.6546  -0.4161   2.3331   2.3810
     5.7602   5.8465

          k = 0.0833 0.1443 0.0000 (  8623 PWs)   bands (ev):

   -10.3514  -8.6416  -5.9270  -2.8480   0.7187   3.1805   3.9786   4.8151
     4.9000   6.5196

          k = 0.0833 0.2406 0.0000 (  8588 PWs)   bands (ev):

    -9.6864  -7.9820  -5.2718  -2.2203   1.3066   3.5267   4.0811   4.6647
     5.2801   5.3779

          k = 0.0833 0.3368 0.0000 (  8559 PWs)   bands (ev):

    -8.6948  -6.9992  -4.3013  -1.2912   0.8620   2.2337   2.7500   4.4887
     4.7614   5.4228

          k = 0.0833 0.4330 0.0000 (  8547 PWs)   bands (ev):

    -7.3840  -5.7025  -3.0674  -1.5691  -0.0571   0.1658   2.6540   3.4382
     4.2348   5.6956

          k = 0.0833-0.6255 0.0000 (  8558 PWs)   bands (ev):

    -5.7646  -4.1218  -3.8633  -2.1981  -1.2608   0.5181   1.5978   3.3614
     3.7002   5.1546

          k = 0.1667 0.2887 0.0000 (  8535 PWs)   bands (ev):

    -8.8596  -7.1624  -4.4613  -1.4415   1.8318   2.5304   3.0588   3.9273
     4.6836   4.7510

          k = 0.1667 0.3849 0.0000 (  8571 PWs)   bands (ev):

    -7.7104  -6.0247  -3.3515  -0.4628   0.0946   1.5872   1.7691   3.1659
     3.8720   4.3841

          k = 0.1667-0.6736 0.0000 (  8581 PWs)   bands (ev):

    -6.2476  -4.5836  -2.5544  -1.7925  -0.6635   0.9215   1.4162   2.0921
     3.1577   4.5297

          k = 0.1667-0.5774 0.0000 (  8550 PWs)   bands (ev):

    -4.5066  -4.4659  -3.1050  -2.5343  -0.2183  -0.0877   1.3873   2.7258
     2.8517   3.1206

          k = 0.2500-0.7217 0.0000 (  8589 PWs)   bands (ev):

    -6.4092  -4.7406  -2.1702  -0.7798  -0.5062   0.6571   1.0498   1.3628
     3.6145   3.9273

          k = 0.2500-0.6255 0.0000 (  8555 PWs)   bands (ev):

    -4.8026  -3.1828  -2.9184  -1.2965  -1.1265  -0.2909   0.8253   1.6943
     2.5617   3.4738

          k = 0.3333-0.5774 0.0000 (  8568 PWs)   bands (ev):

    -3.0883  -3.0883  -3.0212  -1.9423  -1.1465  -1.1465   1.3672   1.3672
     1.7618   4.2140

     the Fermi energy is    -0.2741 ev

!    total energy              =     -15.06680999 Ry
     estimated scf accuracy    <          4.7E-12 Ry
     smearing contrib. (-TS)   =       0.00008353 Ry
     internal energy E=F+TS    =     -15.06689351 Ry

     The total energy is F=E-TS. E is the sum of the following terms:
     one-electron contribution =    -134.28239160 Ry
     hartree contribution      =      68.88826550 Ry
     xc contribution           =      -7.62684678 Ry
     ewald contribution        =      57.95407936 Ry

     convergence has been achieved in   8 iterations

     negative rho (up, down):  1.222E-06 0.000E+00

     Forces acting on atoms (cartesian axes, Ry/au):

     atom    1 type  1   force =     0.00000000    0.00000000    0.00013632
     atom    2 type  1   force =     0.00000000   -0.00000000    0.00000000
     atom    3 type  1   force =     0.00000000    0.00000000   -0.00013632

     Total force =     0.000193     Total SCF correction =     0.000001


     Computing stress (Cartesian axis) and pressure


     negative rho (up, down):  1.222E-06 0.000E+00
          total   stress  (Ry/bohr**3)                   (kbar)     P=       -5.05
  -0.00005091  -0.00000000   0.00000000           -7.49       -0.00        0.00
  -0.00000000  -0.00005091  -0.00000000           -0.00       -7.49       -0.00
   0.00000000   0.00000000  -0.00000113            0.00        0.00       -0.17

     Energy error            =      8.4E-06 Ry
     Gradient error          =      1.4E-04 Ry/Bohr

     bfgs converged in   9 scf cycles and   8 bfgs steps
     (criteria: energy <  1.0E-05 Ry, force <  2.0E-04 Ry/Bohr)

     End of BFGS Geometry Optimization

     Final energy             =     -15.0668099856 Ry

     File ./tmp/clean-k12-relax.bfgs deleted, as requested
Begin final coordinates

ATOMIC_POSITIONS (angstrom)
Al               2.8586989056        1.6504705827        9.1381559112
Al               0.0000000000        0.0000000000       11.4341178823    0   0   0
Al               1.4293494528        0.8252352913       13.7300798534
End final coordinates



     Writing all to output data dir ./tmp/clean-k12-relax.save/ :
     XML data file, charge density, pseudopotentials, collected wavefunctions

     init_run     :      1.17s CPU      1.26s WALL (       1 calls)
     electrons    :    108.21s CPU    118.81s WALL (       9 calls)
     update_pot   :      0.63s CPU      0.70s WALL (       8 calls)
     forces       :      5.29s CPU      5.83s WALL (       9 calls)
     stress       :     20.58s CPU     22.03s WALL (       9 calls)

     Called by init_run:
     wfcinit      :      0.36s CPU      0.38s WALL (       1 calls)
     potinit      :      0.21s CPU      0.22s WALL (       1 calls)
     hinit0       :      0.34s CPU      0.35s WALL (       1 calls)

     Called by electrons:
     c_bands      :     64.16s CPU     66.54s WALL (      70 calls)
     sum_band     :     25.17s CPU     29.48s WALL (      70 calls)
     v_of_rho     :      5.13s CPU      5.40s WALL (      79 calls)
     newd         :     14.80s CPU     18.77s WALL (      79 calls)
     mix_rho      :      0.58s CPU      0.61s WALL (      70 calls)

     Called by c_bands:
     init_us_2    :      1.62s CPU      1.64s WALL (    3021 calls)
     cegterg      :     59.54s CPU     61.89s WALL (    1330 calls)

     Called by *egterg:
     cdiaghg      :      0.82s CPU      0.82s WALL (    5237 calls)
     h_psi        :     41.83s CPU     44.06s WALL (    5408 calls)
     s_psi        :      6.42s CPU      6.47s WALL (    5408 calls)
     g_psi        :      0.14s CPU      0.14s WALL (    4059 calls)

     Called by h_psi:
     h_psi:calbec :      6.75s CPU      6.93s WALL (    5408 calls)
     vloc_psi     :     28.93s CPU     30.93s WALL (    5408 calls)
                                        0.00s GPU  (    5408 calls)
     add_vuspsi   :      6.00s CPU      6.04s WALL (    5408 calls)

     General routines
     calbec       :     14.41s CPU     14.70s WALL (    9645 calls)
     fft          :      5.49s CPU      5.90s WALL (    1242 calls)
     ffts         :      0.23s CPU      0.23s WALL (     149 calls)
     fftw         :     31.38s CPU     33.57s WALL (   84018 calls)
     interpolate  :      0.48s CPU      0.51s WALL (      79 calls)

     Parallel routines

     PWSCF        :   2m17.71s CPU   2m30.90s WALL


   This run was terminated on:   0:15:23  23Sep2026            

=------------------------------------------------------------------------------=
   JOB DONE.
=------------------------------------------------------------------------------=
