HfCl2_3                                 
   1.00000000000000     
     3.3875278554720047    0.0000000000000933    0.0000000000000000
    -1.6937639276858394    2.9336851788810048    0.0000000000000000
     0.0000000000000001    0.0000000000000000  100.2389326567762424
   Cl   Hf
    16     8
Direct
 -0.0000000000000000 -0.0000000000000000  0.0815582211030179
 -0.0000000000000000 -0.0000000000000000  0.0476341459809659
 -0.0000000000000000 -0.0000000000000000  0.2753392193775338
 -0.0000000000000000 -0.0000000000000000  0.2415052374376362
  0.0000000000000000 -0.0000000000000000  0.4691293891982398
 -0.0000000000000000 -0.0000000000000000  0.4352980152977044
  0.6666666670000012  0.3333333329999988  0.1461454542348893
  0.6666666670000012  0.3333333329999988  0.1123147450939592
  0.6666666670000012  0.3333333329999988  0.3399329533562542
  0.6666666670000012  0.3333333329999988  0.3060995336393484
  0.6666666670000012  0.3333333329999988  0.5338009202059498
  0.6666666670000012  0.3333333329999988  0.4998778619769747
  0.3333333329999988  0.6666666670000012  0.1769033030595408
  0.3333333329999988  0.6666666670000012  0.2107363288852785
  0.3333333329999988  0.6666666670000012  0.3707004614710223
  0.3333333329999988  0.6666666670000012  0.4045339606854556
  0.0000000000000000 -0.0000000000000000  0.1938220219587743
 -0.0000000000000000 -0.0000000000000000  0.3876193391358690
  0.6666666670000012  0.3333333329999988  0.0646252110688597
  0.6666666670000012  0.3333333329999988  0.2584250129671187
  0.6666666670000012  0.3333333329999988  0.4522159883693868
  0.3333333329999988  0.6666666670000012  0.1292324875612501
  0.3333333329999988  0.6666666670000012  0.3230183319708799
  0.3333333329999988  0.6666666670000012  0.5168118309640928
 
  0.00000000E+00  0.00000000E+00  0.00000000E+00
  0.00000000E+00  0.00000000E+00  0.00000000E+00
  0.00000000E+00  0.00000000E+00  0.00000000E+00
  0.00000000E+00  0.00000000E+00  0.00000000E+00
  0.00000000E+00  0.00000000E+00  0.00000000E+00
  0.00000000E+00  0.00000000E+00  0.00000000E+00
  0.00000000E+00  0.00000000E+00  0.00000000E+00
  0.00000000E+00  0.00000000E+00  0.00000000E+00
  0.00000000E+00  0.00000000E+00  0.00000000E+00
  0.00000000E+00  0.00000000E+00  0.00000000E+00
  0.00000000E+00  0.00000000E+00  0.00000000E+00
  0.00000000E+00  0.00000000E+00  0.00000000E+00
  0.00000000E+00  0.00000000E+00  0.00000000E+00
  0.00000000E+00  0.00000000E+00  0.00000000E+00
  0.00000000E+00  0.00000000E+00  0.00000000E+00
  0.00000000E+00  0.00000000E+00  0.00000000E+00
  0.00000000E+00  0.00000000E+00  0.00000000E+00
  0.00000000E+00  0.00000000E+00  0.00000000E+00
  0.00000000E+00  0.00000000E+00  0.00000000E+00
  0.00000000E+00  0.00000000E+00  0.00000000E+00
  0.00000000E+00  0.00000000E+00  0.00000000E+00
  0.00000000E+00  0.00000000E+00  0.00000000E+00
  0.00000000E+00  0.00000000E+00  0.00000000E+00
  0.00000000E+00  0.00000000E+00  0.00000000E+00
