HfCl2_3                                 
   1.00000000000000     
     3.3875278554720047    0.0000000000000933    0.0000000000000000
    -1.6937639276858394    2.9336851788810048    0.0000000000000000
     0.0000000000000001    0.0000000000000000  100.2389326567762424
   Cl   Hf
    16     8
Direct
  0.0000000000000000  0.0000000000000000  0.0817212629607980
  0.0000000000000000  0.0000000000000000  0.0474751620923470
  0.0000000000000000  0.0000000000000000  0.2754922467159560
  0.0000000000000000  0.0000000000000000  0.2413517818014199
  0.0000000000000000  0.0000000000000000  0.4692826183104657
  0.0000000000000000  0.0000000000000000  0.4351453761044226
  0.6666666670000012  0.3333333329999988  0.1462954755516392
  0.6666666670000012  0.3333333329999988  0.1121589348619025
  0.6666666670000012  0.3333333329999988  0.3400878891636410
  0.6666666670000012  0.3333333329999988  0.3059469155457393
  0.6666666670000012  0.3333333329999988  0.5339608958693560
  0.6666666670000012  0.3333333329999988  0.4997145044005293
  0.3333333329999988  0.6666666670000012  0.1767506600555748
  0.3333333329999988  0.6666666670000012  0.2108909492501496
  0.3333333329999988  0.6666666670000012  0.3705473355759707
  0.3333333329999988  0.6666666670000012  0.4046884588129842
  0.0000000000000000  0.0000000000000000  0.1938228266249880
  0.0000000000000000  0.0000000000000000  0.3876198307693812
  0.6666666670000012  0.3333333329999988  0.0646320241692067
  0.6666666670000012  0.3333333329999988  0.2584248429255922
  0.6666666670000012  0.3333333329999988  0.4522162930600402
  0.3333333329999988  0.6666666670000012  0.1292292648167006
  0.3333333329999988  0.6666666670000012  0.3230192771685267
  0.3333333329999988  0.6666666670000012  0.5168051483926703
 
  0.00000000E+00  0.00000000E+00  0.00000000E+00
  0.00000000E+00  0.00000000E+00  0.00000000E+00
  0.00000000E+00  0.00000000E+00  0.00000000E+00
  0.00000000E+00  0.00000000E+00  0.00000000E+00
  0.00000000E+00  0.00000000E+00  0.00000000E+00
  0.00000000E+00  0.00000000E+00  0.00000000E+00
  0.00000000E+00  0.00000000E+00  0.00000000E+00
  0.00000000E+00  0.00000000E+00  0.00000000E+00
  0.00000000E+00  0.00000000E+00  0.00000000E+00
  0.00000000E+00  0.00000000E+00  0.00000000E+00
  0.00000000E+00  0.00000000E+00  0.00000000E+00
  0.00000000E+00  0.00000000E+00  0.00000000E+00
  0.00000000E+00  0.00000000E+00  0.00000000E+00
  0.00000000E+00  0.00000000E+00  0.00000000E+00
  0.00000000E+00  0.00000000E+00  0.00000000E+00
  0.00000000E+00  0.00000000E+00  0.00000000E+00
  0.00000000E+00  0.00000000E+00  0.00000000E+00
  0.00000000E+00  0.00000000E+00  0.00000000E+00
  0.00000000E+00  0.00000000E+00  0.00000000E+00
  0.00000000E+00  0.00000000E+00  0.00000000E+00
  0.00000000E+00  0.00000000E+00  0.00000000E+00
  0.00000000E+00  0.00000000E+00  0.00000000E+00
  0.00000000E+00  0.00000000E+00  0.00000000E+00
  0.00000000E+00  0.00000000E+00  0.00000000E+00
