       N       E                     dE             d eps       ncg     rms          rms(c)
DAV:   1     0.123881809534E+04    0.12388E+04   -0.66056E+04  8528   0.109E+03
DAV:   2     0.404364297142E+01   -0.12348E+04   -0.12038E+04  9096   0.298E+02
DAV:   3    -0.102988673007E+03   -0.10703E+03   -0.10613E+03  8408   0.819E+01
DAV:   4    -0.107358108061E+03   -0.43694E+01   -0.43502E+01  9496   0.161E+01
DAV:   5    -0.107488448412E+03   -0.13034E+00   -0.13014E+00  9936   0.282E+00    0.233E+01
DAV:   6    -0.105629734742E+03    0.18587E+01   -0.11442E+00  8392   0.294E+00    0.187E+01
DAV:   7    -0.102709284340E+03    0.29205E+01   -0.11802E+01  8120   0.961E+00    0.717E+00
DAV:   8    -0.102676611912E+03    0.32672E-01   -0.32907E+00  8760   0.462E+00    0.494E+00
DAV:   9    -0.102831712821E+03   -0.15510E+00   -0.46244E-01  9720   0.186E+00    0.359E+00
DAV:  10    -0.102648496429E+03    0.18322E+00   -0.17497E-01  8176   0.121E+00    0.250E+00
DAV:  11    -0.102433939084E+03    0.21456E+00   -0.83985E-01  8136   0.273E+00    0.146E+00
DAV:  12    -0.102442809154E+03   -0.88701E-02   -0.86650E-02  8960   0.638E-01    0.483E-01
DAV:  13    -0.102438412110E+03    0.43970E-02   -0.10005E-02  8456   0.252E-01    0.698E-01
DAV:  14    -0.102438496661E+03   -0.84551E-04   -0.23744E-03  8688   0.123E-01    0.474E-01
DAV:  15    -0.102437799099E+03    0.69756E-03   -0.59460E-03  8208   0.239E-01    0.345E-01
DAV:  16    -0.102437951563E+03   -0.15246E-03   -0.11814E-03  9128   0.751E-02    0.340E-01
DAV:  17    -0.102437943351E+03    0.82114E-05   -0.10153E-04  8512   0.252E-02    0.334E-01
DAV:  18    -0.102437934198E+03    0.91535E-05   -0.18241E-05  7816   0.107E-02    0.342E-01
DAV:  19    -0.102437740000E+03    0.19420E-03   -0.37577E-04  8168   0.472E-02    0.245E-01
DAV:  20    -0.102437739204E+03    0.79580E-06   -0.95292E-05  7912   0.208E-02    0.239E-01
DAV:  21    -0.102437732317E+03    0.68872E-05   -0.72916E-06  8216   0.673E-03    0.224E-01
DAV:  22    -0.102437729265E+03    0.30517E-05   -0.19066E-06  5992   0.349E-03    0.222E-01
DAV:  23    -0.102437715732E+03    0.13534E-04   -0.78022E-06  7448   0.781E-03    0.187E-01
DAV:  24    -0.102437712173E+03    0.35591E-05   -0.56499E-06  7680   0.502E-03    0.171E-01
DAV:  25    -0.102437712551E+03   -0.37805E-06   -0.43654E-07  4568   0.190E-03
   1 F= -.10755363E+03 E0= -.10755363E+03  d E =-.423680E-08
