    6    6    1    1
  0.4934291E+02  0.3375590E-09  0.3375734E-09  0.3000000E-08  0.5000000E-15
  1.000000000000000E-004
  CAR 
 HfCl2/PbO2 PBE-D3BJ vacuum 30 A dipole  
     50     64     32
 
  0.0000000E+00  0.0000000E+00  0.0000000E+00  0.4444444E-02
    1      -32.910139   1.000000
    2      -32.485941   1.000000
    3      -32.485860   1.000000
    4      -21.117198   1.000000
    5      -19.515041   1.000000
    6      -19.264093   1.000000
    7      -18.691484   1.000000
    8      -18.441425   1.000000
    9      -18.441331   1.000000
   10      -18.149607   1.000000
   11      -18.101965   1.000000
   12      -18.101954   1.000000
   13       -9.047152   1.000000
   14       -7.940557   1.000000
   15       -6.548658   1.000000
   16       -6.036060   1.000000
   17       -6.035710   1.000000
   18       -5.722946   1.000000
   19       -5.722738   1.000000
   20       -4.539727   1.000000
   21       -4.539642   1.000000
   22       -3.810911   1.000000
   23       -3.630627   1.000000
   24       -3.630476   1.000000
   25       -2.010987   1.000000
   26       -1.243960   0.071158
   27        0.341607   0.000000
   28        0.342285   0.000000
   29        0.697437   0.000000
   30        1.210386   0.000000
   31        1.210773   0.000000
   32        1.913357   0.000000
 
  0.6666667E-01  0.6245566E-17  0.0000000E+00  0.1777778E-01
    1      -32.906231   1.000000
    2      -32.503362   1.000000
    3      -32.489702   1.000000
    4      -21.074469   1.000000
    5      -19.559242   1.000000
    6      -19.341172   1.000000
    7      -18.703380   1.000000
    8      -18.425444   1.000000
    9      -18.293481   1.000000
   10      -18.146089   1.000000
   11      -18.103802   1.000000
   12      -18.043521   1.000000
   13       -8.987592   1.000000
   14       -8.036974   1.000000
   15       -6.609540   1.000000
   16       -6.216626   1.000000
   17       -6.033669   1.000000
   18       -5.815485   1.000000
   19       -5.776935   1.000000
   20       -4.614944   1.000000
   21       -4.597885   1.000000
   22       -3.867795   1.000000
   23       -3.666866   1.000000
   24       -3.627682   1.000000
   25       -1.871668   1.000000
   26       -1.276124   0.288597
   27        0.274956   0.000000
   28        0.397114   0.000000
   29        0.926656   0.000000
   30        1.214619   0.000000
   31        1.291526   0.000000
   32        2.086931   0.000000
 
  0.1333333E+00 -0.1654547E-18  0.0000000E+00  0.1777778E-01
    1      -32.895178   1.000000
    2      -32.552416   1.000000
    3      -32.500397   1.000000
    4      -20.954639   1.000000
    5      -19.802068   1.000000
    6      -19.286541   1.000000
    7      -18.684300   1.000000
    8      -18.381726   1.000000
    9      -18.220830   1.000000
   10      -18.134397   1.000000
   11      -18.107106   1.000000
   12      -17.735707   1.000000
   13       -8.822229   1.000000
   14       -8.308153   1.000000
   15       -6.798962   1.000000
   16       -6.665919   1.000000
   17       -6.036947   1.000000
   18       -6.036066   1.000000
   19       -5.916811   1.000000
   20       -4.860066   1.000000
   21       -4.762907   1.000000
   22       -4.045512   1.000000
   23       -3.669195   1.000000
   24       -3.616323   1.000000
   25       -1.650355   1.000000
   26       -1.268215   0.217347
   27        0.224586   0.000000
   28        0.571508   0.000000
   29        1.142785   0.000000
   30        1.507927   0.000000
   31        1.603423   0.000000
   32        2.493064   0.000000
 
  0.2000000E+00  0.6080111E-17  0.0000000E+00  0.1777778E-01
    1      -32.878851   1.000000
    2      -32.623694   1.000000
    3      -32.516105   1.000000
    4      -20.792882   1.000000
    5      -20.059286   1.000000
    6      -19.131880   1.000000
    7      -18.641060   1.000000
    8      -18.324227   1.000000
    9      -18.236113   1.000000
   10      -18.114146   1.000000
   11      -18.103577   1.000000
   12      -17.322295   1.000000
   13       -8.739495   1.000000
   14       -8.549325   1.000000
   15       -7.288478   1.000000
   16       -7.050539   1.000000
   17       -6.266158   1.000000
   18       -6.148768   1.000000
   19       -6.005577   1.000000
   20       -5.285450   1.000000
   21       -5.004377   1.000000
   22       -4.208656   1.000000
   23       -3.623115   1.000000
   24       -3.594340   1.000000
   25       -1.798451   1.000000
   26       -0.889768   0.000000
   27        0.320553   0.000000
   28        0.881577   0.000000
   29        1.251447   0.000000
   30        1.793781   0.000000
   31        2.257809   0.000000
   32        2.945542   0.000000
 
  0.2666667E+00  0.2403711E-16  0.0000000E+00  0.1777778E-01
    1      -32.860037   1.000000
    2      -32.704134   1.000000
    3      -32.534063   1.000000
    4      -20.703500   1.000000
    5      -20.158273   1.000000
    6      -18.941477   1.000000
    7      -18.586757   1.000000
    8      -18.278342   1.000000
    9      -18.269902   1.000000
   10      -18.091079   1.000000
   11      -18.077087   1.000000
   12      -16.923499   1.000000
   13       -9.166808   1.000000
   14       -8.344899   1.000000
   15       -7.819290   1.000000
   16       -7.433566   1.000000
   17       -6.428767   1.000000
   18       -6.355479   1.000000
   19       -6.022916   1.000000
   20       -5.790063   1.000000
   21       -5.275643   1.000000
   22       -4.319966   1.000000
   23       -3.565114   1.000000
   24       -3.560155   1.000000
   25       -2.030332   1.000000
   26       -0.470768   0.000000
   27        0.598645   0.000000
   28        1.331756   0.000000
   29        1.390807   0.000000
   30        2.075726   0.000000
   31        2.785901   0.000000
   32        3.330806   0.000000
 
  0.3333333E+00  0.3244903E-16  0.0000000E+00  0.1777778E-01
    1      -32.842011   1.000000
    2      -32.779671   1.000000
    3      -32.551169   1.000000
    4      -20.783627   1.000000
    5      -20.017034   1.000000
    6      -18.752459   1.000000
    7      -18.532195   1.000000
    8      -18.309243   1.000000
    9      -18.260791   1.000000
   10      -18.070170   1.000000
   11      -18.022997   1.000000
   12      -16.586125   1.000000
   13       -9.579354   1.000000
   14       -8.504673   1.000000
   15       -7.920328   1.000000
   16       -7.810034   1.000000
   17       -6.562547   1.000000
   18       -6.543020   1.000000
   19       -6.223809   1.000000
   20       -6.047894   1.000000
   21       -5.525395   1.000000
   22       -4.406530   1.000000
   23       -3.535174   1.000000
   24       -3.497165   1.000000
   25       -2.193244   1.000000
   26       -0.182397   0.000000
   27        1.020121   0.000000
   28        1.541378   0.000000
   29        1.888168   0.000000
   30        2.305320   0.000000
   31        3.080558   0.000000
   32        3.462968   0.000000
 
  0.4000000E+00  0.1216022E-16  0.0000000E+00  0.1777778E-01
    1      -32.838490   1.000000
    2      -32.827206   1.000000
    3      -32.564485   1.000000
    4      -20.893402   1.000000
    5      -19.815932   1.000000
    6      -18.601734   1.000000
    7      -18.487802   1.000000
    8      -18.345426   1.000000
    9      -18.259908   1.000000
   10      -18.055098   1.000000
   11      -17.966130   1.000000
   12      -16.343456   1.000000
   13       -9.895068   1.000000
   14       -8.838576   1.000000
   15       -8.109390   1.000000
   16       -7.780242   1.000000
   17       -6.766603   1.000000
   18       -6.681400   1.000000
   19       -6.424793   1.000000
   20       -6.081042   1.000000
   21       -5.708452   1.000000
   22       -4.473762   1.000000
   23       -3.511063   1.000000
   24       -3.444242   1.000000
   25       -2.267467   1.000000
   26       -0.032572   0.000000
   27        1.368095   0.000000
   28        1.776133   0.000000
   29        2.371562   0.000000
   30        2.549044   0.000000
   31        3.246387   0.000000
   32        3.432361   0.000000
 
  0.4666667E+00 -0.2627358E-16  0.0000000E+00  0.1777778E-01
    1      -32.869602   1.000000
    2      -32.819851   1.000000
    3      -32.571754   1.000000
    4      -20.956755   1.000000
    5      -19.684917   1.000000
    6      -18.521434   1.000000
    7      -18.462438   1.000000
    8      -18.366198   1.000000
    9      -18.262181   1.000000
   10      -18.047545   1.000000
   11      -17.931568   1.000000
   12      -16.217417   1.000000
   13      -10.065265   1.000000
   14       -9.027630   1.000000
   15       -8.268895   1.000000
   16       -7.709346   1.000000
   17       -6.923679   1.000000
   18       -6.754386   1.000000
   19       -6.472564   1.000000
   20       -6.108638   1.000000
   21       -5.799779   1.000000
   22       -4.511617   1.000000
   23       -3.497710   1.000000
   24       -3.412582   1.000000
   25       -2.286850   1.000000
   26        0.026622   0.000000
   27        1.468530   0.000000
   28        2.032718   0.000000
   29        2.481666   0.000000
   30        2.916908   0.000000
   31        3.294507   0.000000
   32        3.709248   0.000000
 
  0.0000000E+00  0.6666667E-01  0.0000000E+00  0.8888889E-02
    1      -32.906232   1.000000
    2      -32.503421   1.000000
    3      -32.489640   1.000000
    4      -21.074479   1.000000
    5      -19.559227   1.000000
    6      -19.341166   1.000000
    7      -18.703382   1.000000
    8      -18.425379   1.000000
    9      -18.293568   1.000000
   10      -18.146097   1.000000
   11      -18.103808   1.000000
   12      -18.043511   1.000000
   13       -8.987599   1.000000
   14       -8.036980   1.000000
   15       -6.609547   1.000000
   16       -6.216864   1.000000
   17       -6.033405   1.000000
   18       -5.815633   1.000000
   19       -5.776762   1.000000
   20       -4.615011   1.000000
   21       -4.597813   1.000000
   22       -3.867794   1.000000
   23       -3.666965   1.000000
   24       -3.627562   1.000000
   25       -1.871686   1.000000
   26       -1.276148   0.288833
   27        0.274561   0.000000
   28        0.397614   0.000000
   29        0.926593   0.000000
   30        1.214392   0.000000
   31        1.291799   0.000000
   32        2.086931   0.000000
 
  0.6666667E-01  0.6666667E-01  0.0000000E+00  0.1777778E-01
    1      -32.898760   1.000000
    2      -32.536092   1.000000
    3      -32.497478   1.000000
    4      -20.992790   1.000000
    5      -19.727884   1.000000
    6      -19.316054   1.000000
    7      -18.692617   1.000000
    8      -18.392999   1.000000
    9      -18.224470   1.000000
   10      -18.143771   1.000000
   11      -18.101386   1.000000
   12      -17.840262   1.000000
   13       -8.874576   1.000000
   14       -8.221193   1.000000
   15       -6.727580   1.000000
   16       -6.528461   1.000000
   17       -6.043784   1.000000
   18       -5.989053   1.000000
   19       -5.856122   1.000000
   20       -4.766585   1.000000
   21       -4.723000   1.000000
   22       -3.972733   1.000000
   23       -3.673019   1.000000
   24       -3.640229   1.000000
   25       -1.678362   1.000000
   26       -1.301870   0.567784
   27        0.214909   0.000000
   28        0.521529   0.000000
   29        1.123053   0.000000
   30        1.434092   0.000000
   31        1.442860   0.000000
   32        2.376942   0.000000
 
  0.1333333E+00  0.6666667E-01  0.0000000E+00  0.1777778E-01
    1      -32.885063   1.000000
    2      -32.594708   1.000000
    3      -32.512208   1.000000
    4      -20.847007   1.000000
    5      -19.985292   1.000000
    6      -19.192901   1.000000
    7      -18.658551   1.000000
    8      -18.334785   1.000000
    9      -18.222736   1.000000
   10      -18.140892   1.000000
   11      -18.090332   1.000000
   12      -17.476620   1.000000
   13       -8.687310   1.000000
   14       -8.538056   1.000000
   15       -7.069405   1.000000
   16       -6.906742   1.000000
   17       -6.287173   1.000000
   18       -6.048628   1.000000
   19       -5.984711   1.000000
   20       -5.115753   1.000000
   21       -4.917366   1.000000
   22       -4.122946   1.000000
   23       -3.652781   1.000000
   24       -3.634075   1.000000
   25       -1.698208   1.000000
   26       -1.050965   0.000000
   27        0.218057   0.000000
   28        0.790477   0.000000
   29        1.236179   0.000000
   30        1.669720   0.000000
   31        2.044149   0.000000
   32        2.801701   0.000000
 
  0.2000000E+00  0.6666667E-01  0.0000000E+00  0.1777778E-01
    1      -32.867486   1.000000
    2      -32.668511   1.000000
    3      -32.531063   1.000000
    4      -20.698913   1.000000
    5      -20.181135   1.000000
    6      -19.018261   1.000000
    7      -18.609227   1.000000
    8      -18.277164   1.000000
    9      -18.242804   1.000000
   10      -18.120843   1.000000
   11      -18.072908   1.000000
   12      -17.087632   1.000000
   13       -8.988721   1.000000
   14       -8.409418   1.000000
   15       -7.610857   1.000000
   16       -7.240053   1.000000
   17       -6.532081   1.000000
   18       -6.171154   1.000000
   19       -6.063409   1.000000
   20       -5.567395   1.000000
   21       -5.176176   1.000000
   22       -4.269447   1.000000
   23       -3.628755   1.000000
   24       -3.576579   1.000000
   25       -1.903029   1.000000
   26       -0.623143   0.000000
   27        0.370184   0.000000
   28        1.196499   0.000000
   29        1.402171   0.000000
   30        1.935741   0.000000
   31        2.645960   0.000000
   32        3.249838   0.000000
 
  0.2666667E+00  0.6666667E-01  0.0000000E+00  0.1777778E-01
    1      -32.849052   1.000000
    2      -32.744351   1.000000
    3      -32.550709   1.000000
    4      -20.704231   1.000000
    5      -20.152172   1.000000
    6      -18.827766   1.000000
    7      -18.554620   1.000000
    8      -18.290340   1.000000
    9      -18.225248   1.000000
   10      -18.076809   1.000000
   11      -18.043840   1.000000
   12      -16.735579   1.000000
   13       -9.414640   1.000000
   14       -8.321955   1.000000
   15       -7.961372   1.000000
   16       -7.625596   1.000000
   17       -6.691375   1.000000
   18       -6.354826   1.000000
   19       -6.118700   1.000000
   20       -6.004384   1.000000
   21       -5.447938   1.000000
   22       -4.391350   1.000000
   23       -3.596101   1.000000
   24       -3.510119   1.000000
   25       -2.078746   1.000000
   26       -0.264705   0.000000
   27        0.697663   0.000000
   28        1.503255   0.000000
   29        1.793021   0.000000
   30        2.178679   0.000000
   31        3.077020   0.000000
   32        3.564257   0.000000
 
  0.3333333E+00  0.6666667E-01  0.0000000E+00  0.1777778E-01
    1      -32.833100   1.000000
    2      -32.809194   1.000000
    3      -32.567753   1.000000
    4      -20.819272   1.000000
    5      -19.968813   1.000000
    6      -18.657008   1.000000
    7      -18.504979   1.000000
    8      -18.324692   1.000000
    9      -18.206679   1.000000
   10      -18.055398   1.000000
   11      -17.979911   1.000000
   12      -16.459542   1.000000
   13       -9.778972   1.000000
   14       -8.649362   1.000000
   15       -7.974502   1.000000
   16       -7.839893   1.000000
   17       -6.798960   1.000000
   18       -6.568893   1.000000
   19       -6.324652   1.000000
   20       -6.158232   1.000000
   21       -5.671088   1.000000
   22       -4.490469   1.000000
   23       -3.564162   1.000000
   24       -3.451250   1.000000
   25       -2.169409   1.000000
   26       -0.047192   0.000000
   27        1.158663   0.000000
   28        1.653485   0.000000
   29        2.264042   0.000000
   30        2.430460   0.000000
   31        3.318650   0.000000
   32        3.568285   0.000000
 
  0.4000000E+00  0.6666667E-01  0.0000000E+00  0.1777778E-01
    1      -32.853187   1.000000
    2      -32.821717   1.000000
    3      -32.579281   1.000000
    4      -20.909862   1.000000
    5      -19.808147   1.000000
    6      -18.541203   1.000000
    7      -18.469359   1.000000
    8      -18.349831   1.000000
    9      -18.194055   1.000000
   10      -18.049364   1.000000
   11      -17.923304   1.000000
   12      -16.285737   1.000000
   13      -10.022598   1.000000
   14       -8.911481   1.000000
   15       -8.204711   1.000000
   16       -7.728064   1.000000
   17       -6.892423   1.000000
   18       -6.742587   1.000000
   19       -6.457247   1.000000
   20       -6.206357   1.000000
   21       -5.808947   1.000000
   22       -4.558623   1.000000
   23       -3.540394   1.000000
   24       -3.409793   1.000000
   25       -2.192569   1.000000
   26        0.056130   0.000000
   27        1.509857   0.000000
   28        1.879879   0.000000
   29        2.400490   0.000000
   30        2.733303   0.000000
   31        3.434858   0.000000
   32        3.670469   0.000000
 
  0.4666667E+00  0.6666667E-01  0.0000000E+00  0.1777778E-01
    1      -32.868441   1.000000
    2      -32.817890   1.000000
    3      -32.583350   1.000000
    4      -20.942105   1.000000
    5      -19.746381   1.000000
    6      -18.502892   1.000000
    7      -18.455194   1.000000
    8      -18.357744   1.000000
    9      -18.188802   1.000000
   10      -18.048445   1.000000
   11      -17.901890   1.000000
   12      -16.226823   1.000000
   13      -10.108035   1.000000
   14       -9.004180   1.000000
   15       -8.286105   1.000000
   16       -7.692232   1.000000
   17       -6.943613   1.000000
   18       -6.789386   1.000000
   19       -6.495747   1.000000
   20       -6.225237   1.000000
   21       -5.854007   1.000000
   22       -4.583144   1.000000
   23       -3.531309   1.000000
   24       -3.394759   1.000000
   25       -2.192859   1.000000
   26        0.085833   0.000000
   27        1.578668   0.000000
   28        2.074500   0.000000
   29        2.431002   0.000000
   30        2.841852   0.000000
   31        3.391379   0.000000
   32        3.889419   0.000000
 
 -0.4666667E+00  0.6666667E-01  0.0000000E+00  0.1777778E-01
    1      -32.853195   1.000000
    2      -32.821715   1.000000
    3      -32.579280   1.000000
    4      -20.909872   1.000000
    5      -19.808118   1.000000
    6      -18.541193   1.000000
    7      -18.469352   1.000000
    8      -18.349828   1.000000
    9      -18.194092   1.000000
   10      -18.049359   1.000000
   11      -17.923302   1.000000
   12      -16.285702   1.000000
   13      -10.022598   1.000000
   14       -8.911516   1.000000
   15       -8.204734   1.000000
   16       -7.728060   1.000000
   17       -6.892495   1.000000
   18       -6.742590   1.000000
   19       -6.457186   1.000000
   20       -6.206319   1.000000
   21       -5.808959   1.000000
   22       -4.558591   1.000000
   23       -3.540395   1.000000
   24       -3.409792   1.000000
   25       -2.192614   1.000000
   26        0.056107   0.000000
   27        1.509808   0.000000
   28        1.879776   0.000000
   29        2.400474   0.000000
   30        2.733330   0.000000
   31        3.434956   0.000000
   32        3.670742   0.000000
 
 -0.4000000E+00  0.6666667E-01  0.0000000E+00  0.1777778E-01
    1      -32.833098   1.000000
    2      -32.809207   1.000000
    3      -32.567754   1.000000
    4      -20.819289   1.000000
    5      -19.968770   1.000000
    6      -18.656989   1.000000
    7      -18.504967   1.000000
    8      -18.324685   1.000000
    9      -18.206736   1.000000
   10      -18.055402   1.000000
   11      -17.979902   1.000000
   12      -16.459478   1.000000
   13       -9.778971   1.000000
   14       -8.649420   1.000000
   15       -7.974542   1.000000
   16       -7.839886   1.000000
   17       -6.799072   1.000000
   18       -6.568851   1.000000
   19       -6.324611   1.000000
   20       -6.158169   1.000000
   21       -5.671109   1.000000
   22       -4.490413   1.000000
   23       -3.564157   1.000000
   24       -3.451258   1.000000
   25       -2.169481   1.000000
   26       -0.047225   0.000000
   27        1.158575   0.000000
   28        1.653405   0.000000
   29        2.264105   0.000000
   30        2.430571   0.000000
   31        3.318715   0.000000
   32        3.568280   0.000000
 
 -0.3333333E+00  0.6666667E-01  0.0000000E+00  0.1777778E-01
    1      -32.849048   1.000000
    2      -32.744364   1.000000
    3      -32.550714   1.000000
    4      -20.704238   1.000000
    5      -20.152146   1.000000
    6      -18.827742   1.000000
    7      -18.554605   1.000000
    8      -18.290323   1.000000
    9      -18.225315   1.000000
   10      -18.076822   1.000000
   11      -18.043825   1.000000
   12      -16.735496   1.000000
   13       -9.414636   1.000000
   14       -8.321980   1.000000
   15       -7.961398   1.000000
   16       -7.625648   1.000000
   17       -6.691471   1.000000
   18       -6.354731   1.000000
   19       -6.118655   1.000000
   20       -6.004413   1.000000
   21       -5.447961   1.000000
   22       -4.391286   1.000000
   23       -3.596083   1.000000
   24       -3.510145   1.000000
   25       -2.078820   1.000000
   26       -0.264730   0.000000
   27        0.697642   0.000000
   28        1.503142   0.000000
   29        1.793087   0.000000
   30        2.178716   0.000000
   31        3.077024   0.000000
   32        3.564254   0.000000
 
 -0.2666667E+00  0.6666667E-01  0.0000000E+00  0.1777778E-01
    1      -32.867482   1.000000
    2      -32.668516   1.000000
    3      -32.531076   1.000000
    4      -20.698878   1.000000
    5      -20.181165   1.000000
    6      -19.018237   1.000000
    7      -18.609211   1.000000
    8      -18.277164   1.000000
    9      -18.242852   1.000000
   10      -18.120816   1.000000
   11      -18.072929   1.000000
   12      -17.087540   1.000000
   13       -8.988713   1.000000
   14       -8.409389   1.000000
   15       -7.610911   1.000000
   16       -7.240096   1.000000
   17       -6.532150   1.000000
   18       -6.171089   1.000000
   19       -6.063393   1.000000
   20       -5.567447   1.000000
   21       -5.176199   1.000000
   22       -4.269395   1.000000
   23       -3.628724   1.000000
   24       -3.576627   1.000000
   25       -1.903072   1.000000
   26       -0.623145   0.000000
   27        0.370229   0.000000
   28        1.196424   0.000000
   29        1.402004   0.000000
   30        1.935804   0.000000
   31        2.645977   0.000000
   32        3.249842   0.000000
 
 -0.2000000E+00  0.6666667E-01  0.0000000E+00  0.1777778E-01
    1      -32.885060   1.000000
    2      -32.594694   1.000000
    3      -32.512238   1.000000
    4      -20.846966   1.000000
    5      -19.985345   1.000000
    6      -19.192882   1.000000
    7      -18.658537   1.000000
    8      -18.334832   1.000000
    9      -18.222731   1.000000
   10      -18.140841   1.000000
   11      -18.090373   1.000000
   12      -17.476531   1.000000
   13       -8.687288   1.000000
   14       -8.538037   1.000000
   15       -7.069397   1.000000
   16       -6.906751   1.000000
   17       -6.287218   1.000000
   18       -6.048688   1.000000
   19       -5.984715   1.000000
   20       -5.115784   1.000000
   21       -4.917380   1.000000
   22       -4.122928   1.000000
   23       -3.652748   1.000000
   24       -3.634137   1.000000
   25       -1.698200   1.000000
   26       -1.050942   0.000000
   27        0.218170   0.000000
   28        0.790246   0.000000
   29        1.236043   0.000000
   30        1.669734   0.000000
   31        2.044206   0.000000
   32        2.801693   0.000000
 
 -0.1333333E+00  0.6666667E-01  0.0000000E+00  0.8888889E-02
    1      -32.898757   1.000000
    2      -32.536048   1.000000
    3      -32.497534   1.000000
    4      -20.992764   1.000000
    5      -19.727935   1.000000
    6      -19.316045   1.000000
    7      -18.692609   1.000000
    8      -18.393066   1.000000
    9      -18.224417   1.000000
   10      -18.143732   1.000000
   11      -18.101417   1.000000
   12      -17.840204   1.000000
   13       -8.874557   1.000000
   14       -8.221179   1.000000
   15       -6.727568   1.000000
   16       -6.528316   1.000000
   17       -6.043953   1.000000
   18       -5.989065   1.000000
   19       -5.856203   1.000000
   20       -4.766600   1.000000
   21       -4.722999   1.000000
   22       -3.972739   1.000000
   23       -3.672956   1.000000
   24       -3.640335   1.000000
   25       -1.678323   1.000000
   26       -1.301831   0.567350
   27        0.215173   0.000000
   28        0.521091   0.000000
   29        1.123072   0.000000
   30        1.433917   0.000000
   31        1.442999   0.000000
   32        2.376931   0.000000
 
  0.0000000E+00  0.1333333E+00  0.0000000E+00  0.8888889E-02
    1      -32.895181   1.000000
    2      -32.552466   1.000000
    3      -32.500331   1.000000
    4      -20.954680   1.000000
    5      -19.801999   1.000000
    6      -19.286555   1.000000
    7      -18.684311   1.000000
    8      -18.381676   1.000000
    9      -18.220886   1.000000
   10      -18.134396   1.000000
   11      -18.107108   1.000000
   12      -17.735772   1.000000
   13       -8.822257   1.000000
   14       -8.308174   1.000000
   15       -6.799012   1.000000
   16       -6.666083   1.000000
   17       -6.037065   1.000000
   18       -6.035802   1.000000
   19       -5.916589   1.000000
   20       -4.860129   1.000000
   21       -4.762807   1.000000
   22       -4.045556   1.000000
   23       -3.669236   1.000000
   24       -3.616188   1.000000
   25       -1.650433   1.000000
   26       -1.268259   0.217716
   27        0.224340   0.000000
   28        0.571980   0.000000
   29        1.142697   0.000000
   30        1.508157   0.000000
   31        1.603304   0.000000
   32        2.493082   0.000000
 
  0.6666667E-01  0.1333333E+00  0.0000000E+00  0.1777778E-01
    1      -32.885065   1.000000
    2      -32.594732   1.000000
    3      -32.512172   1.000000
    4      -20.847040   1.000000
    5      -19.985240   1.000000
    6      -19.192914   1.000000
    7      -18.658560   1.000000
    8      -18.334771   1.000000
    9      -18.222768   1.000000
   10      -18.140873   1.000000
   11      -18.090340   1.000000
   12      -17.476659   1.000000
   13       -8.687342   1.000000
   14       -8.538061   1.000000
   15       -7.069486   1.000000
   16       -6.906780   1.000000
   17       -6.287170   1.000000
   18       -6.048501   1.000000
   19       -5.984601   1.000000
   20       -5.115789   1.000000
   21       -4.917299   1.000000
   22       -4.122987   1.000000
   23       -3.652719   1.000000
   24       -3.634059   1.000000
   25       -1.698276   1.000000
   26       -1.050982   0.000000
   27        0.218013   0.000000
   28        0.790654   0.000000
   29        1.236126   0.000000
   30        1.669842   0.000000
   31        2.044108   0.000000
   32        2.801708   0.000000
 
  0.1333333E+00  0.1333333E+00  0.0000000E+00  0.1777778E-01
    1      -32.870125   1.000000
    2      -32.653201   1.000000
    3      -32.532705   1.000000
    4      -20.696232   1.000000
    5      -20.193308   1.000000
    6      -19.045387   1.000000
    7      -18.617364   1.000000
    8      -18.263010   1.000000
    9      -18.232621   1.000000
   10      -18.138049   1.000000
   11      -18.064560   1.000000
   12      -17.156061   1.000000
   13       -8.921367   1.000000
   14       -8.438898   1.000000
   15       -7.510821   1.000000
   16       -7.134549   1.000000
   17       -6.621848   1.000000
   18       -6.113564   1.000000
   19       -6.090149   1.000000
   20       -5.478325   1.000000
   21       -5.140994   1.000000
   22       -4.230791   1.000000
   23       -3.688829   1.000000
   24       -3.581153   1.000000
   25       -1.829307   1.000000
   26       -0.686300   0.000000
   27        0.250841   0.000000
   28        1.188041   0.000000
   29        1.437878   0.000000
   30        1.858854   0.000000
   31        2.607622   0.000000
   32        3.230354   0.000000
 
  0.2000000E+00  0.1333333E+00  0.0000000E+00  0.1777778E-01
    1      -32.852917   1.000000
    2      -32.717922   1.000000
    3      -32.557674   1.000000
    4      -20.605259   1.000000
    5      -20.296704   1.000000
    6      -18.869182   1.000000
    7      -18.567101   1.000000
    8      -18.257125   1.000000
    9      -18.212762   1.000000
   10      -18.065606   1.000000
   11      -18.043829   1.000000
   12      -16.842554   1.000000
   13       -9.317787   1.000000
   14       -8.217968   1.000000
   15       -7.940641   1.000000
   16       -7.453531   1.000000
   17       -6.862751   1.000000
   18       -6.261394   1.000000
   19       -6.221820   1.000000
   20       -5.828801   1.000000
   21       -5.418094   1.000000
   22       -4.397713   1.000000
   23       -3.679845   1.000000
   24       -3.510900   1.000000
   25       -1.946551   1.000000
   26       -0.311985   0.000000
   27        0.408675   0.000000
   28        1.583488   0.000000
   29        1.805477   0.000000
   30        2.070025   0.000000
   31        3.138317   0.000000
   32        3.687188   0.000000
 
  0.2666667E+00  0.1333333E+00  0.0000000E+00  0.1777778E-01
    1      -32.836439   1.000000
    2      -32.778296   1.000000
    3      -32.582045   1.000000
    4      -20.698866   1.000000
    5      -20.177632   1.000000
    6      -18.695420   1.000000
    7      -18.516399   1.000000
    8      -18.286528   1.000000
    9      -18.181873   1.000000
   10      -18.033004   1.000000
   11      -17.944957   1.000000
   12      -16.582087   1.000000
   13       -9.693979   1.000000
   14       -8.404369   1.000000
   15       -7.927624   1.000000
   16       -7.809476   1.000000
   17       -6.975152   1.000000
   18       -6.470679   1.000000
   19       -6.352889   1.000000
   20       -6.123895   1.000000
   21       -5.675856   1.000000
   22       -4.568055   1.000000
   23       -3.646193   1.000000
   24       -3.446730   1.000000
   25       -1.995608   1.000000
   26       -0.026783   0.000000
   27        0.740276   0.000000
   28        1.777990   0.000000
   29        2.154940   0.000000
   30        2.471970   0.000000
   31        3.517430   0.000000
   32        3.946181   0.000000
 
  0.3333333E+00  0.1333333E+00  0.0000000E+00  0.1777778E-01
    1      -32.826311   1.000000
    2      -32.821900   1.000000
    3      -32.601220   1.000000
    4      -20.808408   1.000000
    5      -20.028835   1.000000
    6      -18.557978   1.000000
    7      -18.473689   1.000000
    8      -18.311791   1.000000
    9      -18.145593   1.000000
   10      -18.035625   1.000000
   11      -17.830967   1.000000
   12      -16.403005   1.000000
   13       -9.986241   1.000000
   14       -8.690362   1.000000
   15       -8.105245   1.000000
   16       -7.763012   1.000000
   17       -7.011553   1.000000
   18       -6.656270   1.000000
   19       -6.471245   1.000000
   20       -6.364567   1.000000
   21       -5.842620   1.000000
   22       -4.705002   1.000000
   23       -3.610832   1.000000
   24       -3.399841   1.000000
   25       -1.978955   1.000000
   26        0.138281   0.000000
   27        1.224198   0.000000
   28        1.868454   0.000000
   29        2.319824   0.000000
   30        2.785252   0.000000
   31        3.719830   0.000000
   32        3.920761   0.000000
 
  0.4000000E+00  0.1333333E+00  0.0000000E+00  0.1777778E-01
    1      -32.850076   1.000000
    2      -32.816187   1.000000
    3      -32.611736   1.000000
    4      -20.868880   1.000000
    5      -19.941009   1.000000
    6      -18.488114   1.000000
    7      -18.444282   1.000000
    8      -18.324807   1.000000
    9      -18.111066   1.000000
   10      -18.049775   1.000000
   11      -17.761083   1.000000
   12      -16.314760   1.000000
   13      -10.145759   1.000000
   14       -8.845503   1.000000
   15       -8.262451   1.000000
   16       -7.680606   1.000000
   17       -7.010950   1.000000
   18       -6.762499   1.000000
   19       -6.544339   1.000000
   20       -6.509383   1.000000
   21       -5.916482   1.000000
   22       -4.782295   1.000000
   23       -3.587438   1.000000
   24       -3.376172   1.000000
   25       -1.946086   1.000000
   26        0.211471   0.000000
   27        1.664388   0.000000
   28        1.964528   0.000000
   29        2.365211   0.000000
   30        2.771216   0.000000
   31        3.558566   0.000000
   32        4.080210   0.000000
 
  0.4666667E+00  0.1333333E+00  0.0000000E+00  0.1777778E-01
    1      -32.850084   1.000000
    2      -32.816185   1.000000
    3      -32.611735   1.000000
    4      -20.868894   1.000000
    5      -19.940978   1.000000
    6      -18.488104   1.000000
    7      -18.444275   1.000000
    8      -18.324809   1.000000
    9      -18.111094   1.000000
   10      -18.049754   1.000000
   11      -17.761101   1.000000
   12      -16.314722   1.000000
   13      -10.145757   1.000000
   14       -8.845540   1.000000
   15       -8.262474   1.000000
   16       -7.680602   1.000000
   17       -7.011001   1.000000
   18       -6.762496   1.000000
   19       -6.544299   1.000000
   20       -6.509357   1.000000
   21       -5.916499   1.000000
   22       -4.782261   1.000000
   23       -3.587441   1.000000
   24       -3.376169   1.000000
   25       -1.946129   1.000000
   26        0.211449   0.000000
   27        1.664313   0.000000
   28        1.964462   0.000000
   29        2.365195   0.000000
   30        2.771326   0.000000
   31        3.558700   0.000000
   32        4.080330   0.000000
 
 -0.4666667E+00  0.1333333E+00  0.0000000E+00  0.1777778E-01
    1      -32.826324   1.000000
    2      -32.821904   1.000000
    3      -32.601220   1.000000
    4      -20.808445   1.000000
    5      -20.028757   1.000000
    6      -18.557948   1.000000
    7      -18.473670   1.000000
    8      -18.311797   1.000000
    9      -18.145633   1.000000
   10      -18.035604   1.000000
   11      -17.831010   1.000000
   12      -16.402900   1.000000
   13       -9.986236   1.000000
   14       -8.690460   1.000000
   15       -8.105309   1.000000
   16       -7.762998   1.000000
   17       -7.011650   1.000000
   18       -6.656261   1.000000
   19       -6.471147   1.000000
   20       -6.364535   1.000000
   21       -5.842664   1.000000
   22       -4.704908   1.000000
   23       -3.610839   1.000000
   24       -3.399839   1.000000
   25       -1.979065   1.000000
   26        0.138226   0.000000
   27        1.224083   0.000000
   28        1.868407   0.000000
   29        2.319740   0.000000
   30        2.785493   0.000000
   31        3.720053   0.000000
   32        3.920831   0.000000
 
 -0.4000000E+00  0.1333333E+00  0.0000000E+00  0.1777778E-01
    1      -32.836433   1.000000
    2      -32.778321   1.000000
    3      -32.582051   1.000000
    4      -20.698914   1.000000
    5      -20.177542   1.000000
    6      -18.695377   1.000000
    7      -18.516371   1.000000
    8      -18.286535   1.000000
    9      -18.181906   1.000000
   10      -18.032998   1.000000
   11      -17.945009   1.000000
   12      -16.581939   1.000000
   13       -9.693969   1.000000
   14       -8.404487   1.000000
   15       -7.927607   1.000000
   16       -7.809565   1.000000
   17       -6.975241   1.000000
   18       -6.470644   1.000000
   19       -6.352786   1.000000
   20       -6.123916   1.000000
   21       -5.675919   1.000000
   22       -4.567930   1.000000
   23       -3.646199   1.000000
   24       -3.446741   1.000000
   25       -1.995739   1.000000
   26       -0.026842   0.000000
   27        0.740236   0.000000
   28        1.777820   0.000000
   29        2.154943   0.000000
   30        2.472195   0.000000
   31        3.517479   0.000000
   32        3.946147   0.000000
 
 -0.3333333E+00  0.1333333E+00  0.0000000E+00  0.1777778E-01
    1      -32.852911   1.000000
    2      -32.717937   1.000000
    3      -32.557695   1.000000
    4      -20.605242   1.000000
    5      -20.296697   1.000000
    6      -18.869134   1.000000
    7      -18.567069   1.000000
    8      -18.257129   1.000000
    9      -18.212790   1.000000
   10      -18.065645   1.000000
   11      -18.043838   1.000000
   12      -16.842387   1.000000
   13       -9.317767   1.000000
   14       -8.217929   1.000000
   15       -7.940742   1.000000
   16       -7.453622   1.000000
   17       -6.862828   1.000000
   18       -6.261347   1.000000
   19       -6.221770   1.000000
   20       -5.828871   1.000000
   21       -5.418165   1.000000
   22       -4.397591   1.000000
   23       -3.679859   1.000000
   24       -3.510926   1.000000
   25       -1.946645   1.000000
   26       -0.312015   0.000000
   27        0.408689   0.000000
   28        1.583230   0.000000
   29        1.805456   0.000000
   30        2.070141   0.000000
   31        3.138332   0.000000
   32        3.687222   0.000000
 
 -0.2666667E+00  0.1333333E+00  0.0000000E+00  0.8888889E-02
    1      -32.870119   1.000000
    2      -32.653193   1.000000
    3      -32.532749   1.000000
    4      -20.696139   1.000000
    5      -20.193406   1.000000
    6      -19.045343   1.000000
    7      -18.617334   1.000000
    8      -18.263057   1.000000
    9      -18.232620   1.000000
   10      -18.138034   1.000000
   11      -18.064586   1.000000
   12      -17.155900   1.000000
   13       -8.921335   1.000000
   14       -8.438846   1.000000
   15       -7.510853   1.000000
   16       -7.134584   1.000000
   17       -6.621934   1.000000
   18       -6.113631   1.000000
   19       -6.090147   1.000000
   20       -5.478377   1.000000
   21       -5.141068   1.000000
   22       -4.230697   1.000000
   23       -3.688874   1.000000
   24       -3.581183   1.000000
   25       -1.829316   1.000000
   26       -0.686289   0.000000
   27        0.250900   0.000000
   28        1.187844   0.000000
   29        1.437621   0.000000
   30        1.858920   0.000000
   31        2.607666   0.000000
   32        3.230368   0.000000
 
  0.0000000E+00  0.2000000E+00  0.0000000E+00  0.8888889E-02
    1      -32.878857   1.000000
    2      -32.623734   1.000000
    3      -32.516033   1.000000
    4      -20.792977   1.000000
    5      -20.059156   1.000000
    6      -19.131916   1.000000
    7      -18.641085   1.000000
    8      -18.324201   1.000000
    9      -18.236158   1.000000
   10      -18.114140   1.000000
   11      -18.103571   1.000000
   12      -17.322410   1.000000
   13       -8.739568   1.000000
   14       -8.549349   1.000000
   15       -7.288607   1.000000
   16       -7.050592   1.000000
   17       -6.266231   1.000000
   18       -6.148500   1.000000
   19       -6.005289   1.000000
   20       -5.285503   1.000000
   21       -5.004231   1.000000
   22       -4.208736   1.000000
   23       -3.623117   1.000000
   24       -3.594191   1.000000
   25       -1.798581   1.000000
   26       -0.889806   0.000000
   27        0.320423   0.000000
   28        0.881990   0.000000
   29        1.251430   0.000000
   30        1.793968   0.000000
   31        2.257740   0.000000
   32        2.945587   0.000000
 
  0.6666667E-01  0.2000000E+00  0.0000000E+00  0.1777778E-01
    1      -32.867491   1.000000
    2      -32.668539   1.000000
    3      -32.531005   1.000000
    4      -20.699007   1.000000
    5      -20.181016   1.000000
    6      -19.018293   1.000000
    7      -18.609250   1.000000
    8      -18.277146   1.000000
    9      -18.242860   1.000000
   10      -18.120821   1.000000
   11      -18.072913   1.000000
   12      -17.087715   1.000000
   13       -8.988777   1.000000
   14       -8.409451   1.000000
   15       -7.610958   1.000000
   16       -7.240110   1.000000
   17       -6.532030   1.000000
   18       -6.171007   1.000000
   19       -6.063172   1.000000
   20       -5.567447   1.000000
   21       -5.176047   1.000000
   22       -4.269504   1.000000
   23       -3.628614   1.000000
   24       -3.576592   1.000000
   25       -1.903150   1.000000
   26       -0.623165   0.000000
   27        0.370172   0.000000
   28        1.196697   0.000000
   29        1.402162   0.000000
   30        1.935888   0.000000
   31        2.645948   0.000000
   32        3.249906   0.000000
 
  0.1333333E+00  0.2000000E+00  0.0000000E+00  0.1777778E-01
    1      -32.852920   1.000000
    2      -32.717936   1.000000
    3      -32.557643   1.000000
    4      -20.605316   1.000000
    5      -20.296637   1.000000
    6      -18.869201   1.000000
    7      -18.567115   1.000000
    8      -18.257129   1.000000
    9      -18.212773   1.000000
   10      -18.065603   1.000000
   11      -18.043830   1.000000
   12      -16.842597   1.000000
   13       -9.317817   1.000000
   14       -8.217996   1.000000
   15       -7.940682   1.000000
   16       -7.453567   1.000000
   17       -6.862696   1.000000
   18       -6.261312   1.000000
   19       -6.221716   1.000000
   20       -5.828830   1.000000
   21       -5.418020   1.000000
   22       -4.397727   1.000000
   23       -3.679787   1.000000
   24       -3.510899   1.000000
   25       -1.946618   1.000000
   26       -0.311989   0.000000
   27        0.408688   0.000000
   28        1.583499   0.000000
   29        1.805537   0.000000
   30        2.070093   0.000000
   31        3.138341   0.000000
   32        3.687234   0.000000
 
  0.2000000E+00  0.2000000E+00  0.0000000E+00  0.1777778E-01
    1      -32.837658   1.000000
    2      -32.763573   1.000000
    3      -32.590936   1.000000
    4      -20.607775   1.000000
    5      -20.304599   1.000000
    6      -18.709099   1.000000
    7      -18.520239   1.000000
    8      -18.252699   1.000000
    9      -18.205584   1.000000
   10      -18.027565   1.000000
   11      -17.901224   1.000000
   12      -16.637678   1.000000
   13       -9.662170   1.000000
   14       -8.252255   1.000000
   15       -7.995650   1.000000
   16       -7.723962   1.000000
   17       -7.078729   1.000000
   18       -6.494461   1.000000
   19       -6.399352   1.000000
   20       -6.009209   1.000000
   21       -5.695313   1.000000
   22       -4.619427   1.000000
   23       -3.681756   1.000000
   24       -3.443846   1.000000
   25       -1.905435   1.000000
   26       -0.015791   0.000000
   27        0.548600   0.000000
   28        1.887780   0.000000
   29        2.075450   0.000000
   30        2.512807   0.000000
   31        3.622439   0.000000
   32        4.123153   0.000000
 
  0.2666667E+00  0.2000000E+00  0.0000000E+00  0.1777778E-01
    1      -32.824391   1.000000
    2      -32.799372   1.000000
    3      -32.623335   1.000000
    4      -20.688714   1.000000
    5      -20.225784   1.000000
    6      -18.567545   1.000000
    7      -18.475428   1.000000
    8      -18.262359   1.000000
    9      -18.178399   1.000000
   10      -18.026958   1.000000
   11      -17.702481   1.000000
   12      -16.504573   1.000000
   13       -9.964656   1.000000
   14       -8.469519   1.000000
   15       -8.015830   1.000000
   16       -7.817984   1.000000
   17       -7.148586   1.000000
   18       -6.741536   1.000000
   19       -6.572811   1.000000
   20       -6.192568   1.000000
   21       -5.903224   1.000000
   22       -4.859888   1.000000
   23       -3.651114   1.000000
   24       -3.394096   1.000000
   25       -1.790317   1.000000
   26        0.206501   0.000000
   27        0.846179   0.000000
   28        1.927237   0.000000
   29        2.381524   0.000000
   30        2.886170   0.000000
   31        3.911926   0.000000
   32        4.397755   0.000000
 
  0.3333333E+00  0.2000000E+00  0.0000000E+00  0.1777778E-01
    1      -32.822368   1.000000
    2      -32.814826   1.000000
    3      -32.646934   1.000000
    4      -20.754541   1.000000
    5      -20.159246   1.000000
    6      -18.478814   1.000000
    7      -18.434752   1.000000
    8      -18.274154   1.000000
    9      -18.135337   1.000000
   10      -18.043402   1.000000
   11      -17.533555   1.000000
   12      -16.446576   1.000000
   13      -10.172346   1.000000
   14       -8.606039   1.000000
   15       -8.220218   1.000000
   16       -7.695544   1.000000
   17       -7.131796   1.000000
   18       -6.931320   1.000000
   19       -6.697174   1.000000
   20       -6.397170   1.000000
   21       -5.978405   1.000000
   22       -5.045184   1.000000
   23       -3.616249   1.000000
   24       -3.368379   1.000000
   25       -1.659440   1.000000
   26        0.337082   0.000000
   27        1.270140   0.000000
   28        1.900313   0.000000
   29        2.563342   0.000000
   30        2.847191   0.000000
   31        3.801291   0.000000
   32        4.521308   0.000000
 
  0.4000000E+00  0.2000000E+00  0.0000000E+00  0.1777778E-01
    1      -32.829752   1.000000
    2      -32.811846   1.000000
    3      -32.655587   1.000000
    4      -20.778304   1.000000
    5      -20.134997   1.000000
    6      -18.456082   1.000000
    7      -18.411453   1.000000
    8      -18.278371   1.000000
    9      -18.105148   1.000000
   10      -18.063048   1.000000
   11      -17.464743   1.000000
   12      -16.434872   1.000000
   13      -10.246357   1.000000
   14       -8.652152   1.000000
   15       -8.293919   1.000000
   16       -7.647044   1.000000
   17       -7.107884   1.000000
   18       -7.003827   1.000000
   19       -6.746786   1.000000
   20       -6.488615   1.000000
   21       -5.992099   1.000000
   22       -5.116157   1.000000
   23       -3.600568   1.000000
   24       -3.361837   1.000000
   25       -1.600705   1.000000
   26        0.380907   0.000000
   27        1.559162   0.000000
   28        1.896607   0.000000
   29        2.446566   0.000000
   30        2.816480   0.000000
   31        3.682722   0.000000
   32        4.550235   0.000000
 
  0.4666667E+00  0.2000000E+00  0.0000000E+00  0.1777778E-01
    1      -32.822387   1.000000
    2      -32.814823   1.000000
    3      -32.646935   1.000000
    4      -20.754598   1.000000
    5      -20.159155   1.000000
    6      -18.478788   1.000000
    7      -18.434730   1.000000
    8      -18.274166   1.000000
    9      -18.135360   1.000000
   10      -18.043369   1.000000
   11      -17.533629   1.000000
   12      -16.446457   1.000000
   13      -10.172338   1.000000
   14       -8.606144   1.000000
   15       -8.220279   1.000000
   16       -7.695531   1.000000
   17       -7.131871   1.000000
   18       -6.931244   1.000000
   19       -6.697120   1.000000
   20       -6.397214   1.000000
   21       -5.978455   1.000000
   22       -5.045085   1.000000
   23       -3.616257   1.000000
   24       -3.368375   1.000000
   25       -1.659545   1.000000
   26        0.337025   0.000000
   27        1.270049   0.000000
   28        1.900315   0.000000
   29        2.563316   0.000000
   30        2.847405   0.000000
   31        3.801401   0.000000
   32        4.521351   0.000000
 
 -0.4666667E+00  0.2000000E+00  0.0000000E+00  0.1777778E-01
    1      -32.824384   1.000000
    2      -32.799401   1.000000
    3      -32.623344   1.000000
    4      -20.688818   1.000000
    5      -20.225632   1.000000
    6      -18.567492   1.000000
    7      -18.475393   1.000000
    8      -18.262385   1.000000
    9      -18.178408   1.000000
   10      -18.026930   1.000000
   11      -17.702587   1.000000
   12      -16.504383   1.000000
   13       -9.964638   1.000000
   14       -8.469679   1.000000
   15       -8.015935   1.000000
   16       -7.817949   1.000000
   17       -7.148677   1.000000
   18       -6.741451   1.000000
   19       -6.572766   1.000000
   20       -6.192615   1.000000
   21       -5.903320   1.000000
   22       -4.859739   1.000000
   23       -3.651130   1.000000
   24       -3.394098   1.000000
   25       -1.790468   1.000000
   26        0.206416   0.000000
   27        0.846145   0.000000
   28        1.927200   0.000000
   29        2.381338   0.000000
   30        2.886496   0.000000
   31        3.912104   0.000000
   32        4.397753   0.000000
 
 -0.4000000E+00  0.2000000E+00  0.0000000E+00  0.8888889E-02
    1      -32.837649   1.000000
    2      -32.763594   1.000000
    3      -32.590965   1.000000
    4      -20.607864   1.000000
    5      -20.304465   1.000000
    6      -18.709032   1.000000
    7      -18.520195   1.000000
    8      -18.252728   1.000000
    9      -18.205578   1.000000
   10      -18.027548   1.000000
   11      -17.901319   1.000000
   12      -16.637460   1.000000
   13       -9.662137   1.000000
   14       -8.252393   1.000000
   15       -7.995595   1.000000
   16       -7.724076   1.000000
   17       -7.078827   1.000000
   18       -6.494439   1.000000
   19       -6.399320   1.000000
   20       -6.009247   1.000000
   21       -5.695447   1.000000
   22       -4.619272   1.000000
   23       -3.681788   1.000000
   24       -3.443862   1.000000
   25       -1.905555   1.000000
   26       -0.015862   0.000000
   27        0.548592   0.000000
   28        1.887464   0.000000
   29        2.075508   0.000000
   30        2.512999   0.000000
   31        3.622451   0.000000
   32        4.123265   0.000000
 
  0.0000000E+00  0.2666667E+00  0.0000000E+00  0.8888889E-02
    1      -32.860046   1.000000
    2      -32.704162   1.000000
    3      -32.533984   1.000000
    4      -20.703616   1.000000
    5      -20.158129   1.000000
    6      -18.941537   1.000000
    7      -18.586799   1.000000
    8      -18.278336   1.000000
    9      -18.269939   1.000000
   10      -18.091075   1.000000
   11      -18.077082   1.000000
   12      -16.923651   1.000000
   13       -9.166890   1.000000
   14       -8.344968   1.000000
   15       -7.819375   1.000000
   16       -7.433604   1.000000
   17       -6.428816   1.000000
   18       -6.355159   1.000000
   19       -6.022607   1.000000
   20       -5.790110   1.000000
   21       -5.275439   1.000000
   22       -4.320061   1.000000
   23       -3.564955   1.000000
   24       -3.560135   1.000000
   25       -2.030472   1.000000
   26       -0.470784   0.000000
   27        0.598582   0.000000
   28        1.332073   0.000000
   29        1.390849   0.000000
   30        2.075885   0.000000
   31        2.785925   0.000000
   32        3.330977   0.000000
 
  0.6666667E-01  0.2666667E+00  0.0000000E+00  0.1777778E-01
    1      -32.849060   1.000000
    2      -32.744375   1.000000
    3      -32.550637   1.000000
    4      -20.704300   1.000000
    5      -20.152085   1.000000
    6      -18.827821   1.000000
    7      -18.554661   1.000000
    8      -18.290352   1.000000
    9      -18.225278   1.000000
   10      -18.076807   1.000000
   11      -18.043837   1.000000
   12      -16.735701   1.000000
   13       -9.414718   1.000000
   14       -8.322043   1.000000
   15       -7.961431   1.000000
   16       -7.625636   1.000000
   17       -6.691284   1.000000
   18       -6.354654   1.000000
   19       -6.118434   1.000000
   20       -6.004409   1.000000
   21       -5.447745   1.000000
   22       -4.391406   1.000000
   23       -3.595955   1.000000
   24       -3.510109   1.000000
   25       -2.078892   1.000000
   26       -0.264705   0.000000
   27        0.697652   0.000000
   28        1.503304   0.000000
   29        1.793204   0.000000
   30        2.178816   0.000000
   31        3.077106   0.000000
   32        3.564506   0.000000
 
  0.1333333E+00  0.2666667E+00  0.0000000E+00  0.1777778E-01
    1      -32.836446   1.000000
    2      -32.778314   1.000000
    3      -32.581991   1.000000
    4      -20.698882   1.000000
    5      -20.177611   1.000000
    6      -18.695463   1.000000
    7      -18.516430   1.000000
    8      -18.286535   1.000000
    9      -18.181884   1.000000
   10      -18.033003   1.000000
   11      -17.944963   1.000000
   12      -16.582174   1.000000
   13       -9.694035   1.000000
   14       -8.404452   1.000000
   15       -7.927646   1.000000
   16       -7.809496   1.000000
   17       -6.975065   1.000000
   18       -6.470575   1.000000
   19       -6.352703   1.000000
   20       -6.123917   1.000000
   21       -5.675717   1.000000
   22       -4.568057   1.000000
   23       -3.646122   1.000000
   24       -3.446715   1.000000
   25       -1.995715   1.000000
   26       -0.026764   0.000000
   27        0.740273   0.000000
   28        1.778046   0.000000
   29        2.155012   0.000000
   30        2.472083   0.000000
   31        3.517541   0.000000
   32        3.946478   0.000000
 
  0.2000000E+00  0.2666667E+00  0.0000000E+00  0.1777778E-01
    1      -32.824395   1.000000
    2      -32.799381   1.000000
    3      -32.623306   1.000000
    4      -20.688700   1.000000
    5      -20.225803   1.000000
    6      -18.567568   1.000000
    7      -18.475446   1.000000
    8      -18.262357   1.000000
    9      -18.178409   1.000000
   10      -18.026957   1.000000
   11      -17.702479   1.000000
   12      -16.504624   1.000000
   13       -9.964682   1.000000
   14       -8.469562   1.000000
   15       -8.015827   1.000000
   16       -7.817990   1.000000
   17       -7.148543   1.000000
   18       -6.741442   1.000000
   19       -6.572765   1.000000
   20       -6.192592   1.000000
   21       -5.903155   1.000000
   22       -4.859872   1.000000
   23       -3.651098   1.000000
   24       -3.394084   1.000000
   25       -1.790366   1.000000
   26        0.206523   0.000000
   27        0.846158   0.000000
   28        1.927272   0.000000
   29        2.381570   0.000000
   30        2.886232   0.000000
   31        3.911939   0.000000
   32        4.398070   0.000000
 
  0.2666667E+00  0.2666667E+00  0.0000000E+00  0.1777778E-01
    1      -32.814971   1.000000
    2      -32.805620   1.000000
    3      -32.665799   1.000000
    4      -20.677093   1.000000
    5      -20.275584   1.000000
    6      -18.475655   1.000000
    7      -18.431191   1.000000
    8      -18.233809   1.000000
    9      -18.171333   1.000000
   10      -18.041550   1.000000
   11      -17.417370   1.000000
   12      -16.521819   1.000000
   13      -10.182026   1.000000
   14       -8.461299   1.000000
   15       -8.197929   1.000000
   16       -7.724984   1.000000
   17       -7.188600   1.000000
   18       -7.101909   1.000000
   19       -6.701115   1.000000
   20       -6.250191   1.000000
   21       -6.048074   1.000000
   22       -5.181414   1.000000
   23       -3.622243   1.000000
   24       -3.367463   1.000000
   25       -1.518796   1.000000
   26        0.391339   0.000000
   27        1.040023   0.000000
   28        1.866823   0.000000
   29        2.677421   0.000000
   30        2.909495   0.000000
   31        3.950150   0.000000
   32        4.969115   0.000000
 
  0.3333333E+00  0.2666667E+00  0.0000000E+00  0.1777778E-01
    1      -32.809593   1.000000
    2      -32.802357   1.000000
    3      -32.695935   1.000000
    4      -20.669039   1.000000
    5      -20.306762   1.000000
    6      -18.442343   1.000000
    7      -18.388606   1.000000
    8      -18.223143   1.000000
    9      -18.143873   1.000000
   10      -18.067763   1.000000
   11      -17.188734   1.000000
   12      -16.600478   1.000000
   13      -10.303851   1.000000
   14       -8.414534   1.000000
   15       -8.308023   1.000000
   16       -7.650225   1.000000
   17       -7.372783   1.000000
   18       -7.157681   1.000000
   19       -6.788780   1.000000
   20       -6.321214   1.000000
   21       -6.050500   1.000000
   22       -5.415989   1.000000
   23       -3.592829   1.000000
   24       -3.362736   1.000000
   25       -1.306972   0.623631
   26        0.493554   0.000000
   27        1.267641   0.000000
   28        1.807154   0.000000
   29        2.392199   0.000000
   30        3.093722   0.000000
   31        3.885984   0.000000
   32        5.070977   0.000000
 
  0.4000000E+00  0.2666667E+00  0.0000000E+00  0.1777778E-01
    1      -32.809591   1.000000
    2      -32.802369   1.000000
    3      -32.695937   1.000000
    4      -20.669103   1.000000
    5      -20.306679   1.000000
    6      -18.442329   1.000000
    7      -18.388589   1.000000
    8      -18.223160   1.000000
    9      -18.143873   1.000000
   10      -18.067743   1.000000
   11      -17.188815   1.000000
   12      -16.600367   1.000000
   13      -10.303844   1.000000
   14       -8.414604   1.000000
   15       -8.308059   1.000000
   16       -7.650217   1.000000
   17       -7.372736   1.000000
   18       -7.157728   1.000000
   19       -6.788744   1.000000
   20       -6.321267   1.000000
   21       -6.050538   1.000000
   22       -5.415921   1.000000
   23       -3.592831   1.000000
   24       -3.362735   1.000000
   25       -1.307032   0.624278
   26        0.493518   0.000000
   27        1.267623   0.000000
   28        1.807156   0.000000
   29        2.392373   0.000000
   30        3.093641   0.000000
   31        3.885984   0.000000
   32        5.070980   0.000000
 
  0.4666667E+00  0.2666667E+00  0.0000000E+00  0.8888889E-02
    1      -32.814964   1.000000
    2      -32.805642   1.000000
    3      -32.665815   1.000000
    4      -20.677232   1.000000
    5      -20.275398   1.000000
    6      -18.475608   1.000000
    7      -18.431150   1.000000
    8      -18.233853   1.000000
    9      -18.171316   1.000000
   10      -18.041518   1.000000
   11      -17.417501   1.000000
   12      -16.521603   1.000000
   13      -10.182002   1.000000
   14       -8.461439   1.000000
   15       -8.198022   1.000000
   16       -7.724953   1.000000
   17       -7.188699   1.000000
   18       -7.101844   1.000000
   19       -6.701076   1.000000
   20       -6.250282   1.000000
   21       -6.048161   1.000000
   22       -5.181282   1.000000
   23       -3.622253   1.000000
   24       -3.367467   1.000000
   25       -1.518921   1.000000
   26        0.391247   0.000000
   27        1.040022   0.000000
   28        1.866816   0.000000
   29        2.677461   0.000000
   30        2.909568   0.000000
   31        3.950238   0.000000
   32        4.968994   0.000000
 
  0.0000000E+00  0.3333333E+00  0.0000000E+00  0.8888889E-02
    1      -32.842024   1.000000
    2      -32.779687   1.000000
    3      -32.551082   1.000000
    4      -20.783662   1.000000
    5      -20.016989   1.000000
    6      -18.752542   1.000000
    7      -18.532255   1.000000
    8      -18.309270   1.000000
    9      -18.260790   1.000000
   10      -18.070169   1.000000
   11      -18.023007   1.000000
   12      -16.586304   1.000000
   13       -9.579453   1.000000
   14       -8.504756   1.000000
   15       -7.920383   1.000000
   16       -7.810039   1.000000
   17       -6.562588   1.000000
   18       -6.542655   1.000000
   19       -6.223856   1.000000
   20       -6.047562   1.000000
   21       -5.525137   1.000000
   22       -4.406626   1.000000
   23       -3.535009   1.000000
   24       -3.497132   1.000000
   25       -2.193385   1.000000
   26       -0.182364   0.000000
   27        1.020105   0.000000
   28        1.541454   0.000000
   29        1.888349   0.000000
   30        2.305472   0.000000
   31        3.080706   0.000000
   32        3.463235   0.000000
 
  0.6666667E-01  0.3333333E+00  0.0000000E+00  0.1777778E-01
    1      -32.833112   1.000000
    2      -32.809211   1.000000
    3      -32.567671   1.000000
    4      -20.819277   1.000000
    5      -19.968805   1.000000
    6      -18.657087   1.000000
    7      -18.505037   1.000000
    8      -18.324705   1.000000
    9      -18.206697   1.000000
   10      -18.055399   1.000000
   11      -17.979926   1.000000
   12      -16.459696   1.000000
   13       -9.779067   1.000000
   14       -8.649453   1.000000
   15       -7.974503   1.000000
   16       -7.839938   1.000000
   17       -6.798849   1.000000
   18       -6.568741   1.000000
   19       -6.324652   1.000000
   20       -6.157910   1.000000
   21       -5.670846   1.000000
   22       -4.490519   1.000000
   23       -3.564023   1.000000
   24       -3.451219   1.000000
   25       -2.169563   1.000000
   26       -0.047142   0.000000
   27        1.158635   0.000000
   28        1.653561   0.000000
   29        2.264188   0.000000
   30        2.430594   0.000000
   31        3.318843   0.000000
   32        3.568551   0.000000
 
  0.1333333E+00  0.3333333E+00  0.0000000E+00  0.1777778E-01
    1      -32.826325   1.000000
    2      -32.821911   1.000000
    3      -32.601152   1.000000
    4      -20.808383   1.000000
    5      -20.028871   1.000000
    6      -18.558043   1.000000
    7      -18.473738   1.000000
    8      -18.311795   1.000000
    9      -18.145609   1.000000
   10      -18.035620   1.000000
   11      -17.830977   1.000000
   12      -16.403137   1.000000
   13       -9.986314   1.000000
   14       -8.690440   1.000000
   15       -8.105228   1.000000
   16       -7.763041   1.000000
   17       -7.011443   1.000000
   18       -6.656169   1.000000
   19       -6.471024   1.000000
   20       -6.364543   1.000000
   21       -5.842452   1.000000
   22       -4.704996   1.000000
   23       -3.610767   1.000000
   24       -3.399809   1.000000
   25       -1.979075   1.000000
   26        0.138345   0.000000
   27        1.224136   0.000000
   28        1.868546   0.000000
   29        2.319930   0.000000
   30        2.785380   0.000000
   31        3.719922   0.000000
   32        3.921114   0.000000
 
  0.2000000E+00  0.3333333E+00  0.0000000E+00  0.1777778E-01
    1      -32.822378   1.000000
    2      -32.814833   1.000000
    3      -32.646887   1.000000
    4      -20.754491   1.000000
    5      -20.159314   1.000000
    6      -18.478857   1.000000
    7      -18.434789   1.000000
    8      -18.274145   1.000000
    9      -18.135361   1.000000
   10      -18.043397   1.000000
   11      -17.533532   1.000000
   12      -16.446690   1.000000
   13      -10.172390   1.000000
   14       -8.606086   1.000000
   15       -8.220184   1.000000
   16       -7.695560   1.000000
   17       -7.131713   1.000000
   18       -6.931170   1.000000
   19       -6.697118   1.000000
   20       -6.397170   1.000000
   21       -5.978325   1.000000
   22       -5.045161   1.000000
   23       -3.616237   1.000000
   24       -3.368354   1.000000
   25       -1.659499   1.000000
   26        0.337144   0.000000
   27        1.270039   0.000000
   28        1.900348   0.000000
   29        2.563486   0.000000
   30        2.847296   0.000000
   31        3.801283   0.000000
   32        4.521723   0.000000
 
  0.2666667E+00  0.3333333E+00  0.0000000E+00  0.1777778E-01
    1      -32.809597   1.000000
    2      -32.802363   1.000000
    3      -32.695911   1.000000
    4      -20.668978   1.000000
    5      -20.306836   1.000000
    6      -18.442362   1.000000
    7      -18.388627   1.000000
    8      -18.223120   1.000000
    9      -18.143904   1.000000
   10      -18.067761   1.000000
   11      -17.188676   1.000000
   12      -16.600577   1.000000
   13      -10.303868   1.000000
   14       -8.414542   1.000000
   15       -8.307996   1.000000
   16       -7.650236   1.000000
   17       -7.372727   1.000000
   18       -7.157633   1.000000
   19       -6.788777   1.000000
   20       -6.321188   1.000000
   21       -6.050482   1.000000
   22       -5.415989   1.000000
   23       -3.592832   1.000000
   24       -3.362724   1.000000
   25       -1.306971   0.623624
   26        0.493592   0.000000
   27        1.267559   0.000000
   28        1.807159   0.000000
   29        2.392221   0.000000
   30        3.093829   0.000000
   31        3.885989   0.000000
   32        5.071432   0.000000
 
  0.3333333E+00  0.3333333E+00  0.0000000E+00  0.8888889E-02
    1      -32.807537   1.000000
    2      -32.783207   1.000000
    3      -32.725574   1.000000
    4      -20.606086   1.000000
    5      -20.392831   1.000000
    6      -18.432519   1.000000
    7      -18.368741   1.000000
    8      -18.173749   1.000000
    9      -18.173366   1.000000
   10      -18.082009   1.000000
   11      -16.904074   1.000000
   12      -16.815753   1.000000
   13      -10.351589   1.000000
   14       -8.341964   1.000000
   15       -8.262139   1.000000
   16       -7.638588   1.000000
   17       -7.612122   1.000000
   18       -7.151426   1.000000
   19       -6.833764   1.000000
   20       -6.255370   1.000000
   21       -6.039383   1.000000
   22       -5.623784   1.000000
   23       -3.577808   1.000000
   24       -3.365982   1.000000
   25       -1.132637   0.000002
   26        0.553154   0.000000
   27        1.233103   0.000000
   28        1.762828   0.000000
   29        2.216976   0.000000
   30        3.271707   0.000000
   31        3.940814   0.000000
   32        5.366884   0.000000
 
  0.0000000E+00  0.4000000E+00  0.0000000E+00  0.8888889E-02
    1      -32.838499   1.000000
    2      -32.827221   1.000000
    3      -32.564394   1.000000
    4      -20.893386   1.000000
    5      -19.815959   1.000000
    6      -18.601835   1.000000
    7      -18.487876   1.000000
    8      -18.345445   1.000000
    9      -18.259904   1.000000
   10      -18.055102   1.000000
   11      -17.966159   1.000000
   12      -16.343653   1.000000
   13       -9.895178   1.000000
   14       -8.838644   1.000000
   15       -8.109361   1.000000
   16       -7.780294   1.000000
   17       -6.766632   1.000000
   18       -6.681005   1.000000
   19       -6.424854   1.000000
   20       -6.080691   1.000000
   21       -5.708150   1.000000
   22       -4.473854   1.000000
   23       -3.510894   1.000000
   24       -3.444202   1.000000
   25       -2.267614   1.000000
   26       -0.032481   0.000000
   27        1.368170   0.000000
   28        1.776212   0.000000
   29        2.371692   0.000000
   30        2.549085   0.000000
   31        3.246601   0.000000
   32        3.432531   0.000000
 
  0.6666667E-01  0.4000000E+00  0.0000000E+00  0.1777778E-01
    1      -32.853197   1.000000
    2      -32.821731   1.000000
    3      -32.579193   1.000000
    4      -20.909832   1.000000
    5      -19.808195   1.000000
    6      -18.541299   1.000000
    7      -18.469429   1.000000
    8      -18.349841   1.000000
    9      -18.194059   1.000000
   10      -18.049365   1.000000
   11      -17.923337   1.000000
   12      -16.285919   1.000000
   13      -10.022702   1.000000
   14       -8.911553   1.000000
   15       -8.204675   1.000000
   16       -7.728107   1.000000
   17       -6.892363   1.000000
   18       -6.742352   1.000000
   19       -6.457249   1.000000
   20       -6.206021   1.000000
   21       -5.808675   1.000000
   22       -4.558675   1.000000
   23       -3.540261   1.000000
   24       -3.409749   1.000000
   25       -2.192720   1.000000
   26        0.056231   0.000000
   27        1.509926   0.000000
   28        1.879916   0.000000
   29        2.400634   0.000000
   30        2.733307   0.000000
   31        3.435144   0.000000
   32        3.670622   0.000000
 
  0.1333333E+00  0.4000000E+00  0.0000000E+00  0.1777778E-01
    1      -32.850084   1.000000
    2      -32.816199   1.000000
    3      -32.611661   1.000000
    4      -20.868829   1.000000
    5      -19.941093   1.000000
    6      -18.488193   1.000000
    7      -18.444346   1.000000
    8      -18.324809   1.000000
    9      -18.111080   1.000000
   10      -18.049769   1.000000
   11      -17.761086   1.000000
   12      -16.314936   1.000000
   13      -10.145841   1.000000
   14       -8.845556   1.000000
   15       -8.262399   1.000000
   16       -7.680638   1.000000
   17       -7.010801   1.000000
   18       -6.762397   1.000000
   19       -6.544158   1.000000
   20       -6.509309   1.000000
   21       -5.916303   1.000000
   22       -4.782302   1.000000
   23       -3.587378   1.000000
   24       -3.376131   1.000000
   25       -1.946190   1.000000
   26        0.211580   0.000000
   27        1.664357   0.000000
   28        1.964545   0.000000
   29        2.365386   0.000000
   30        2.771305   0.000000
   31        3.558616   0.000000
   32        4.080506   0.000000
 
  0.2000000E+00  0.4000000E+00  0.0000000E+00  0.8888889E-02
    1      -32.829755   1.000000
    2      -32.811855   1.000000
    3      -32.655533   1.000000
    4      -20.778221   1.000000
    5      -20.135117   1.000000
    6      -18.456137   1.000000
    7      -18.411508   1.000000
    8      -18.278356   1.000000
    9      -18.105172   1.000000
   10      -18.063051   1.000000
   11      -17.464680   1.000000
   12      -16.435055   1.000000
   13      -10.246408   1.000000
   14       -8.652160   1.000000
   15       -8.293852   1.000000
   16       -7.647068   1.000000
   17       -7.107744   1.000000
   18       -7.003686   1.000000
   19       -6.746772   1.000000
   20       -6.488579   1.000000
   21       -5.992003   1.000000
   22       -5.116167   1.000000
   23       -3.600557   1.000000
   24       -3.361808   1.000000
   25       -1.600725   1.000000
   26        0.381008   0.000000
   27        1.559053   0.000000
   28        1.896614   0.000000
   29        2.446641   0.000000
   30        2.816648   0.000000
   31        3.682703   0.000000
   32        4.550651   0.000000
 
  0.0000000E+00  0.4666667E+00  0.0000000E+00  0.8888889E-02
    1      -32.869606   1.000000
    2      -32.819868   1.000000
    3      -32.571660   1.000000
    4      -20.956719   1.000000
    5      -19.684982   1.000000
    6      -18.521543   1.000000
    7      -18.462517   1.000000
    8      -18.366215   1.000000
    9      -18.262174   1.000000
   10      -18.047551   1.000000
   11      -17.931609   1.000000
   12      -16.217625   1.000000
   13      -10.065382   1.000000
   14       -9.027690   1.000000
   15       -8.268846   1.000000
   16       -7.709393   1.000000
   17       -6.923701   1.000000
   18       -6.753974   1.000000
   19       -6.472636   1.000000
   20       -6.108276   1.000000
   21       -5.799454   1.000000
   22       -4.511704   1.000000
   23       -3.497539   1.000000
   24       -3.412538   1.000000
   25       -2.287004   1.000000
   26        0.026747   0.000000
   27        1.468657   0.000000
   28        2.032865   0.000000
   29        2.481839   0.000000
   30        2.916767   0.000000
   31        3.294800   0.000000
   32        3.709150   0.000000
 
  0.6666667E-01  0.4666667E+00  0.0000000E+00  0.8888889E-02
    1      -32.868445   1.000000
    2      -32.817906   1.000000
    3      -32.583261   1.000000
    4      -20.942059   1.000000
    5      -19.746458   1.000000
    6      -18.502995   1.000000
    7      -18.455270   1.000000
    8      -18.357757   1.000000
    9      -18.188786   1.000000
   10      -18.048450   1.000000
   11      -17.901929   1.000000
   12      -16.227024   1.000000
   13      -10.108142   1.000000
   14       -9.004232   1.000000
   15       -8.286048   1.000000
   16       -7.692273   1.000000
   17       -6.943565   1.000000
   18       -6.789077   1.000000
   19       -6.495788   1.000000
   20       -6.224912   1.000000
   21       -5.853719   1.000000
   22       -4.583206   1.000000
   23       -3.531176   1.000000
   24       -3.394713   1.000000
   25       -2.192993   1.000000
   26        0.085963   0.000000
   27        1.578798   0.000000
   28        2.074622   0.000000
   29        2.431160   0.000000
   30        2.841756   0.000000
   31        3.391581   0.000000
   32        3.889343   0.000000
