
     Program PWSCF v.7.5 starts on 22Sep2026 at 21:36:24 

     This program is part of the open-source Quantum ESPRESSO suite
     for quantum simulation of materials; please cite
         "P. Giannozzi et al., J. Phys.:Condens. Matter 21 395502 (2009);
         "P. Giannozzi et al., J. Phys.:Condens. Matter 29 465901 (2017);
         "P. Giannozzi et al., J. Chem. Phys. 152 154105 (2020);
          URL http://www.quantum-espresso.org", 
     in publications or presentations arising from this work. More details at
     http://www.quantum-espresso.org/quote

     Parallel version (MPI), running on     8 processors

     MPI processes distributed on     1 nodes
     11538 MiB available memory on the printing compute node when the environment starts
 
     Reading input from al.scf.in

     Current dimensions of program PWSCF are:
     Max number of different atomic species (ntypx) = 10
     Max number of k-points (npk) =  40000
     Max angular momentum in pseudopotentials (lmaxx) =  4
     Message from routine setup:
     using ibrav=0 with symmetry is DISCOURAGED, use correct ibrav instead
 
     R & G space division:  proc/nbgrp/npool/nimage =       8
     Subspace diagonalization in iterative solution of the eigenvalue problem:
     a serial algorithm will be used

 
     Parallelization info
     --------------------
     sticks:   dense  smooth     PW     G-vecs:    dense   smooth      PW
     Min         154     154     45                 3570     3570     570
     Max         155     155     46                 3573     3573     573
     Sum        1237    1237    361                28571    28571    4573
 
     Using Slab Decomposition
 


     bravais-lattice index     =            0
     lattice parameter (alat)  =      10.5725  a.u.
     unit-cell volume          =     835.6372 (a.u.)^3
     number of atoms/cell      =            8
     number of atomic types    =            1
     number of electrons       =        24.00
     number of Kohn-Sham states=           18
     kinetic-energy cutoff     =      40.0000  Ry
     charge density cutoff     =     160.0000  Ry
     scf convergence threshold =      1.0E-12
     mixing beta               =       0.7000
     number of iterations used =            8  plain     mixing
     Exchange-correlation= SLA  PZ   NOGX NOGC
                           (   1   1   0   0   0   0   0)

     celldm(1)=  10.572497  celldm(2)=   0.000000  celldm(3)=   0.000000
     celldm(4)=   0.000000  celldm(5)=   0.000000  celldm(6)=   0.000000

     crystal axes: (cart. coord. in units of alat)
               a(1) = (  -0.707107   0.000000   0.707107 )  
               a(2) = (   0.000000   0.707107   0.707107 )  
               a(3) = (  -0.707107   0.707107   0.000000 )  

     reciprocal axes: (cart. coord. in units 2 pi/alat)
               b(1) = ( -0.707107 -0.707107  0.707107 )  
               b(2) = (  0.707107  0.707107  0.707107 )  
               b(3) = ( -0.707107  0.707107 -0.707107 )  


     PseudoPot. # 1 for Al read from file:
     <工作目录>/pseudo/Al.pz-vbc.UPF
     MD5 check sum: f06ceae8da0fe5c02c98e3688433298c
     Pseudo is Norm-conserving, Zval =  3.0
     Generated by new atomic code, or converted to UPF format
     Using radial grid of  171 points,  2 beta functions with: 
                l(1) =   0
                l(2) =   1

     atomic species   valence    mass     pseudopotential
     Al                3.00    26.98154     Al( 1.00)

      4 Sym. Ops. (no inversion) found


                                    s                        frac. trans.

      isym =  1     identity                                     

 cryst.   s( 1) = (     1          0          0      )
                  (     0          1          0      )
                  (     0          0          1      )

 cart.    s( 1) = (  1.0000000  0.0000000  0.0000000 )
                  (  0.0000000  1.0000000  0.0000000 )
                  (  0.0000000  0.0000000  1.0000000 )


      isym =  2     180 deg rotation - cart. axis [-1,0,1]       

 cryst.   s( 2) = (     1          0          0      )
                  (     1         -1          0      )
                  (     1          0         -1      )

 cart.    s( 2) = (  0.0000000  0.0000000 -1.0000000 )
                  (  0.0000000 -1.0000000  0.0000000 )
                  ( -1.0000000  0.0000000  0.0000000 )


      isym =  3     inv. 180 deg rotation - cart. axis [0,1,0]   

 cryst.   s( 3) = (     1          0          0      )
                  (     1          0         -1      )
                  (     1         -1          0      )

 cart.    s( 3) = (  1.0000000  0.0000000  0.0000000 )
                  (  0.0000000 -1.0000000  0.0000000 )
                  (  0.0000000  0.0000000  1.0000000 )


      isym =  4     inv. 180 deg rotation - cart. axis [1,0,1]   

 cryst.   s( 4) = (     1          0          0      )
                  (     0          0          1      )
                  (     0          1          0      )

 cart.    s( 4) = (  0.0000000  0.0000000 -1.0000000 )
                  (  0.0000000  1.0000000  0.0000000 )
                  ( -1.0000000  0.0000000  0.0000000 )


   Cartesian axes

     site n.     atom                  positions (alat units)
         1        Al     tau(   1) = (  -0.0012639   0.0000000   0.0012639  )
         2        Al     tau(   2) = (  -0.3535534   0.0000000   0.3535534  )
         3        Al     tau(   3) = (   0.0000000   0.3535534   0.3535534  )
         4        Al     tau(   4) = (  -0.3535534   0.3535534   0.7071068  )
         5        Al     tau(   5) = (  -0.3535534   0.3535534   0.0000000  )
         6        Al     tau(   6) = (  -0.7071068   0.3535534   0.3535534  )
         7        Al     tau(   7) = (  -0.3535534   0.7071068   0.3535534  )
         8        Al     tau(   8) = (  -0.7071068   0.7071068   0.7071068  )

   Crystallographic axes

     site n.     atom                  positions (cryst. coord.)
         1        Al     tau(   1) = (  0.0017874  0.0000000  0.0000000  )
         2        Al     tau(   2) = (  0.5000000  0.0000000  0.0000000  )
         3        Al     tau(   3) = (  0.0000000  0.5000000  0.0000000  )
         4        Al     tau(   4) = (  0.5000000  0.5000000  0.0000000  )
         5        Al     tau(   5) = (  0.0000000  0.0000000  0.5000000  )
         6        Al     tau(   6) = (  0.5000000  0.0000000  0.5000000  )
         7        Al     tau(   7) = (  0.0000000  0.5000000  0.5000000  )
         8        Al     tau(   8) = (  0.5000000  0.5000000  0.5000000  )

     number of k points=    95  Marzari-Vanderbilt smearing, width (Ry)=  0.0200
                       cart. coord. in units 2pi/alat
        k(    1) = (   0.0000000   0.0000000   0.0000000), wk =   0.0039062
        k(    2) = (  -0.0883883   0.0883883  -0.0883883), wk =   0.0156250
        k(    3) = (  -0.1767767   0.1767767  -0.1767767), wk =   0.0156250
        k(    4) = (  -0.2651650   0.2651650  -0.2651650), wk =   0.0156250
        k(    5) = (   0.3535534  -0.3535534   0.3535534), wk =   0.0078125
        k(    6) = (   0.0000000   0.1767767   0.0000000), wk =   0.0078125
        k(    7) = (  -0.0883883   0.2651650  -0.0883883), wk =   0.0156250
        k(    8) = (  -0.1767767   0.3535534  -0.1767767), wk =   0.0156250
        k(    9) = (   0.4419417  -0.2651650   0.4419417), wk =   0.0156250
        k(   10) = (   0.3535534  -0.1767767   0.3535534), wk =   0.0156250
        k(   11) = (   0.2651650  -0.0883883   0.2651650), wk =   0.0156250
        k(   12) = (   0.1767767   0.0000000   0.1767767), wk =   0.0078125
        k(   13) = (   0.0000000   0.3535534   0.0000000), wk =   0.0078125
        k(   14) = (  -0.0883883   0.4419417  -0.0883883), wk =   0.0156250
        k(   15) = (   0.5303301  -0.1767767   0.5303301), wk =   0.0156250
        k(   16) = (   0.4419417  -0.0883883   0.4419417), wk =   0.0156250
        k(   17) = (   0.3535534   0.0000000   0.3535534), wk =   0.0078125
        k(   18) = (   0.0000000   0.5303301   0.0000000), wk =   0.0078125
        k(   19) = (   0.6187184  -0.0883883   0.6187184), wk =   0.0156250
        k(   20) = (   0.5303301   0.0000000   0.5303301), wk =   0.0078125
        k(   21) = (   0.0000000  -0.7071068   0.0000000), wk =   0.0039062
        k(   22) = (  -0.1767767   0.3535534   0.0000000), wk =   0.0312500
        k(   23) = (   0.4419417  -0.2651650   0.6187184), wk =   0.0312500
        k(   24) = (   0.3535534  -0.1767767   0.5303301), wk =   0.0312500
        k(   25) = (   0.5303301  -0.1767767   0.7071068), wk =   0.0312500
        k(   26) = (   0.4419417  -0.0883883   0.6187184), wk =   0.0312500
        k(   27) = (   0.3535534   0.0000000   0.5303301), wk =   0.0156250
        k(   28) = (  -0.1767767  -0.7071068   0.0000000), wk =   0.0156250
        k(   29) = (  -0.3535534  -0.7071068   0.0000000), wk =   0.0156250
        k(   30) = (  -0.0883883   0.0883883   0.0883883), wk =   0.0156250
        k(   31) = (  -0.1767767   0.1767767   0.1767767), wk =   0.0156250
        k(   32) = (  -0.2651650   0.2651650   0.2651650), wk =   0.0156250
        k(   33) = (   0.3535534  -0.3535534  -0.3535534), wk =   0.0078125
        k(   34) = (   0.1767767   0.0000000   0.0000000), wk =   0.0156250
        k(   35) = (   0.2651650  -0.0883883   0.0883883), wk =   0.0312500
        k(   36) = (  -0.2651650   0.0883883   0.0883883), wk =   0.0312500
        k(   37) = (   0.0883883  -0.2651650  -0.0883883), wk =   0.0156250
        k(   38) = (   0.3535534  -0.1767767   0.1767767), wk =   0.0312500
        k(   39) = (  -0.3535534   0.1767767   0.1767767), wk =   0.0312500
        k(   40) = (   0.1767767  -0.3535534  -0.1767767), wk =   0.0156250
        k(   41) = (  -0.2651650   0.4419417  -0.4419417), wk =   0.0312500
        k(   42) = (   0.2651650  -0.4419417  -0.4419417), wk =   0.0312500
        k(   43) = (  -0.4419417   0.2651650   0.4419417), wk =   0.0156250
        k(   44) = (  -0.1767767   0.3535534  -0.3535534), wk =   0.0312500
        k(   45) = (   0.1767767  -0.3535534  -0.3535534), wk =   0.0312500
        k(   46) = (  -0.3535534   0.1767767   0.3535534), wk =   0.0156250
        k(   47) = (  -0.0883883   0.2651650  -0.2651650), wk =   0.0312500
        k(   48) = (   0.0883883  -0.2651650  -0.2651650), wk =   0.0312500
        k(   49) = (  -0.2651650   0.0883883   0.2651650), wk =   0.0156250
        k(   50) = (   0.0000000   0.1767767  -0.1767767), wk =   0.0312500
        k(   51) = (  -0.1767767   0.0000000   0.1767767), wk =   0.0078125
        k(   52) = (   0.3535534   0.0000000   0.0000000), wk =   0.0156250
        k(   53) = (   0.4419417  -0.0883883   0.0883883), wk =   0.0312500
        k(   54) = (  -0.4419417   0.0883883   0.0883883), wk =   0.0312500
        k(   55) = (   0.0883883  -0.4419417  -0.0883883), wk =   0.0156250
        k(   56) = (  -0.1767767   0.5303301  -0.5303301), wk =   0.0312500
        k(   57) = (   0.1767767  -0.5303301  -0.5303301), wk =   0.0312500
        k(   58) = (  -0.5303301   0.1767767   0.5303301), wk =   0.0156250
        k(   59) = (  -0.0883883   0.4419417  -0.4419417), wk =   0.0312500
        k(   60) = (   0.0883883  -0.4419417  -0.4419417), wk =   0.0312500
        k(   61) = (  -0.4419417   0.0883883   0.4419417), wk =   0.0156250
        k(   62) = (   0.0000000   0.3535534  -0.3535534), wk =   0.0312500
        k(   63) = (  -0.3535534   0.0000000   0.3535534), wk =   0.0078125
        k(   64) = (   0.5303301   0.0000000   0.0000000), wk =   0.0156250
        k(   65) = (  -0.0883883   0.6187184  -0.6187184), wk =   0.0312500
        k(   66) = (   0.0883883  -0.6187184  -0.6187184), wk =   0.0312500
        k(   67) = (  -0.6187184   0.0883883   0.6187184), wk =   0.0156250
        k(   68) = (   0.0000000   0.5303301  -0.5303301), wk =   0.0312500
        k(   69) = (  -0.5303301   0.0000000   0.5303301), wk =   0.0078125
        k(   70) = (  -0.7071068   0.0000000   0.0000000), wk =   0.0078125
        k(   71) = (   0.3535534  -0.1767767   0.0000000), wk =   0.0312500
        k(   72) = (   0.1767767   0.0000000   0.3535534), wk =   0.0156250
        k(   73) = (   0.1767767   0.0000000  -0.3535534), wk =   0.0156250
        k(   74) = (  -0.2651650   0.4419417  -0.6187184), wk =   0.0312500
        k(   75) = (   0.2651650  -0.4419417  -0.6187184), wk =   0.0312500
        k(   76) = (  -0.4419417   0.2651650   0.6187184), wk =   0.0312500
        k(   77) = (  -0.4419417   0.6187184  -0.2651650), wk =   0.0312500
        k(   78) = (  -0.4419417  -0.6187184   0.2651650), wk =   0.0312500
        k(   79) = (  -0.1767767   0.3535534  -0.5303301), wk =   0.0156250
        k(   80) = (   0.1767767  -0.3535534  -0.5303301), wk =   0.0156250
        k(   81) = (  -0.3535534   0.1767767   0.5303301), wk =   0.0312500
        k(   82) = (  -0.1767767   0.5303301  -0.7071068), wk =   0.0312500
        k(   83) = (  -0.5303301   0.7071068  -0.1767767), wk =   0.0156250
        k(   84) = (  -0.5303301  -0.7071068   0.1767767), wk =   0.0156250
        k(   85) = (  -0.0883883   0.4419417  -0.6187184), wk =   0.0312500
        k(   86) = (   0.0883883  -0.4419417  -0.6187184), wk =   0.0312500
        k(   87) = (  -0.4419417   0.0883883   0.6187184), wk =   0.0312500
        k(   88) = (  -0.4419417   0.6187184  -0.0883883), wk =   0.0312500
        k(   89) = (  -0.4419417  -0.6187184   0.0883883), wk =   0.0312500
        k(   90) = (   0.0000000   0.3535534  -0.5303301), wk =   0.0312500
        k(   91) = (  -0.3535534   0.0000000   0.5303301), wk =   0.0156250
        k(   92) = (  -0.3535534   0.5303301   0.0000000), wk =   0.0312500
        k(   93) = (  -0.7071068  -0.1767767   0.0000000), wk =   0.0156250
        k(   94) = (   0.1767767   0.0000000  -0.7071068), wk =   0.0156250
        k(   95) = (  -0.7071068  -0.3535534   0.0000000), wk =   0.0078125

                       cryst. coord.
        k(    1) = (   0.0000000   0.0000000   0.0000000), wk =   0.0039062
        k(    2) = (   0.0000000   0.0000000   0.1250000), wk =   0.0156250
        k(    3) = (   0.0000000   0.0000000   0.2500000), wk =   0.0156250
        k(    4) = (   0.0000000   0.0000000   0.3750000), wk =   0.0156250
        k(    5) = (   0.0000000   0.0000000  -0.5000000), wk =   0.0078125
        k(    6) = (   0.0000000   0.1250000   0.1250000), wk =   0.0078125
        k(    7) = (   0.0000000   0.1250000   0.2500000), wk =   0.0156250
        k(    8) = (   0.0000000   0.1250000   0.3750000), wk =   0.0156250
        k(    9) = (   0.0000000   0.1250000  -0.5000000), wk =   0.0156250
        k(   10) = (   0.0000000   0.1250000  -0.3750000), wk =   0.0156250
        k(   11) = (   0.0000000   0.1250000  -0.2500000), wk =   0.0156250
        k(   12) = (   0.0000000   0.1250000  -0.1250000), wk =   0.0078125
        k(   13) = (   0.0000000   0.2500000   0.2500000), wk =   0.0078125
        k(   14) = (   0.0000000   0.2500000   0.3750000), wk =   0.0156250
        k(   15) = (   0.0000000   0.2500000  -0.5000000), wk =   0.0156250
        k(   16) = (   0.0000000   0.2500000  -0.3750000), wk =   0.0156250
        k(   17) = (   0.0000000   0.2500000  -0.2500000), wk =   0.0078125
        k(   18) = (   0.0000000   0.3750000   0.3750000), wk =   0.0078125
        k(   19) = (   0.0000000   0.3750000  -0.5000000), wk =   0.0156250
        k(   20) = (   0.0000000   0.3750000  -0.3750000), wk =   0.0078125
        k(   21) = (   0.0000000  -0.5000000  -0.5000000), wk =   0.0039062
        k(   22) = (   0.1250000   0.2500000   0.3750000), wk =   0.0312500
        k(   23) = (   0.1250000   0.2500000  -0.5000000), wk =   0.0312500
        k(   24) = (   0.1250000   0.2500000  -0.3750000), wk =   0.0312500
        k(   25) = (   0.1250000   0.3750000  -0.5000000), wk =   0.0312500
        k(   26) = (   0.1250000   0.3750000  -0.3750000), wk =   0.0312500
        k(   27) = (   0.1250000   0.3750000  -0.2500000), wk =   0.0156250
        k(   28) = (   0.1250000  -0.5000000  -0.3750000), wk =   0.0156250
        k(   29) = (   0.2500000  -0.5000000  -0.2500000), wk =   0.0156250
        k(   30) = (   0.1250000   0.1250000   0.1250000), wk =   0.0156250
        k(   31) = (   0.2500000   0.2500000   0.2500000), wk =   0.0156250
        k(   32) = (   0.3750000   0.3750000   0.3750000), wk =   0.0156250
        k(   33) = (  -0.5000000  -0.5000000  -0.5000000), wk =   0.0078125
        k(   34) = (  -0.1250000   0.0000000  -0.1250000), wk =   0.0156250
        k(   35) = (  -0.1250000   0.0000000  -0.2500000), wk =   0.0312500
        k(   36) = (   0.2500000   0.1250000   0.2500000), wk =   0.0312500
        k(   37) = (  -0.1250000  -0.2500000  -0.2500000), wk =   0.0156250
        k(   38) = (  -0.1250000   0.0000000  -0.3750000), wk =   0.0312500
        k(   39) = (   0.3750000   0.2500000   0.3750000), wk =   0.0312500
        k(   40) = (  -0.2500000  -0.3750000  -0.3750000), wk =   0.0156250
        k(   41) = (  -0.1250000   0.0000000   0.5000000), wk =   0.0312500
        k(   42) = (  -0.5000000  -0.6250000  -0.5000000), wk =   0.0312500
        k(   43) = (   0.6250000   0.5000000   0.5000000), wk =   0.0156250
        k(   44) = (  -0.1250000   0.0000000   0.3750000), wk =   0.0312500
        k(   45) = (  -0.3750000  -0.5000000  -0.3750000), wk =   0.0312500
        k(   46) = (   0.5000000   0.3750000   0.3750000), wk =   0.0156250
        k(   47) = (  -0.1250000   0.0000000   0.2500000), wk =   0.0312500
        k(   48) = (  -0.2500000  -0.3750000  -0.2500000), wk =   0.0312500
        k(   49) = (   0.3750000   0.2500000   0.2500000), wk =   0.0156250
        k(   50) = (  -0.1250000   0.0000000   0.1250000), wk =   0.0312500
        k(   51) = (   0.2500000   0.1250000   0.1250000), wk =   0.0078125
        k(   52) = (  -0.2500000   0.0000000  -0.2500000), wk =   0.0156250
        k(   53) = (  -0.2500000   0.0000000  -0.3750000), wk =   0.0312500
        k(   54) = (   0.3750000   0.1250000   0.3750000), wk =   0.0312500
        k(   55) = (  -0.1250000  -0.3750000  -0.3750000), wk =   0.0156250
        k(   56) = (  -0.2500000   0.0000000   0.5000000), wk =   0.0312500
        k(   57) = (  -0.5000000  -0.7500000  -0.5000000), wk =   0.0312500
        k(   58) = (   0.7500000   0.5000000   0.5000000), wk =   0.0156250
        k(   59) = (  -0.2500000   0.0000000   0.3750000), wk =   0.0312500
        k(   60) = (  -0.3750000  -0.6250000  -0.3750000), wk =   0.0312500
        k(   61) = (   0.6250000   0.3750000   0.3750000), wk =   0.0156250
        k(   62) = (  -0.2500000   0.0000000   0.2500000), wk =   0.0312500
        k(   63) = (   0.5000000   0.2500000   0.2500000), wk =   0.0078125
        k(   64) = (  -0.3750000   0.0000000  -0.3750000), wk =   0.0156250
        k(   65) = (  -0.3750000   0.0000000   0.5000000), wk =   0.0312500
        k(   66) = (  -0.5000000  -0.8750000  -0.5000000), wk =   0.0312500
        k(   67) = (   0.8750000   0.5000000   0.5000000), wk =   0.0156250
        k(   68) = (  -0.3750000   0.0000000   0.3750000), wk =   0.0312500
        k(   69) = (   0.7500000   0.3750000   0.3750000), wk =   0.0078125
        k(   70) = (   0.5000000   0.0000000   0.5000000), wk =   0.0078125
        k(   71) = (  -0.2500000  -0.1250000  -0.3750000), wk =   0.0312500
        k(   72) = (   0.1250000   0.2500000  -0.1250000), wk =   0.0156250
        k(   73) = (  -0.3750000  -0.2500000  -0.1250000), wk =   0.0156250
        k(   74) = (  -0.2500000  -0.1250000   0.5000000), wk =   0.0312500
        k(   75) = (  -0.6250000  -0.7500000  -0.5000000), wk =   0.0312500
        k(   76) = (   0.7500000   0.6250000   0.5000000), wk =   0.0312500
        k(   77) = (   0.1250000   0.2500000   0.7500000), wk =   0.0312500
        k(   78) = (   0.5000000  -0.2500000  -0.1250000), wk =   0.0312500
        k(   79) = (  -0.2500000  -0.1250000   0.3750000), wk =   0.0156250
        k(   80) = (  -0.5000000  -0.6250000  -0.3750000), wk =   0.0156250
        k(   81) = (   0.6250000   0.5000000   0.3750000), wk =   0.0312500
        k(   82) = (  -0.3750000  -0.1250000   0.5000000), wk =   0.0312500
        k(   83) = (   0.2500000   0.3750000   0.8750000), wk =   0.0156250
        k(   84) = (   0.5000000  -0.3750000  -0.1250000), wk =   0.0156250
        k(   85) = (  -0.3750000  -0.1250000   0.3750000), wk =   0.0312500
        k(   86) = (  -0.5000000  -0.7500000  -0.3750000), wk =   0.0312500
        k(   87) = (   0.7500000   0.5000000   0.3750000), wk =   0.0312500
        k(   88) = (   0.2500000   0.3750000   0.7500000), wk =   0.0312500
        k(   89) = (   0.3750000  -0.3750000  -0.1250000), wk =   0.0312500
        k(   90) = (  -0.3750000  -0.1250000   0.2500000), wk =   0.0312500
        k(   91) = (   0.6250000   0.3750000   0.2500000), wk =   0.0156250
        k(   92) = (   0.2500000   0.3750000   0.6250000), wk =   0.0312500
        k(   93) = (   0.5000000  -0.1250000   0.3750000), wk =   0.0156250
        k(   94) = (  -0.6250000  -0.5000000  -0.1250000), wk =   0.0156250
        k(   95) = (   0.5000000  -0.2500000   0.2500000), wk =   0.0078125

     Dense  grid:    28571 G-vectors     FFT dimensions: (  45,  45,  45)

     Dynamical RAM for                 wfc:       0.12 MB

     Dynamical RAM for     wfc (w. buffer):      11.76 MB

     Dynamical RAM for           str. fact:       0.05 MB

     Dynamical RAM for           local pot:       0.00 MB

     Dynamical RAM for          nlocal pot:       0.22 MB

     Dynamical RAM for                qrad:       0.09 MB

     Dynamical RAM for          rho,v,vnew:       0.44 MB

     Dynamical RAM for               rhoin:       0.15 MB

     Dynamical RAM for            rho*nmix:       0.87 MB

     Dynamical RAM for           G-vectors:       0.23 MB

     Dynamical RAM for          h,s,v(r/c):       0.06 MB

     Dynamical RAM for          <psi|beta>:       0.01 MB

     Dynamical RAM for                 psi:       0.24 MB

     Dynamical RAM for                hpsi:       0.24 MB

     Dynamical RAM for      wfcinit/wfcrot:       0.25 MB

     Estimated static dynamical RAM per process >      13.51 MB

     Estimated max dynamical RAM per process >      14.94 MB

     Estimated total dynamical RAM >     119.54 MB

     Initial potential from superposition of free atoms

     starting charge      23.9835, renormalised to      24.0000

     negative rho (up, down):  1.114E-04 0.000E+00
     Starting wfcs are   32 randomized atomic wfcs

     total cpu time spent up to now is        1.1 secs

     Self-consistent Calculation

     iteration #  1     ecut=    40.00 Ry     beta= 0.70
     Davidson diagonalization with overlap

---- Real-time Memory Report at c_bands before calling an iterative solver
            68 MiB given to the printing process from OS
             0 MiB allocation reported by mallinfo(arena+hblkhd)
         11335 MiB available memory on the node where the printing process lives
------------------
     ethr =  1.00E-02,  avg # of iterations =  3.7

     Threshold (ethr) on eigenvalues was too large:
     Diagonalizing with lowered threshold

     Davidson diagonalization with overlap

---- Real-time Memory Report at c_bands before calling an iterative solver
            71 MiB given to the printing process from OS
             0 MiB allocation reported by mallinfo(arena+hblkhd)
         11060 MiB available memory on the node where the printing process lives
------------------
     ethr =  1.73E-04,  avg # of iterations =  4.2

     negative rho (up, down):  8.217E-06 0.000E+00

     total cpu time spent up to now is        5.3 secs

     total energy              =     -33.52667408 Ry
     estimated scf accuracy    <       0.04554813 Ry

     iteration #  2     ecut=    40.00 Ry     beta= 0.70
     Davidson diagonalization with overlap

---- Real-time Memory Report at c_bands before calling an iterative solver
            71 MiB given to the printing process from OS
             0 MiB allocation reported by mallinfo(arena+hblkhd)
         10984 MiB available memory on the node where the printing process lives
------------------
     ethr =  1.90E-04,  avg # of iterations =  1.0

     total cpu time spent up to now is        6.6 secs

     total energy              =     -33.52704187 Ry
     estimated scf accuracy    <       0.00356957 Ry

     iteration #  3     ecut=    40.00 Ry     beta= 0.70
     Davidson diagonalization with overlap

---- Real-time Memory Report at c_bands before calling an iterative solver
            72 MiB given to the printing process from OS
             0 MiB allocation reported by mallinfo(arena+hblkhd)
         10982 MiB available memory on the node where the printing process lives
------------------
     ethr =  1.49E-05,  avg # of iterations =  2.2

     total cpu time spent up to now is        8.1 secs

     total energy              =     -33.52708829 Ry
     estimated scf accuracy    <       0.00001558 Ry

     iteration #  4     ecut=    40.00 Ry     beta= 0.70
     Davidson diagonalization with overlap

---- Real-time Memory Report at c_bands before calling an iterative solver
            72 MiB given to the printing process from OS
             0 MiB allocation reported by mallinfo(arena+hblkhd)
         10981 MiB available memory on the node where the printing process lives
------------------
     c_bands:  2 eigenvalues not converged
     ethr =  6.49E-08,  avg # of iterations =  4.4

     total cpu time spent up to now is       10.2 secs

     total energy              =     -33.52709732 Ry
     estimated scf accuracy    <       0.00000244 Ry

     iteration #  5     ecut=    40.00 Ry     beta= 0.70
     Davidson diagonalization with overlap

---- Real-time Memory Report at c_bands before calling an iterative solver
            72 MiB given to the printing process from OS
             0 MiB allocation reported by mallinfo(arena+hblkhd)
         10997 MiB available memory on the node where the printing process lives
------------------
     ethr =  1.02E-08,  avg # of iterations =  2.0

     total cpu time spent up to now is       11.8 secs

     total energy              =     -33.52709783 Ry
     estimated scf accuracy    <       0.00000007 Ry

     iteration #  6     ecut=    40.00 Ry     beta= 0.70
     Davidson diagonalization with overlap

---- Real-time Memory Report at c_bands before calling an iterative solver
            72 MiB given to the printing process from OS
             0 MiB allocation reported by mallinfo(arena+hblkhd)
         11001 MiB available memory on the node where the printing process lives
------------------
     ethr =  2.97E-10,  avg # of iterations =  2.6

     total cpu time spent up to now is       13.5 secs

     total energy              =     -33.52709785 Ry
     estimated scf accuracy    <          7.4E-09 Ry

     iteration #  7     ecut=    40.00 Ry     beta= 0.70
     Davidson diagonalization with overlap

---- Real-time Memory Report at c_bands before calling an iterative solver
            73 MiB given to the printing process from OS
             0 MiB allocation reported by mallinfo(arena+hblkhd)
         11025 MiB available memory on the node where the printing process lives
------------------
     ethr =  3.07E-11,  avg # of iterations =  2.2

     total cpu time spent up to now is       15.1 secs

     total energy              =     -33.52709785 Ry
     estimated scf accuracy    <          1.1E-10 Ry

     iteration #  8     ecut=    40.00 Ry     beta= 0.70
     Davidson diagonalization with overlap

---- Real-time Memory Report at c_bands before calling an iterative solver
            73 MiB given to the printing process from OS
             0 MiB allocation reported by mallinfo(arena+hblkhd)
         11049 MiB available memory on the node where the printing process lives
------------------
     ethr =  4.50E-13,  avg # of iterations =  3.7

     total cpu time spent up to now is       17.1 secs

     total energy              =     -33.52709785 Ry
     estimated scf accuracy    <          2.3E-11 Ry

     iteration #  9     ecut=    40.00 Ry     beta= 0.70
     Davidson diagonalization with overlap

---- Real-time Memory Report at c_bands before calling an iterative solver
            73 MiB given to the printing process from OS
             0 MiB allocation reported by mallinfo(arena+hblkhd)
         11069 MiB available memory on the node where the printing process lives
------------------
     ethr =  1.00E-13,  avg # of iterations =  2.0

     total cpu time spent up to now is       18.6 secs

     total energy              =     -33.52709785 Ry
     estimated scf accuracy    <          2.6E-12 Ry

     iteration # 10     ecut=    40.00 Ry     beta= 0.70
     Davidson diagonalization with overlap

---- Real-time Memory Report at c_bands before calling an iterative solver
            73 MiB given to the printing process from OS
             0 MiB allocation reported by mallinfo(arena+hblkhd)
         11076 MiB available memory on the node where the printing process lives
------------------
     ethr =  1.00E-13,  avg # of iterations =  1.0

     total cpu time spent up to now is       20.0 secs

     End of self-consistent calculation

          k = 0.0000 0.0000 0.0000 (  3527 PWs)   bands (ev):

    -3.1666   3.6440   3.6445   3.6447   3.6447   3.8944   3.8944   3.8945
     3.8949   5.3930   5.3930   5.3930   6.7305   6.7305   6.7306  13.5716
    13.5716  14.1797

     occupation numbers 
     1.0000   1.0000   1.0000   1.0000   1.0000   1.0000   1.0000   1.0000
     1.0000   1.0000   1.0000   1.0000   1.0000   1.0000   1.0000   0.0000
     0.0000   0.0000

          k =-0.0884 0.0884-0.0884 (  3593 PWs)   bands (ev):

    -3.0544   2.1797   3.2954   3.2987   3.3021   4.4429   4.4463   4.4497
     4.8611   4.8640   4.8669   5.5448   7.4525   7.4557   7.4589  12.2538
    12.2584  12.2630

     occupation numbers 
     1.0000   1.0000   1.0000   1.0000   1.0000   1.0000   1.0000   1.0000
     1.0000   1.0000   1.0000   1.0000   1.0001   1.0001   1.0001   0.0000
     0.0000   0.0000

          k =-0.1768 0.1768-0.1768 (  3590 PWs)   bands (ev):

    -2.7189   0.7896   3.0541   3.0576   3.0610   4.1385   4.1418   4.1450
     5.3008   5.3043   5.3078   7.4915   8.7469   8.7510   8.7552  10.6397
    10.6431  10.6465

     occupation numbers 
     1.0000   1.0000   1.0000   1.0000   1.0000   1.0000   1.0000   1.0000
     1.0000   1.0000   1.0000   1.0002   0.0124   0.0117   0.0110   0.0000
     0.0000   0.0000

          k =-0.2652 0.2652-0.2652 (  3591 PWs)   bands (ev):

    -2.1623  -0.4024   3.0184   3.0218   3.0253   3.5677   3.5710   3.5744
     6.3574   6.3610   6.3647   8.9749   8.9798   8.9847   9.6107  10.4152
    10.4176  10.4202

     occupation numbers 
     1.0000   1.0000   1.0000   1.0000   1.0000   1.0000   1.0000   1.0000
     1.0000   1.0000   1.0000   0.0002   0.0002   0.0002   0.0000   0.0000
     0.0000   0.0000

          k = 0.3536-0.3536 0.3536 (  3582 PWs)   bands (ev):

    -1.3884  -1.3883   3.1837   3.1876   3.1941   3.1941   3.2006   3.2046
     7.5949   7.5981   7.6009   7.6009   7.6037   7.6070  11.8918  11.8919
    12.1393  12.1411

     occupation numbers 
     1.0000   1.0000   1.0000   1.0000   1.0000   1.0000   1.0000   1.0000
     1.0015   1.0015   1.0016   1.0016   1.0017   1.0018   0.0000   0.0000
     0.0000   0.0000

          k = 0.0000 0.1768 0.0000 (  3591 PWs)   bands (ev):

    -3.0170   2.7683   2.7782   2.7782   2.7881   3.8664   5.0183   5.0285
     5.0285   5.0384   5.5234   5.5235   6.8719   6.8719   8.4994  11.8479
    11.8480  13.3356

     occupation numbers 
     1.0000   1.0000   1.0000   1.0000   1.0000   1.0000   1.0000   1.0000
     1.0000   1.0000   1.0000   1.0000   1.0000   1.0000   0.2120   0.0000
     0.0000   0.0000

          k =-0.0884 0.2652-0.0884 (  3578 PWs)   bands (ev):

    -2.7560   1.3267   2.4589   2.4646   3.0138   3.5757   4.7236   5.1308
     5.1356   5.8142   5.8200   6.9117   7.7211   7.7266   9.7874  10.5086
    10.5129  12.5299

     occupation numbers 
     1.0000   1.0000   1.0000   1.0000   1.0000   1.0000   1.0000   1.0000
     1.0000   1.0000   1.0000   1.0000   1.0091   1.0097   0.0000   0.0000
     0.0000   0.0000

          k =-0.1768 0.3536-0.1768 (  3566 PWs)   bands (ev):

    -2.2733   0.0690   2.3452   2.3551   2.3627   4.4412   4.5503   4.5556
     4.7565   6.7981   6.8042   8.7350   8.7448   8.9703   9.3767   9.3776
    10.8683  11.4421

     occupation numbers 
     1.0000   1.0000   1.0000   1.0000   1.0000   1.0000   1.0000   1.0000
     1.0000   1.0000   1.0000   0.0148   0.0128   0.0002   0.0000   0.0000
     0.0000   0.0000

          k = 0.4419-0.2652 0.4419 (  3569 PWs)   bands (ev):

    -1.5720  -0.9854   1.8943   2.4573   2.4630   4.1213   4.1268   4.6627
     5.8267   7.4167   7.4229   7.9644   7.9710   9.5540  10.9141  10.9188
    11.1917  11.4638

     occupation numbers 
     1.0000   1.0000   1.0000   1.0000   1.0000   1.0000   1.0000   1.0000
     1.0000   1.0001   1.0001   1.0731   1.0749   0.0000   0.0000   0.0000
     0.0000   0.0000

          k = 0.3536-0.1768 0.3536 (  3572 PWs)   bands (ev):

    -1.8298  -0.6570   1.6467   2.7713   2.7769   3.8849   3.8904   4.9593
     6.1182   6.1240   7.1819   8.2824   9.2839   9.2917   9.6650  10.4364
    11.7156  11.7225

     occupation numbers 
     1.0000   1.0000   1.0000   1.0000   1.0000   1.0000   1.0000   1.0000
     1.0000   1.0000   1.0000   0.7509   0.0000   0.0000   0.0000   0.0000
     0.0000   0.0000

          k = 0.2652-0.0884 0.2652 (  3568 PWs)   bands (ev):

    -2.4587   0.4660   1.6116   3.2901   3.2956   3.8475   3.8529   4.9995
     5.0049   5.4009   7.1798   7.9236   8.2664   8.8915   9.9968  10.0053
    10.8136  10.8206

     occupation numbers 
     1.0000   1.0000   1.0000   1.0000   1.0000   1.0000   1.0000   1.0000
     1.0000   1.0000   1.0000   1.0601   0.7917   0.0011   0.0000   0.0000
     0.0000   0.0000

          k = 0.1768 0.0000 0.1768 (  3589 PWs)   bands (ev):

    -2.8678   1.7896   1.7897   3.9103   3.9103   4.0015   4.0069   4.1845
     4.1846   5.6539   6.2641   6.2641   7.0094   8.6276   8.6339  10.4971
    11.9767  11.9883

     occupation numbers 
     1.0000   1.0000   1.0000   1.0000   1.0000   1.0000   1.0000   1.0000
     1.0000   1.0000   1.0000   1.0000   1.0000   0.0592   0.0551   0.0000
     0.0000   0.0000

          k = 0.0000 0.3536 0.0000 (  3591 PWs)   bands (ev):

    -2.5701   2.0597   2.0711   2.0733   2.0733   2.0854   5.9149   5.9151
     6.5202   6.5304   6.5305   6.5409   7.2876   7.2876  10.1277  10.1278
    11.0244  11.8817

     occupation numbers 
     1.0000   1.0000   1.0000   1.0000   1.0000   1.0000   1.0000   1.0000
     1.0000   1.0000   1.0000   1.0000   1.0000   1.0000   0.0000   0.0000
     0.0000   0.0000

          k =-0.0884 0.4419-0.0884 (  3564 PWs)   bands (ev):

    -2.1621   0.7537   1.3254   1.8931   1.8989   3.0237   5.6668   5.6716
     6.3477   7.4313   7.4377   8.1957   8.2034   8.5177   8.9881   8.9893
    11.7315  11.7356

     occupation numbers 
     1.0000   1.0000   1.0000   1.0000   1.0000   1.0000   1.0000   1.0000
     1.0000   1.0001   1.0001   0.9457   0.9316   0.1812   0.0002   0.0002
     0.0000   0.0000

          k = 0.5303-0.1768 0.5303 (  3570 PWs)   bands (ev):

    -1.5351  -0.3659   0.7895   1.9280   1.9338   4.1686   5.2290   5.2343
     6.3547   7.4131   7.4194   8.5057   8.5128   9.8794   9.8832  10.6563
    11.0071  11.6505

     occupation numbers 
     1.0000   1.0000   1.0000   1.0000   1.0000   1.0000   1.0000   1.0000
     1.0000   1.0000   1.0001   0.2009   0.1890   0.0000   0.0000   0.0000
     0.0000   0.0000

          k = 0.4419-0.0884 0.4419 (  3564 PWs)   bands (ev):

    -1.2782  -0.6932   0.4661   2.1748   2.1806   4.9332   4.9385   5.4907
     6.0847   6.0902   6.5085   9.1977   9.6892   9.6979  10.3668  11.4375
    11.6290  11.6331

     occupation numbers 
     1.0000   1.0000   1.0000   1.0000   1.0000   1.0000   1.0000   1.0000
     1.0000   1.0000   1.0000   0.0000   0.0000   0.0000   0.0000   0.0000
     0.0000   0.0000

          k = 0.3536 0.0000 0.3536 (  3583 PWs)   bands (ev):

    -1.9774   0.3579   0.3579   2.6308   2.6364   4.7068   4.7069   5.0375
     5.0376   6.4385   6.9355   8.0547   9.2292   9.2293  10.6550  10.6660
    11.3761  11.3872

     occupation numbers 
     1.0000   1.0000   1.0000   1.0000   1.0000   1.0000   1.0000   1.0000
     1.0000   1.0000   1.0000   1.0806   0.0000   0.0000   0.0000   0.0000
     0.0000   0.0000

          k = 0.0000 0.5303 0.0000 (  3547 PWs)   bands (ev):

    -1.8295   0.5021   1.6374   1.6473   1.6473   1.6572   6.5692   6.5693
     7.9314   7.9316   8.2328   8.2437   8.2439   8.2547   8.6736   8.6736
    10.5322  10.5322

     occupation numbers 
     1.0000   1.0000   1.0000   1.0000   1.0000   1.0000   1.0000   1.0000
     1.0628   1.0628   0.8712   0.8464   0.8460   0.8206   0.0339   0.0339
     0.0000   0.0000

          k = 0.6187-0.0884 0.6187 (  3553 PWs)   bands (ev):

    -1.2779  -0.1116   0.4661   1.6087   1.6145   2.7432   6.4601   6.4650
     7.5380   7.5439   8.1002   9.0292   9.0310   9.1645   9.1729  10.2370
    10.5446  10.5474

     occupation numbers 
     1.0000   1.0000   1.0000   1.0000   1.0000   1.0000   1.0000   1.0000
     1.0006   1.0006   1.0618   0.0001   0.0001   0.0000   0.0000   0.0000
     0.0000   0.0000

          k = 0.5303 0.0000 0.5303 (  3568 PWs)   bands (ev):

    -0.5112  -0.5110  -0.5110   1.7860   1.7918   4.0327   6.0255   6.0256
     6.3686   6.3687   7.7519   9.3667   9.8608   9.8714  10.4557  10.4558
    11.3669  11.3670

     occupation numbers 
     1.0000   1.0000   1.0000   1.0000   1.0000   1.0000   1.0000   1.0000
     1.0000   1.0000   1.0132   0.0000   0.0000   0.0000   0.0000   0.0000
     0.0000   0.0000

          k = 0.0000-0.7071 0.0000 (  3572 PWs)   bands (ev):

    -0.8024  -0.8023   1.4950   1.5048   1.5048   1.5147   7.4879   7.4880
     7.4880   7.4880   8.4462   8.4463   9.5888   9.6011   9.6015   9.6142
     9.7743   9.7746

     occupation numbers 
     1.0000   1.0000   1.0000   1.0000   1.0000   1.0000   1.0002   1.0002
     1.0002   1.0002   0.3193   0.3191   0.0000   0.0000   0.0000   0.0000
     0.0000   0.0000

          k =-0.1768 0.3536 0.0000 (  3565 PWs)   bands (ev):

    -2.4216   1.0717   1.0811   2.2109   3.3321   3.3416   4.4163   5.5695
     5.5792   6.0458   7.3904   7.7491   7.7592   8.8605   9.0112  10.2609
    11.1391  12.0310

     occupation numbers 
     1.0000   1.0000   1.0000   1.0000   1.0000   1.0000   1.0000   1.0000
     1.0000   1.0000   1.0000   1.0128   1.0144   0.0020   0.0001   0.0000
     0.0000   0.0000

          k = 0.4419-0.2652 0.6187 (  3568 PWs)   bands (ev):

    -1.8666  -0.1119   1.0405   1.6104   3.3016   3.8485   4.4003   5.5412
     5.9277   6.6189   7.1138   8.6717   8.7813   9.1391   9.8585  10.5505
    11.2637  12.0699

     occupation numbers 
     1.0000   1.0000   1.0000   1.0000   1.0000   1.0000   1.0000   1.0000
     1.0000   1.0000   1.0000   0.0347   0.0074   0.0000   0.0000   0.0000
     0.0000   0.0000

          k = 0.3536-0.1768 0.5303 (  3578 PWs)   bands (ev):

    -1.0951  -1.0950   1.2134   1.2247   3.4729   3.4735   5.4971   5.5008
     5.8461   5.8532   7.8290   7.8341   9.9717   9.9733  10.3255  10.3256
    12.0678  12.0686

     occupation numbers 
     1.0000   1.0000   1.0000   1.0000   1.0000   1.0000   1.0000   1.0000
     1.0000   1.0000   1.0296   1.0310   0.0000   0.0000   0.0000   0.0000
     0.0000   0.0000

          k = 0.5303-0.1768 0.7071 (  3544 PWs)   bands (ev):

    -1.6822   0.6386   0.6460   0.6533   2.9136   2.9231   5.0989   6.7004
     7.1836   7.2934   7.3036   8.2905   8.8059   9.4467   9.4573   9.5052
    10.8072  11.9372

     occupation numbers 
     1.0000   1.0000   1.0000   1.0000   1.0000   1.0000   1.0000   1.0000
     1.0000   1.0000   1.0000   0.7295   0.0050   0.0000   0.0000   0.0000
     0.0000   0.0000

          k = 0.4419-0.0884 0.6187 (  3568 PWs)   bands (ev):

    -0.9852  -0.4021   0.1776   0.7538   3.0223   4.1351   4.6748   5.7515
     6.7743   7.2982   7.8269   8.3651   9.4409  10.0104  10.3954  10.4993
    11.0682  11.5665

     occupation numbers 
     1.0000   1.0000   1.0000   1.0000   1.0000   1.0000   1.0000   1.0000
     1.0000   1.0000   1.0290   0.5250   0.0000   0.0000   0.0000   0.0000
     0.0000   0.0000

          k = 0.3536 0.0000 0.5303 (  3565 PWs)   bands (ev):

    -1.2415  -0.0756  -0.0756   1.0761   3.3340   4.4401   4.4401   5.5315
     6.6247   6.6248   7.0943   8.6727   9.2032  10.7448  10.9131  10.9131
    11.2292  11.2292

     occupation numbers 
     1.0000   1.0000   1.0000   1.0000   1.0000   1.0000   1.0000   1.0000
     1.0000   1.0000   1.0000   0.0343   0.0000   0.0000   0.0000   0.0000
     0.0000   0.0000

          k =-0.1768-0.7071 0.0000 (  3560 PWs)   bands (ev):

    -0.6566  -0.6565   0.4974   0.5069   2.7733   2.7827   6.0418   6.0418
     7.6196   7.6197   8.6694   8.6809   9.1027   9.1028  10.3202  10.3282
    10.7897  10.8015

     occupation numbers 
     1.0000   1.0000   1.0000   1.0000   1.0000   1.0000   1.0000   1.0000
     1.0022   1.0022   0.0357   0.0309   0.0000   0.0000   0.0000   0.0000
     0.0000   0.0000

          k =-0.3536-0.7071 0.0000 (  3552 PWs)   bands (ev):

    -0.2298  -0.2205  -0.2205  -0.2112   4.3002   4.3050   4.3050   4.3099
     8.0075   8.0151   8.0151   8.0226   9.6088   9.6148   9.6149   9.6209
    12.2590  12.2625

     occupation numbers 
     1.0000   1.0000   1.0000   1.0000   1.0000   1.0000   1.0000   1.0000
     1.0821   1.0828   1.0828   1.0832   0.0000   0.0000   0.0000   0.0000
     0.0000   0.0000

          k =-0.0884 0.0884 0.0884 (  3593 PWs)   bands (ev):

    -3.0544   2.1797   3.2968   3.2988   3.3007   4.4443   4.4463   4.4482
     4.8624   4.8640   4.8658   5.5448   7.4539   7.4557   7.4575  12.2557
    12.2584  12.2610

     occupation numbers 
     1.0000   1.0000   1.0000   1.0000   1.0000   1.0000   1.0000   1.0000
     1.0000   1.0000   1.0000   1.0000   1.0001   1.0001   1.0001   0.0000
     0.0000   0.0000

          k =-0.1768 0.1768 0.1768 (  3590 PWs)   bands (ev):

    -2.7189   0.7897   3.0556   3.0576   3.0596   4.1398   4.1417   4.1436
     5.3023   5.3043   5.3063   7.4915   8.7487   8.7510   8.7534  10.6412
    10.6431  10.6451

     occupation numbers 
     1.0000   1.0000   1.0000   1.0000   1.0000   1.0000   1.0000   1.0000
     1.0000   1.0000   1.0000   1.0002   0.0121   0.0117   0.0113   0.0000
     0.0000   0.0000

          k =-0.2652 0.2652 0.2652 (  3591 PWs)   bands (ev):

    -2.1623  -0.4023   3.0199   3.0219   3.0239   3.5690   3.5710   3.5729
     6.3590   6.3610   6.3631   8.9770   8.9798   8.9826   9.6108  10.4162
    10.4176  10.4191

     occupation numbers 
     1.0000   1.0000   1.0000   1.0000   1.0000   1.0000   1.0000   1.0000
     1.0000   1.0000   1.0000   0.0002   0.0002   0.0002   0.0000   0.0000
     0.0000   0.0000

          k = 0.3536-0.3536-0.3536 (  3582 PWs)   bands (ev):

    -1.3940  -1.3827   3.1873   3.1890   3.1933   3.1949   3.1992   3.2009
     7.5970   7.5994   7.6009   7.6009   7.6025   7.6049  11.8896  11.8943
    12.1351  12.1402

     occupation numbers 
     1.0000   1.0000   1.0000   1.0000   1.0000   1.0000   1.0000   1.0000
     1.0015   1.0016   1.0016   1.0016   1.0017   1.0017   0.0000   0.0000
     0.0000   0.0000

          k = 0.1768 0.0000 0.0000 (  3591 PWs)   bands (ev):

    -3.0170   2.7720   2.7749   2.7815   2.7843   3.8665   5.0222   5.0250
     5.0318   5.0347   5.5234   5.5235   6.8719   6.8719   8.4994  11.8479
    11.8480  13.3356

     occupation numbers 
     1.0000   1.0000   1.0000   1.0000   1.0000   1.0000   1.0000   1.0000
     1.0000   1.0000   1.0000   1.0000   1.0000   1.0000   0.2120   0.0000
     0.0000   0.0000

          k = 0.2652-0.0884 0.0884 (  3578 PWs)   bands (ev):

    -2.7560   1.3267   2.4604   2.4632   3.0137   3.5757   4.7237   5.1320
     5.1344   5.8156   5.8186   6.9117   7.7225   7.7252   9.7874  10.5097
    10.5118  12.5299

     occupation numbers 
     1.0000   1.0000   1.0000   1.0000   1.0000   1.0000   1.0000   1.0000
     1.0000   1.0000   1.0000   1.0000   1.0093   1.0096   0.0000   0.0000
     0.0000   0.0000

          k =-0.2652 0.0884 0.0884 (  3578 PWs)   bands (ev):

    -2.7560   1.3267   2.4604   2.4632   3.0137   3.5758   4.7237   5.1319
     5.1343   5.8157   5.8186   6.9117   7.7225   7.7252   9.7874  10.5097
    10.5119  12.5299

     occupation numbers 
     1.0000   1.0000   1.0000   1.0000   1.0000   1.0000   1.0000   1.0000
     1.0000   1.0000   1.0000   1.0000   1.0093   1.0096   0.0000   0.0000
     0.0000   0.0000

          k = 0.0884-0.2652-0.0884 (  3578 PWs)   bands (ev):

    -2.7560   1.3267   2.4618   2.4618   3.0136   3.5758   4.7238   5.1330
     5.1331   5.8171   5.8172   6.9117   7.7238   7.7238   9.7874  10.5108
    10.5108  12.5299

     occupation numbers 
     1.0000   1.0000   1.0000   1.0000   1.0000   1.0000   1.0000   1.0000
     1.0000   1.0000   1.0000   1.0000   1.0094   1.0094   0.0000   0.0000
     0.0000   0.0000

          k = 0.3536-0.1768 0.1768 (  3566 PWs)   bands (ev):

    -2.2733   0.0690   2.3477   2.3553   2.3600   4.4413   4.5516   4.5543
     4.7564   6.7997   6.8027   8.7374   8.7423   8.9703   9.3769   9.3774
    10.8683  11.4421

     occupation numbers 
     1.0000   1.0000   1.0000   1.0000   1.0000   1.0000   1.0000   1.0000
     1.0000   1.0000   1.0000   0.0143   0.0133   0.0002   0.0000   0.0000
     0.0000   0.0000

          k =-0.3536 0.1768 0.1768 (  3566 PWs)   bands (ev):

    -2.2733   0.0690   2.3477   2.3553   2.3600   4.4413   4.5516   4.5543
     4.7564   6.7997   6.8027   8.7374   8.7423   8.9705   9.3769   9.3774
    10.8683  11.4421

     occupation numbers 
     1.0000   1.0000   1.0000   1.0000   1.0000   1.0000   1.0000   1.0000
     1.0000   1.0000   1.0000   0.0143   0.0133   0.0002   0.0000   0.0000
     0.0000   0.0000

          k = 0.1768-0.3536-0.1768 (  3566 PWs)   bands (ev):

    -2.2733   0.0690   2.3520   2.3555   2.3555   4.4414   4.5529   4.5530
     4.7563   6.8012   6.8012   8.7399   8.7399   8.9703   9.3771   9.3771
    10.8683  11.4421

     occupation numbers 
     1.0000   1.0000   1.0000   1.0000   1.0000   1.0000   1.0000   1.0000
     1.0000   1.0000   1.0000   0.0138   0.0138   0.0002   0.0000   0.0000
     0.0000   0.0000

          k =-0.2652 0.4419-0.4419 (  3569 PWs)   bands (ev):

    -1.5720  -0.9854   1.8944   2.4587   2.4615   4.1227   4.1254   4.6627
     5.8267   7.4183   7.4214   7.9661   7.9694   9.5540  10.9153  10.9177
    11.1916  11.4638

     occupation numbers 
     1.0000   1.0000   1.0000   1.0000   1.0000   1.0000   1.0000   1.0000
     1.0000   1.0001   1.0001   1.0736   1.0745   0.0000   0.0000   0.0000
     0.0000   0.0000

          k = 0.2652-0.4419-0.4419 (  3569 PWs)   bands (ev):

    -1.5721  -0.9854   1.8944   2.4587   2.4615   4.1227   4.1254   4.6627
     5.8267   7.4183   7.4214   7.9661   7.9694   9.5540  10.9153  10.9177
    11.1916  11.4639

     occupation numbers 
     1.0000   1.0000   1.0000   1.0000   1.0000   1.0000   1.0000   1.0000
     1.0000   1.0001   1.0001   1.0736   1.0745   0.0000   0.0000   0.0000
     0.0000   0.0000

          k =-0.4419 0.2652 0.4419 (  3569 PWs)   bands (ev):

    -1.5721  -0.9854   1.8945   2.4600   2.4601   4.1241   4.1241   4.6626
     5.8267   7.4198   7.4198   7.9677   7.9677   9.5540  10.9166  10.9166
    11.1914  11.4639

     occupation numbers 
     1.0000   1.0000   1.0000   1.0000   1.0000   1.0000   1.0000   1.0000
     1.0000   1.0001   1.0001   1.0740   1.0740   0.0000   0.0000   0.0000
     0.0000   0.0000

          k =-0.1768 0.3536-0.3536 (  3572 PWs)   bands (ev):

    -1.8298  -0.6570   1.6468   2.7727   2.7755   3.8863   3.8891   4.9593
     6.1197   6.1225   7.1819   8.2824   9.2858   9.2897   9.6650  10.4364
    11.7173  11.7207

     occupation numbers 
     1.0000   1.0000   1.0000   1.0000   1.0000   1.0000   1.0000   1.0000
     1.0000   1.0000   1.0000   0.7509   0.0000   0.0000   0.0000   0.0000
     0.0000   0.0000

          k = 0.1768-0.3536-0.3536 (  3572 PWs)   bands (ev):

    -1.8298  -0.6569   1.6468   2.7727   2.7755   3.8863   3.8891   4.9593
     6.1197   6.1226   7.1819   8.2824   9.2858   9.2897   9.6650  10.4364
    11.7173  11.7207

     occupation numbers 
     1.0000   1.0000   1.0000   1.0000   1.0000   1.0000   1.0000   1.0000
     1.0000   1.0000   1.0000   0.7509   0.0000   0.0000   0.0000   0.0000
     0.0000   0.0000

          k =-0.3536 0.1768 0.3536 (  3572 PWs)   bands (ev):

    -1.8298  -0.6569   1.6468   2.7740   2.7741   3.8877   3.8877   4.9592
     6.1211   6.1211   7.1819   8.2824   9.2878   9.2878   9.6649  10.4365
    11.7190  11.7190

     occupation numbers 
     1.0000   1.0000   1.0000   1.0000   1.0000   1.0000   1.0000   1.0000
     1.0000   1.0000   1.0000   0.7508   0.0000   0.0000   0.0000   0.0000
     0.0000   0.0000

          k =-0.0884 0.2652-0.2652 (  3568 PWs)   bands (ev):

    -2.4587   0.4660   1.6117   3.2914   3.2941   3.8489   3.8516   5.0008
     5.0036   5.4009   7.1798   7.9235   8.2665   8.8915   9.9989  10.0032
    10.8153  10.8189

     occupation numbers 
     1.0000   1.0000   1.0000   1.0000   1.0000   1.0000   1.0000   1.0000
     1.0000   1.0000   1.0000   1.0601   0.7914   0.0011   0.0000   0.0000
     0.0000   0.0000

          k = 0.0884-0.2652-0.2652 (  3568 PWs)   bands (ev):

    -2.4587   0.4660   1.6117   3.2914   3.2942   3.8488   3.8515   5.0009
     5.0036   5.4009   7.1798   7.9236   8.2665   8.8915   9.9989  10.0032
    10.8154  10.8189

     occupation numbers 
     1.0000   1.0000   1.0000   1.0000   1.0000   1.0000   1.0000   1.0000
     1.0000   1.0000   1.0000   1.0601   0.7917   0.0011   0.0000   0.0000
     0.0000   0.0000

          k =-0.2652 0.0884 0.2652 (  3568 PWs)   bands (ev):

    -2.4587   0.4660   1.6117   3.2927   3.2927   3.8502   3.8502   5.0022
     5.0022   5.4009   7.1799   7.9235   8.2666   8.8915  10.0010  10.0011
    10.8171  10.8171

     occupation numbers 
     1.0000   1.0000   1.0000   1.0000   1.0000   1.0000   1.0000   1.0000
     1.0000   1.0000   1.0000   1.0601   0.7913   0.0011   0.0000   0.0000
     0.0000   0.0000

          k = 0.0000 0.1768-0.1768 (  3589 PWs)   bands (ev):

    -2.8678   1.7850   1.7944   3.9101   3.9102   4.0029   4.0055   4.1847
     4.1848   5.6539   6.2592   6.2690   7.0094   8.6292   8.6323  10.4971
    11.9796  11.9854

     occupation numbers 
     1.0000   1.0000   1.0000   1.0000   1.0000   1.0000   1.0000   1.0000
     1.0000   1.0000   1.0000   1.0000   1.0000   0.0582   0.0561   0.0000
     0.0000   0.0000

          k =-0.1768 0.0000 0.1768 (  3589 PWs)   bands (ev):

    -2.8678   1.7897   1.7897   3.9099   3.9103   4.0037   4.0046   4.1845
     4.1850   5.6538   6.2641   6.2642   7.0094   8.6308   8.6308  10.4971
    11.9825  11.9825

     occupation numbers 
     1.0000   1.0000   1.0000   1.0000   1.0000   1.0000   1.0000   1.0000
     1.0000   1.0000   1.0000   1.0000   1.0000   0.0571   0.0571   0.0000
     0.0000   0.0000

          k = 0.3536 0.0000 0.0000 (  3591 PWs)   bands (ev):

    -2.5701   2.0618   2.0700   2.0720   2.0766   2.0824   5.9150   5.9150
     6.5240   6.5271   6.5340   6.5369   7.2876   7.2877  10.1277  10.1277
    11.0243  11.8817

     occupation numbers 
     1.0000   1.0000   1.0000   1.0000   1.0000   1.0000   1.0000   1.0000
     1.0000   1.0000   1.0000   1.0000   1.0000   1.0000   0.0000   0.0000
     0.0000   0.0000

          k = 0.4419-0.0884 0.0884 (  3564 PWs)   bands (ev):

    -2.1622   0.7537   1.3256   1.8945   1.8974   3.0236   5.6680   5.6705
     6.3476   7.4329   7.4360   8.1977   8.2015   8.5176   8.9884   8.9890
    11.7325  11.7345

     occupation numbers 
     1.0000   1.0000   1.0000   1.0000   1.0000   1.0000   1.0000   1.0000
     1.0000   1.0001   1.0001   0.9421   0.9350   0.1813   0.0002   0.0002
     0.0000   0.0000

          k =-0.4419 0.0884 0.0884 (  3564 PWs)   bands (ev):

    -2.1622   0.7538   1.3255   1.8945   1.8974   3.0237   5.6680   5.6704
     6.3476   7.4329   7.4361   8.1977   8.2015   8.5176   8.9884   8.9890
    11.7325  11.7345

     occupation numbers 
     1.0000   1.0000   1.0000   1.0000   1.0000   1.0000   1.0000   1.0000
     1.0000   1.0001   1.0001   0.9422   0.9351   0.1813   0.0002   0.0002
     0.0000   0.0000

          k = 0.0884-0.4419-0.0884 (  3564 PWs)   bands (ev):

    -2.1622   0.7537   1.3256   1.8959   1.8959   3.0237   5.6692   5.6693
     6.3476   7.4344   7.4345   8.1997   8.1997   8.5175   8.9887   8.9887
    11.7335  11.7335

     occupation numbers 
     1.0000   1.0000   1.0000   1.0000   1.0000   1.0000   1.0000   1.0000
     1.0000   1.0001   1.0001   0.9385   0.9385   0.1815   0.0002   0.0002
     0.0000   0.0000

          k =-0.1768 0.5303-0.5303 (  3570 PWs)   bands (ev):

    -1.5351  -0.3659   0.7895   1.9294   1.9323   4.1686   5.2303   5.2330
     6.3547   7.4147   7.4178   8.5075   8.5110   9.8804   9.8823  10.6562
    11.0071  11.6505

     occupation numbers 
     1.0000   1.0000   1.0000   1.0000   1.0000   1.0000   1.0000   1.0000
     1.0000   1.0000   1.0001   0.1979   0.1920   0.0000   0.0000   0.0000
     0.0000   0.0000

          k = 0.1768-0.5303-0.5303 (  3570 PWs)   bands (ev):

    -1.5351  -0.3659   0.7895   1.9295   1.9323   4.1686   5.2303   5.2330
     6.3547   7.4147   7.4178   8.5075   8.5111   9.8803   9.8822  10.6562
    11.0072  11.6505

     occupation numbers 
     1.0000   1.0000   1.0000   1.0000   1.0000   1.0000   1.0000   1.0000
     1.0000   1.0000   1.0001   0.1979   0.1919   0.0000   0.0000   0.0000
     0.0000   0.0000

          k =-0.5303 0.1768 0.5303 (  3570 PWs)   bands (ev):

    -1.5351  -0.3659   0.7895   1.9309   1.9309   4.1686   5.2317   5.2317
     6.3546   7.4162   7.4163   8.5093   8.5093   9.8813   9.8813  10.6562
    11.0071  11.6505

     occupation numbers 
     1.0000   1.0000   1.0000   1.0000   1.0000   1.0000   1.0000   1.0000
     1.0000   1.0001   1.0001   0.1949   0.1949   0.0000   0.0000   0.0000
     0.0000   0.0000

          k =-0.0884 0.4419-0.4419 (  3564 PWs)   bands (ev):

    -1.2782  -0.6932   0.4661   2.1762   2.1791   4.9345   4.9371   5.4907
     6.0861   6.0888   6.5085   9.1977   9.6914   9.6958  10.3668  11.4375
    11.6301  11.6321

     occupation numbers 
     1.0000   1.0000   1.0000   1.0000   1.0000   1.0000   1.0000   1.0000
     1.0000   1.0000   1.0000   0.0000   0.0000   0.0000   0.0000   0.0000
     0.0000   0.0000

          k = 0.0884-0.4419-0.4419 (  3564 PWs)   bands (ev):

    -1.2783  -0.6932   0.4661   2.1762   2.1791   4.9345   4.9371   5.4907
     6.0861   6.0888   6.5085   9.1977   9.6914   9.6958  10.3668  11.4375
    11.6301  11.6321

     occupation numbers 
     1.0000   1.0000   1.0000   1.0000   1.0000   1.0000   1.0000   1.0000
     1.0000   1.0000   1.0000   0.0000   0.0000   0.0000   0.0000   0.0000
     0.0000   0.0000

          k =-0.4419 0.0884 0.4419 (  3564 PWs)   bands (ev):

    -1.2783  -0.6932   0.4661   2.1776   2.1777   4.9358   4.9358   5.4907
     6.0874   6.0874   6.5084   9.1977   9.6936   9.6936  10.3668  11.4375
    11.6311  11.6312

     occupation numbers 
     1.0000   1.0000   1.0000   1.0000   1.0000   1.0000   1.0000   1.0000
     1.0000   1.0000   1.0000   0.0000   0.0000   0.0000   0.0000   0.0000
     0.0000   0.0000

          k = 0.0000 0.3536-0.3536 (  3583 PWs)   bands (ev):

    -1.9774   0.3532   0.3626   2.6322   2.6350   4.7068   4.7068   5.0376
     5.0377   6.4385   6.9355   8.0547   9.2240   9.2345  10.6578  10.6632
    11.3789  11.3844

     occupation numbers 
     1.0000   1.0000   1.0000   1.0000   1.0000   1.0000   1.0000   1.0000
     1.0000   1.0000   1.0000   1.0807   0.0000   0.0000   0.0000   0.0000
     0.0000   0.0000

          k =-0.3536 0.0000 0.3536 (  3583 PWs)   bands (ev):

    -1.9774   0.3579   0.3579   2.6335   2.6336   4.7069   4.7069   5.0376
     5.0376   6.4384   6.9355   8.0547   9.2293   9.2293  10.6605  10.6605
    11.3816  11.3816

     occupation numbers 
     1.0000   1.0000   1.0000   1.0000   1.0000   1.0000   1.0000   1.0000
     1.0000   1.0000   1.0000   1.0807   0.0000   0.0000   0.0000   0.0000
     0.0000   0.0000

          k = 0.5303 0.0000 0.0000 (  3547 PWs)   bands (ev):

    -1.8295   0.5021   1.6411   1.6440   1.6505   1.6535   6.5692   6.5692
     7.9315   7.9315   8.2369   8.2403   8.2472   8.2508   8.6736   8.6736
    10.5322  10.5323

     occupation numbers 
     1.0000   1.0000   1.0000   1.0000   1.0000   1.0000   1.0000   1.0000
     1.0628   1.0628   0.8620   0.8543   0.8384   0.8300   0.0339   0.0339
     0.0000   0.0000

          k =-0.0884 0.6187-0.6187 (  3553 PWs)   bands (ev):

    -1.2779  -0.1116   0.4662   1.6101   1.6131   2.7432   6.4613   6.4638
     7.5395   7.5424   8.1002   9.0294   9.0303   9.1669   9.1711  10.2370
    10.5453  10.5467

     occupation numbers 
     1.0000   1.0000   1.0000   1.0000   1.0000   1.0000   1.0000   1.0000
     1.0006   1.0006   1.0618   0.0001   0.0001   0.0000   0.0000   0.0000
     0.0000   0.0000

          k = 0.0884-0.6187-0.6187 (  3553 PWs)   bands (ev):

    -1.2780  -0.1115   0.4661   1.6101   1.6131   2.7432   6.4613   6.4637
     7.5395   7.5425   8.1002   9.0296   9.0305   9.1666   9.1708  10.2371
    10.5453  10.5467

     occupation numbers 
     1.0000   1.0000   1.0000   1.0000   1.0000   1.0000   1.0000   1.0000
     1.0006   1.0006   1.0618   0.0001   0.0001   0.0000   0.0000   0.0000
     0.0000   0.0000

          k =-0.6187 0.0884 0.6187 (  3553 PWs)   bands (ev):

    -1.2779  -0.1116   0.4662   1.6116   1.6116   2.7432   6.4625   6.4626
     7.5409   7.5410   8.1001   9.0299   9.0299   9.1689   9.1689  10.2371
    10.5459  10.5459

     occupation numbers 
     1.0000   1.0000   1.0000   1.0000   1.0000   1.0000   1.0000   1.0000
     1.0006   1.0006   1.0618   0.0001   0.0001   0.0000   0.0000   0.0000
     0.0000   0.0000

          k = 0.0000 0.5303-0.5303 (  3568 PWs)   bands (ev):

    -0.5184  -0.5111  -0.5037   1.7875   1.7904   4.0327   6.0255   6.0255
     6.3687   6.3688   7.7519   9.3666   9.8635   9.8688  10.4558  10.4558
    11.3670  11.3671

     occupation numbers 
     1.0000   1.0000   1.0000   1.0000   1.0000   1.0000   1.0000   1.0000
     1.0000   1.0000   1.0132   0.0000   0.0000   0.0000   0.0000   0.0000
     0.0000   0.0000

          k =-0.5303 0.0000 0.5303 (  3568 PWs)   bands (ev):

    -0.5191  -0.5110  -0.5031   1.7889   1.7889   4.0327   6.0256   6.0256
     6.3687   6.3687   7.7519   9.3666   9.8661   9.8661  10.4557  10.4559
    11.3668  11.3671

     occupation numbers 
     1.0000   1.0000   1.0000   1.0000   1.0000   1.0000   1.0000   1.0000
     1.0000   1.0000   1.0132   0.0000   0.0000   0.0000   0.0000   0.0000
     0.0000   0.0000

          k =-0.7071 0.0000 0.0000 (  3572 PWs)   bands (ev):

    -0.8071  -0.7976   1.4987   1.5016   1.5081   1.5110   7.4824   7.4824
     7.4936   7.4936   8.4462   8.4463   9.5930   9.5983   9.6047   9.6098
     9.7744   9.7745

     occupation numbers 
     1.0000   1.0000   1.0000   1.0000   1.0000   1.0000   1.0002   1.0002
     1.0002   1.0002   0.3193   0.3193   0.0000   0.0000   0.0000   0.0000
     0.0000   0.0000

          k = 0.3536-0.1768 0.0000 (  3565 PWs)   bands (ev):

    -2.4216   1.0717   1.0811   2.2109   3.3321   3.3415   4.4163   5.5695
     5.5792   6.0458   7.3904   7.7491   7.7592   8.8605   9.0112  10.2609
    11.1391  12.0310

     occupation numbers 
     1.0000   1.0000   1.0000   1.0000   1.0000   1.0000   1.0000   1.0000
     1.0000   1.0000   1.0000   1.0128   1.0144   0.0020   0.0001   0.0000
     0.0000   0.0000

          k = 0.1768 0.0000 0.3536 (  3565 PWs)   bands (ev):

    -2.4216   1.0763   1.0764   2.2109   3.3368   3.3368   4.4164   5.5743
     5.5744   6.0458   7.3905   7.7541   7.7542   8.8605   9.0112  10.2609
    11.1391  12.0310

     occupation numbers 
     1.0000   1.0000   1.0000   1.0000   1.0000   1.0000   1.0000   1.0000
     1.0000   1.0000   1.0000   1.0136   1.0136   0.0020   0.0001   0.0000
     0.0000   0.0000

          k = 0.1768 0.0000-0.3536 (  3565 PWs)   bands (ev):

    -2.4216   1.0764   1.0764   2.2108   3.3368   3.3369   4.4163   5.5744
     5.5744   6.0457   7.3904   7.7542   7.7543   8.8604   9.0112  10.2609
    11.1391  12.0310

     occupation numbers 
     1.0000   1.0000   1.0000   1.0000   1.0000   1.0000   1.0000   1.0000
     1.0000   1.0000   1.0000   1.0136   1.0136   0.0020   0.0001   0.0000
     0.0000   0.0000

          k =-0.2652 0.4419-0.6187 (  3568 PWs)   bands (ev):

    -1.8666  -0.1120   1.0405   1.6104   3.3015   3.8485   4.4003   5.5413
     5.9276   6.6189   7.1138   8.6718   8.7813   9.1391   9.8585  10.5505
    11.2637  12.0699

     occupation numbers 
     1.0000   1.0000   1.0000   1.0000   1.0000   1.0000   1.0000   1.0000
     1.0000   1.0000   1.0000   0.0347   0.0074   0.0000   0.0000   0.0000
     0.0000   0.0000

          k = 0.2652-0.4419-0.6187 (  3568 PWs)   bands (ev):

    -1.8666  -0.1119   1.0405   1.6105   3.3015   3.8485   4.4003   5.5412
     5.9277   6.6190   7.1138   8.6717   8.7814   9.1391   9.8585  10.5505
    11.2637  12.0699

     occupation numbers 
     1.0000   1.0000   1.0000   1.0000   1.0000   1.0000   1.0000   1.0000
     1.0000   1.0000   1.0000   0.0347   0.0074   0.0000   0.0000   0.0000
     0.0000   0.0000

          k =-0.4419 0.2652 0.6187 (  3568 PWs)   bands (ev):

    -1.8666  -0.1119   1.0405   1.6104   3.3015   3.8485   4.4004   5.5413
     5.9276   6.6190   7.1138   8.6718   8.7813   9.1391   9.8585  10.5505
    11.2637  12.0699

     occupation numbers 
     1.0000   1.0000   1.0000   1.0000   1.0000   1.0000   1.0000   1.0000
     1.0000   1.0000   1.0000   0.0347   0.0074   0.0000   0.0000   0.0000
     0.0000   0.0000

          k =-0.4419 0.6187-0.2652 (  3568 PWs)   bands (ev):

    -1.8666  -0.1119   1.0404   1.6105   3.3016   3.8485   4.4003   5.5413
     5.9277   6.6189   7.1138   8.6718   8.7813   9.1390   9.8584  10.5505
    11.2637  12.0700

     occupation numbers 
     1.0000   1.0000   1.0000   1.0000   1.0000   1.0000   1.0000   1.0000
     1.0000   1.0000   1.0000   0.0347   0.0074   0.0000   0.0000   0.0000
     0.0000   0.0000

          k =-0.4419-0.6187 0.2652 (  3568 PWs)   bands (ev):

    -1.8666  -0.1119   1.0405   1.6104   3.3016   3.8485   4.4003   5.5413
     5.9276   6.6189   7.1138   8.6718   8.7814   9.1390   9.8585  10.5504
    11.2637  12.0700

     occupation numbers 
     1.0000   1.0000   1.0000   1.0000   1.0000   1.0000   1.0000   1.0000
     1.0000   1.0000   1.0000   0.0347   0.0074   0.0000   0.0000   0.0000
     0.0000   0.0000

          k =-0.1768 0.3536-0.5303 (  3578 PWs)   bands (ev):

    -1.0951  -1.0950   1.2190   1.2191   3.4732   3.4732   5.4990   5.4990
     5.8496   5.8496   7.8315   7.8316   9.9725   9.9725  10.3255  10.3255
    12.0682  12.0711

     occupation numbers 
     1.0000   1.0000   1.0000   1.0000   1.0000   1.0000   1.0000   1.0000
     1.0000   1.0000   1.0303   1.0303   0.0000   0.0000   0.0000   0.0000
     0.0000   0.0000

          k = 0.1768-0.3536-0.5303 (  3578 PWs)   bands (ev):

    -1.1007  -1.0894   1.2134   1.2247   3.4730   3.4734   5.4970   5.5009
     5.8460   5.8533   7.8287   7.8345   9.9721   9.9728  10.3225  10.3286
    12.0681  12.0728

     occupation numbers 
     1.0000   1.0000   1.0000   1.0000   1.0000   1.0000   1.0000   1.0000
     1.0000   1.0000   1.0295   1.0311   0.0000   0.0000   0.0000   0.0000
     0.0000   0.0000

          k =-0.3536 0.1768 0.5303 (  3578 PWs)   bands (ev):

    -1.1007  -1.0894   1.2190   1.2191   3.4727   3.4737   5.4989   5.4991
     5.8496   5.8497   7.8312   7.8319   9.9720   9.9729  10.3225  10.3285
    12.0655  12.0737

     occupation numbers 
     1.0000   1.0000   1.0000   1.0000   1.0000   1.0000   1.0000   1.0000
     1.0000   1.0000   1.0302   1.0304   0.0000   0.0000   0.0000   0.0000
     0.0000   0.0000

          k =-0.1768 0.5303-0.7071 (  3544 PWs)   bands (ev):

    -1.6822   0.6386   0.6460   0.6533   2.9136   2.9231   5.0989   6.7004
     7.1836   7.2934   7.3036   8.2905   8.8059   9.4466   9.4572   9.5054
    10.8072  11.9330

     occupation numbers 
     1.0000   1.0000   1.0000   1.0000   1.0000   1.0000   1.0000   1.0000
     1.0000   1.0000   1.0000   0.7295   0.0050   0.0000   0.0000   0.0000
     0.0000   0.0000

          k =-0.5303 0.7071-0.1768 (  3544 PWs)   bands (ev):

    -1.6822   0.6380   0.6460   0.6540   2.9183   2.9184   5.0989   6.7003
     7.1836   7.2985   7.2986   8.2906   8.8059   9.4513   9.4522   9.5056
    10.8073  11.9369

     occupation numbers 
     1.0000   1.0000   1.0000   1.0000   1.0000   1.0000   1.0000   1.0000
     1.0000   1.0000   1.0000   0.7293   0.0050   0.0000   0.0000   0.0000
     0.0000   0.0000

          k =-0.5303-0.7071 0.1768 (  3544 PWs)   bands (ev):

    -1.6822   0.6459   0.6460   0.6460   2.9183   2.9184   5.0989   6.7004
     7.1836   7.2985   7.2985   8.2905   8.8059   9.4522   9.4522   9.5048
    10.8073  11.9370

     occupation numbers 
     1.0000   1.0000   1.0000   1.0000   1.0000   1.0000   1.0000   1.0000
     1.0000   1.0000   1.0000   0.7295   0.0050   0.0000   0.0000   0.0000
     0.0000   0.0000

          k =-0.0884 0.4419-0.6187 (  3568 PWs)   bands (ev):

    -0.9852  -0.4022   0.1778   0.7538   3.0223   4.1351   4.6748   5.7515
     6.7744   7.2981   7.8269   8.3651   9.4409  10.0103  10.3953  10.4994
    11.0682  11.5667

     occupation numbers 
     1.0000   1.0000   1.0000   1.0000   1.0000   1.0000   1.0000   1.0000
     1.0000   1.0000   1.0290   0.5250   0.0000   0.0000   0.0000   0.0000
     0.0000   0.0000

          k = 0.0884-0.4419-0.6187 (  3568 PWs)   bands (ev):

    -0.9852  -0.4021   0.1776   0.7538   3.0223   4.1351   4.6748   5.7515
     6.7743   7.2982   7.8269   8.3652   9.4408  10.0103  10.3954  10.4992
    11.0682  11.5665

     occupation numbers 
     1.0000   1.0000   1.0000   1.0000   1.0000   1.0000   1.0000   1.0000
     1.0000   1.0000   1.0290   0.5249   0.0000   0.0000   0.0000   0.0000
     0.0000   0.0000

          k =-0.4419 0.0884 0.6187 (  3568 PWs)   bands (ev):

    -0.9852  -0.4021   0.1777   0.7537   3.0223   4.1352   4.6748   5.7515
     6.7744   7.2981   7.8269   8.3651   9.4409  10.0103  10.3954  10.4992
    11.0682  11.5667

     occupation numbers 
     1.0000   1.0000   1.0000   1.0000   1.0000   1.0000   1.0000   1.0000
     1.0000   1.0000   1.0290   0.5250   0.0000   0.0000   0.0000   0.0000
     0.0000   0.0000

          k =-0.4419 0.6187-0.0884 (  3568 PWs)   bands (ev):

    -0.9852  -0.4022   0.1777   0.7538   3.0223   4.1351   4.6748   5.7515
     6.7743   7.2982   7.8269   8.3651   9.4409  10.0103  10.3954  10.4993
    11.0681  11.5664

     occupation numbers 
     1.0000   1.0000   1.0000   1.0000   1.0000   1.0000   1.0000   1.0000
     1.0000   1.0000   1.0290   0.5251   0.0000   0.0000   0.0000   0.0000
     0.0000   0.0000

          k =-0.4419-0.6187 0.0884 (  3568 PWs)   bands (ev):

    -0.9852  -0.4021   0.1777   0.7537   3.0223   4.1351   4.6748   5.7515
     6.7743   7.2982   7.8269   8.3651   9.4408  10.0103  10.3954  10.4993
    11.0682  11.5667

     occupation numbers 
     1.0000   1.0000   1.0000   1.0000   1.0000   1.0000   1.0000   1.0000
     1.0000   1.0000   1.0290   0.5250   0.0000   0.0000   0.0000   0.0000
     0.0000   0.0000

          k = 0.0000 0.3536-0.5303 (  3565 PWs)   bands (ev):

    -1.2415  -0.0803  -0.0709   1.0761   3.3340   4.4353   4.4448   5.5315
     6.6198   6.6298   7.0943   8.6726   9.2032  10.7447  10.9077  10.9186
    11.2250  11.2335

     occupation numbers 
     1.0000   1.0000   1.0000   1.0000   1.0000   1.0000   1.0000   1.0000
     1.0000   1.0000   1.0000   0.0343   0.0000   0.0000   0.0000   0.0000
     0.0000   0.0000

          k =-0.3536 0.0000 0.5303 (  3565 PWs)   bands (ev):

    -1.2415  -0.0756  -0.0755   1.0761   3.3340   4.4401   4.4401   5.5315
     6.6248   6.6248   7.0942   8.6727   9.2032  10.7447  10.9131  10.9131
    11.2293  11.2294

     occupation numbers 
     1.0000   1.0000   1.0000   1.0000   1.0000   1.0000   1.0000   1.0000
     1.0000   1.0000   1.0000   0.0343   0.0000   0.0000   0.0000   0.0000
     0.0000   0.0000

          k =-0.3536 0.5303 0.0000 (  3565 PWs)   bands (ev):

    -1.2415  -0.0803  -0.0709   1.0761   3.3340   4.4353   4.4448   5.5315
     6.6198   6.6297   7.0943   8.6726   9.2032  10.7448  10.9077  10.9185
    11.2250  11.2335

     occupation numbers 
     1.0000   1.0000   1.0000   1.0000   1.0000   1.0000   1.0000   1.0000
     1.0000   1.0000   1.0000   0.0343   0.0000   0.0000   0.0000   0.0000
     0.0000   0.0000

          k =-0.7071-0.1768 0.0000 (  3560 PWs)   bands (ev):

    -0.6613  -0.6519   0.4974   0.5069   2.7732   2.7827   6.0369   6.0467
     7.6141   7.6253   8.6695   8.6809   9.0997   9.1057  10.3202  10.3282
    10.7898  10.8016

     occupation numbers 
     1.0000   1.0000   1.0000   1.0000   1.0000   1.0000   1.0000   1.0000
     1.0020   1.0024   0.0357   0.0309   0.0000   0.0000   0.0000   0.0000
     0.0000   0.0000

          k = 0.1768 0.0000-0.7071 (  3560 PWs)   bands (ev):

    -0.6613  -0.6519   0.5021   0.5022   2.7780   2.7780   6.0370   6.0467
     7.6140   7.6253   8.6751   8.6752   9.0997   9.1057  10.3241  10.3242
    10.7956  10.7958

     occupation numbers 
     1.0000   1.0000   1.0000   1.0000   1.0000   1.0000   1.0000   1.0000
     1.0020   1.0024   0.0333   0.0332   0.0000   0.0000   0.0000   0.0000
     0.0000   0.0000

          k =-0.7071-0.3536 0.0000 (  3552 PWs)   bands (ev):

    -0.2308  -0.2214  -0.2195  -0.2101   4.2999   4.3005   4.3095   4.3101
     8.0049   8.0140   8.0162   8.0253   9.6066   9.6142   9.6155   9.6231
    12.2552  12.2615

     occupation numbers 
     1.0000   1.0000   1.0000   1.0000   1.0000   1.0000   1.0000   1.0000
     1.0818   1.0828   1.0829   1.0833   0.0000   0.0000   0.0000   0.0000
     0.0000   0.0000

     the Fermi energy is     8.4122 ev

!    total energy              =     -33.52709785 Ry
     estimated scf accuracy    <          6.2E-14 Ry
     smearing contrib. (-TS)   =      -0.00001375 Ry
     internal energy E=F+TS    =     -33.52708410 Ry

     The total energy is F=E-TS. E is the sum of the following terms:
     one-electron contribution =      23.66712796 Ry
     hartree contribution      =       0.07967020 Ry
     xc contribution           =     -13.11733882 Ry
     ewald contribution        =     -44.15654344 Ry

     convergence has been achieved in  10 iterations

     Forces acting on atoms (cartesian axes, Ry/au):

     atom    1 type  1   force =     0.00138549    0.00000000   -0.00138549
     atom    2 type  1   force =    -0.00076171    0.00000000    0.00076171
     atom    3 type  1   force =     0.00006090    0.00039391    0.00036758
     atom    4 type  1   force =    -0.00036758   -0.00039391   -0.00006090
     atom    5 type  1   force =    -0.00036758    0.00039391   -0.00006090
     atom    6 type  1   force =     0.00006090   -0.00039391    0.00036758
     atom    7 type  1   force =     0.00002632    0.00000000   -0.00002632
     atom    8 type  1   force =    -0.00003674    0.00000000    0.00003674
     The non-local contrib.  to forces
     atom    1 type  1   force =     0.00345276    0.00000000   -0.00345276
     atom    2 type  1   force =    -0.00166039    0.00000000    0.00166039
     atom    3 type  1   force =    -0.00008366    0.00084930    0.00081077
     atom    4 type  1   force =    -0.00081077   -0.00084930    0.00008366
     atom    5 type  1   force =    -0.00081077    0.00084930    0.00008366
     atom    6 type  1   force =    -0.00008366   -0.00084930    0.00081077
     atom    7 type  1   force =     0.00003851    0.00000000   -0.00003851
     atom    8 type  1   force =    -0.00004205   -0.00000000    0.00004205
     The ionic contribution  to forces
     atom    1 type  1   force =     0.00843969   -0.00000000   -0.00843969
     atom    2 type  1   force =    -0.00661548   -0.00000000    0.00661548
     atom    3 type  1   force =     0.00128920    0.00416214    0.00245301
     atom    4 type  1   force =    -0.00245301   -0.00416214   -0.00128920
     atom    5 type  1   force =    -0.00245301    0.00416214   -0.00128920
     atom    6 type  1   force =     0.00128920   -0.00416214    0.00245301
     atom    7 type  1   force =     0.00170907    0.00000000   -0.00170907
     atom    8 type  1   force =    -0.00120565    0.00000000    0.00120565
     The local contribution  to forces
     atom    1 type  1   force =    -0.01050703    0.00000000    0.01050703
     atom    2 type  1   force =     0.00751423    0.00000000   -0.00751423
     atom    3 type  1   force =    -0.00114468   -0.00461755   -0.00289625
     atom    4 type  1   force =     0.00289625    0.00461755    0.00114468
     atom    5 type  1   force =     0.00289625   -0.00461755    0.00114468
     atom    6 type  1   force =    -0.00114468    0.00461755   -0.00289625
     atom    7 type  1   force =    -0.00172123   -0.00000000    0.00172123
     atom    8 type  1   force =     0.00121094   -0.00000000   -0.00121094
     The core correction contribution to forces
     atom    1 type  1   force =     0.00000000    0.00000000    0.00000000
     atom    2 type  1   force =     0.00000000    0.00000000    0.00000000
     atom    3 type  1   force =     0.00000000    0.00000000    0.00000000
     atom    4 type  1   force =     0.00000000    0.00000000    0.00000000
     atom    5 type  1   force =     0.00000000    0.00000000    0.00000000
     atom    6 type  1   force =     0.00000000    0.00000000    0.00000000
     atom    7 type  1   force =     0.00000000    0.00000000    0.00000000
     atom    8 type  1   force =     0.00000000    0.00000000    0.00000000
     The Hubbard contrib.    to forces
     atom    1 type  1   force =     0.00000000    0.00000000    0.00000000
     atom    2 type  1   force =     0.00000000    0.00000000    0.00000000
     atom    3 type  1   force =     0.00000000    0.00000000    0.00000000
     atom    4 type  1   force =     0.00000000    0.00000000    0.00000000
     atom    5 type  1   force =     0.00000000    0.00000000    0.00000000
     atom    6 type  1   force =     0.00000000    0.00000000    0.00000000
     atom    7 type  1   force =     0.00000000    0.00000000    0.00000000
     atom    8 type  1   force =     0.00000000    0.00000000    0.00000000
     The SCF correction term to forces
     atom    1 type  1   force =     0.00000007    0.00000000   -0.00000007
     atom    2 type  1   force =    -0.00000007    0.00000000    0.00000007
     atom    3 type  1   force =     0.00000004    0.00000002    0.00000004
     atom    4 type  1   force =    -0.00000004   -0.00000002   -0.00000004
     atom    5 type  1   force =    -0.00000004    0.00000002   -0.00000004
     atom    6 type  1   force =     0.00000004   -0.00000002    0.00000004
     atom    7 type  1   force =    -0.00000003   -0.00000000    0.00000003
     atom    8 type  1   force =     0.00000003   -0.00000000   -0.00000003

     Total force =     0.002486     Total SCF correction =     0.000000


     Computing stress (Cartesian axis) and pressure

          total   stress  (Ry/bohr**3)                   (kbar)     P=        0.03
   0.00000022   0.00000000  -0.00000006            0.03        0.00       -0.01
   0.00000000   0.00000019   0.00000000            0.00        0.03        0.00
  -0.00000006   0.00000000   0.00000022           -0.01        0.00        0.03

     kinetic stress (kbar)   1705.89     -0.00     -0.00
                                0.00   1705.89      0.00
                               -0.00      0.00   1705.89

     local   stress (kbar)   -103.19     -0.00     -0.01
                               -0.00   -103.21      0.00
                               -0.01      0.00   -103.19

     nonloc. stress (kbar)   1683.48     -0.00     -0.00
                                0.00   1683.48     -0.00
                               -0.00      0.00   1683.48

     hartree stress (kbar)      4.67     -0.00      0.01
                               -0.00      4.68      0.00
                                0.01      0.00      4.67

     exc-cor stress (kbar)   -699.73      0.00      0.00
                                0.00   -699.73      0.00
                                0.00      0.00   -699.73

     corecor stress (kbar)      0.00      0.00      0.00
                                0.00      0.00      0.00
                                0.00      0.00      0.00

     ewald   stress (kbar)  -2591.10     -0.00      0.00
                               -0.00  -2591.09     -0.00
                                0.00     -0.00  -2591.10

     hubbard stress (kbar)      0.00      0.00      0.00
                                0.00      0.00      0.00
                                0.00      0.00      0.00

     DFT-D   stress (kbar)      0.00      0.00      0.00
                                0.00      0.00      0.00
                                0.00      0.00      0.00

     XDM     stress (kbar)      0.00      0.00      0.00
                                0.00      0.00      0.00
                                0.00      0.00      0.00

     dft-nl  stress (kbar)      0.00      0.00      0.00
                                0.00      0.00      0.00
                                0.00      0.00      0.00

     TS-vdW  stress (kbar)      0.00      0.00      0.00
                                0.00      0.00      0.00
                                0.00      0.00      0.00

     MDB     stress (kbar)      0.00      0.00      0.00
                                0.00      0.00      0.00
                                0.00      0.00      0.00

     3D-RISM stress (kbar)      0.00      0.00      0.00
                                0.00      0.00      0.00
                                0.00      0.00      0.00


     Writing all to output data dir ./tmp/al.save/ :
     XML data file, charge density, pseudopotentials, collected wavefunctions
 
     init_run     :      0.99s CPU      1.03s WALL (       1 calls)
     electrons    :     18.51s CPU     18.94s WALL (       1 calls)
     forces       :      0.06s CPU      0.06s WALL (       1 calls)
     stress       :      0.24s CPU      0.25s WALL (       1 calls)

     Called by init_run:
     wfcinit      :      0.97s CPU      1.01s WALL (       1 calls)
     wfcinit:atom :      0.01s CPU      0.01s WALL (      95 calls)
     wfcinit:wfcr :      0.93s CPU      0.96s WALL (      95 calls)
     potinit      :      0.00s CPU      0.00s WALL (       1 calls)
     hinit0       :      0.00s CPU      0.00s WALL (       1 calls)

     Called by electrons:
     c_bands      :     15.71s CPU     16.06s WALL (      11 calls)
     sum_band     :      2.78s CPU      2.85s WALL (      11 calls)
     v_of_rho     :      0.01s CPU      0.01s WALL (      11 calls)
     v_h          :      0.00s CPU      0.00s WALL (      11 calls)
     v_xc         :      0.01s CPU      0.01s WALL (      11 calls)
     mix_rho      :      0.01s CPU      0.01s WALL (      11 calls)

     Called by c_bands:
     init_us_2    :      0.18s CPU      0.18s WALL (    2375 calls)
     cegterg      :     15.36s CPU     15.69s WALL (    1045 calls)

     Called by sum_band:
     sum_band:wei :      0.03s CPU      0.03s WALL (      11 calls)
     sum_band:loo :      2.74s CPU      2.82s WALL (      11 calls)
     sum_band:buf :      0.02s CPU      0.02s WALL (    1045 calls)
     sum_band:ini :      0.08s CPU      0.08s WALL (    1045 calls)

     Called by *egterg:
     cdiaghg      :      0.76s CPU      0.78s WALL (    3712 calls)
     cegterg:over :      0.55s CPU      0.56s WALL (    2762 calls)
     cegterg:upda :      0.21s CPU      0.21s WALL (    2762 calls)
     cegterg:last :      0.31s CPU      0.32s WALL (    2030 calls)
     h_psi        :     14.13s CPU     14.45s WALL (    3902 calls)
     g_psi        :      0.04s CPU      0.04s WALL (    2762 calls)

     Called by h_psi:
     h_psi:calbec :      0.35s CPU      0.36s WALL (    3902 calls)
     vloc_psi     :     13.43s CPU     13.74s WALL (    3902 calls)
                                        0.00s GPU  (    3902 calls)
     add_vuspsi   :      0.29s CPU      0.30s WALL (    3902 calls)

     General routines
     calbec       :      0.49s CPU      0.50s WALL (    5517 calls)
     fft          :      0.01s CPU      0.01s WALL (      38 calls)
     ffts         :      0.00s CPU      0.00s WALL (      11 calls)
     fftw         :     14.67s CPU     15.01s WALL (  118902 calls)
 
     Parallel routines
 
     PWSCF        :     19.88s CPU     20.40s WALL

 
   This run was terminated on:  21:36:45  22Sep2026            

=------------------------------------------------------------------------------=
   JOB DONE.
=------------------------------------------------------------------------------=
