
     Program PWSCF v.7.5 starts on 22Sep2026 at 23:15:24 

     This program is part of the open-source Quantum ESPRESSO suite
     for quantum simulation of materials; please cite
         "P. Giannozzi et al., J. Phys.:Condens. Matter 21 395502 (2009);
         "P. Giannozzi et al., J. Phys.:Condens. Matter 29 465901 (2017);
         "P. Giannozzi et al., J. Chem. Phys. 152 154105 (2020);
          URL http://www.quantum-espresso.org", 
     in publications or presentations arising from this work. More details at
     http://www.quantum-espresso.org/quote

     Parallel version (MPI), running on     4 processors

     MPI processes distributed on     1 nodes
     2677 MiB available memory on the printing compute node when the environment starts

     Reading input from scf.in

     Current dimensions of program PWSCF are:
     Max number of different atomic species (ntypx) = 10
     Max number of k-points (npk) =  40000
     Max angular momentum in pseudopotentials (lmaxx) =  4
     Message from routine setup:
     using ibrav=0 with symmetry is DISCOURAGED, use correct ibrav instead

     R & G space division:  proc/nbgrp/npool/nimage =       4
     Subspace diagonalization in iterative solution of the eigenvalue problem:
     a serial algorithm will be used


     Parallelization info
     --------------------
     sticks:   dense  smooth     PW     G-vecs:    dense   smooth      PW
     Min         450     222     69                14468     5093     851
     Max         451     223     70                14469     5096     854
     Sum        1801     889    277                57873    20377    3407

     Using Slab Decomposition



     bravais-lattice index     =            0
     lattice parameter (alat)  =       5.9670  a.u.
     unit-cell volume          =     212.4576 (a.u.)^3
     number of atoms/cell      =            2
     number of atomic types    =            2
     number of electrons       =         7.00
     number of Kohn-Sham states=           10
     kinetic-energy cutoff     =      80.0000  Ry
     charge density cutoff     =     640.0000  Ry
     scf convergence threshold =      1.0E-10
     mixing beta               =       0.7000
     number of iterations used =            8  plain     mixing
     Exchange-correlation= PBE
                           (   1   4   3   4   0   0   0)

     celldm(1)=   5.967019  celldm(2)=   0.000000  celldm(3)=   0.000000
     celldm(4)=   0.000000  celldm(5)=   0.000000  celldm(6)=   0.000000

     crystal axes: (cart. coord. in units of alat)
               a(1) = (   1.000000   0.000000   0.000000 )  
               a(2) = (   0.000000   1.000000   0.000000 )  
               a(3) = (   0.000000   0.000000   1.000000 )  

     reciprocal axes: (cart. coord. in units 2 pi/alat)
               b(1) = (  1.000000  0.000000  0.000000 )  
               b(2) = (  0.000000  1.000000  0.000000 )  
               b(3) = (  0.000000  0.000000  1.000000 )  


     PseudoPot. # 1 for Al read from file:
     ../../pseudo/Al.pbe-n-rrkjus_psl.1.0.0.UPF
     MD5 check sum: bbe9f3f15d9b3b5ab9a58e4859ebdbfe
     Pseudo is Ultrasoft + core correction, Zval =  3.0
     Generated using &quot;atomic&quot; code by A. Dal Corso  v.6.3
     Using radial grid of 1135 points,  6 beta functions with: 
                l(1) =   0
                l(2) =   0
                l(3) =   1
                l(4) =   1
                l(5) =   2
                l(6) =   2
     Q(r) pseudized with 0 coefficients 


     PseudoPot. # 2 for Si read from file:
     ../../pseudo/Si.pbe-n-rrkjus_psl.1.0.0.UPF
     MD5 check sum: fa25574f73a70a4139f2adfbefec430c
     Pseudo is Ultrasoft + core correction, Zval =  4.0
     Generated using &quot;atomic&quot; code by A. Dal Corso  v.6.3
     Using radial grid of 1141 points,  6 beta functions with: 
                l(1) =   0
                l(2) =   0
                l(3) =   1
                l(4) =   1
                l(5) =   2
                l(6) =   2
     Q(r) pseudized with 0 coefficients 


     atomic species   valence    mass     pseudopotential
     Al                3.00    26.98154     Al( 1.00)
     Si                4.00    28.08500     Si( 1.00)

     48 Sym. Ops., with inversion, found



   Cartesian axes

     site n.     atom                  positions (alat units)
         1        Al     tau(   1) = (   0.0000000   0.0000000   0.0000000  )
         2        Si     tau(   2) = (   0.5000000   0.5000000   0.5000000  )

     number of k points=   969  Marzari-Vanderbilt smearing, width (Ry)=  0.0050

     Number of k-points >= 100: set verbosity='high' to print them.

     Dense  grid:    57873 G-vectors     FFT dimensions: (  50,  50,  50)

     Smooth grid:    20377 G-vectors     FFT dimensions: (  36,  36,  36)

     Estimated max dynamical RAM per process >     152.28 MB

     Estimated total dynamical RAM >     609.12 MB

     The initial density is read from file :
     ./tmp/alsi-b2.save/charge-density

     Starting wfcs are    8 randomized atomic wfcs +    2 random wfcs

     total cpu time spent up to now is        8.5 secs

     per-process dynamical memory:   125.9 Mb

     Self-consistent Calculation

     iteration #  1     ecut=    80.00 Ry     beta= 0.70
     CG style diagonalization
     ethr =  1.00E-06,  avg # of iterations = 23.1

     Threshold (ethr) on eigenvalues was too large:
     Diagonalizing with lowered threshold

     CG style diagonalization
     ethr =  5.15E-08,  avg # of iterations =  3.2

     total cpu time spent up to now is      271.5 secs

     total energy              =     -16.42064949 Ry
     estimated scf accuracy    <       0.00000341 Ry

     iteration #  2     ecut=    80.00 Ry     beta= 0.70
     CG style diagonalization
     ethr =  4.87E-08,  avg # of iterations =  3.2

     total cpu time spent up to now is      302.1 secs

     total energy              =     -16.42065057 Ry
     estimated scf accuracy    <       0.00000033 Ry

     iteration #  3     ecut=    80.00 Ry     beta= 0.70
     CG style diagonalization
     ethr =  4.70E-09,  avg # of iterations =  3.2

     total cpu time spent up to now is      333.4 secs

     total energy              =     -16.42065066 Ry
     estimated scf accuracy    <          4.2E-09 Ry

     iteration #  4     ecut=    80.00 Ry     beta= 0.70
     CG style diagonalization
     ethr =  5.99E-11,  avg # of iterations =  3.6

     total cpu time spent up to now is      368.9 secs

     total energy              =     -16.42065067 Ry
     estimated scf accuracy    <          4.8E-10 Ry

     iteration #  5     ecut=    80.00 Ry     beta= 0.70
     CG style diagonalization
     ethr =  6.87E-12,  avg # of iterations =  3.2

     total cpu time spent up to now is      399.9 secs

     End of self-consistent calculation

     Number of k-points >= 100: set verbosity='high' to print the bands.

     the Fermi energy is     8.9507 ev

!    total energy              =     -16.42065067 Ry
     estimated scf accuracy    <          5.6E-12 Ry
     smearing contrib. (-TS)   =      -0.00001027 Ry
     internal energy E=F+TS    =     -16.42064040 Ry

     The total energy is F=E-TS. E is the sum of the following terms:
     one-electron contribution =       7.29381813 Ry
     hartree contribution      =       0.14324843 Ry
     xc contribution           =      -8.74481825 Ry
     ewald contribution        =     -15.11288871 Ry

     convergence has been achieved in   5 iterations

     Forces acting on atoms (cartesian axes, Ry/au):

     atom    1 type  1   force =     0.00000000    0.00000000    0.00000000
     atom    2 type  2   force =     0.00000000    0.00000000    0.00000000

     Total force =     0.000000     Total SCF correction =     0.000000


     Computing stress (Cartesian axis) and pressure

          total   stress  (Ry/bohr**3)                   (kbar)     P=        0.68
   0.00000461   0.00000000   0.00000000            0.68        0.00        0.00
   0.00000000   0.00000461   0.00000000            0.00        0.68        0.00
   0.00000000   0.00000000   0.00000461            0.00        0.00        0.68


     Writing all to output data dir ./tmp/alsi-b2.save/ :
     XML data file, charge density, pseudopotentials, collected wavefunctions

     init_run     :      7.80s CPU      8.23s WALL (       1 calls)
     electrons    :    372.04s CPU    391.39s WALL (       1 calls)
     forces       :      3.90s CPU      3.98s WALL (       1 calls)
     stress       :     15.26s CPU     15.50s WALL (       1 calls)

     Called by init_run:
     wfcinit      :      6.99s CPU      7.36s WALL (       1 calls)
     potinit      :      0.15s CPU      0.16s WALL (       1 calls)
     hinit0       :      0.35s CPU      0.36s WALL (       1 calls)

     Called by electrons:
     c_bands      :    354.09s CPU    372.10s WALL (       6 calls)
     sum_band     :     17.36s CPU     18.51s WALL (       6 calls)
     v_of_rho     :      0.11s CPU      0.12s WALL (       6 calls)
     newd         :      0.57s CPU      0.79s WALL (       6 calls)
     mix_rho      :      0.01s CPU      0.01s WALL (       6 calls)

     Called by c_bands:
     init_us_2    :      4.78s CPU      4.91s WALL (   14535 calls)
     ccgdiagg     :    326.33s CPU    342.98s WALL (    5814 calls)
     wfcrot       :     31.57s CPU     33.18s WALL (    4845 calls)

     Called by *cgdiagg:
     h_psi        :    219.52s CPU    231.09s WALL (  348853 calls)
     s_psi        :     61.26s CPU     64.25s WALL (  692861 calls)

     Called by h_psi:
     h_psi:calbec :     45.08s CPU     47.43s WALL (  348853 calls)
     vloc_psi     :    139.44s CPU    147.08s WALL (  348853 calls)
                                        0.00s GPU  (  348853 calls)
     add_vuspsi   :     32.52s CPU     34.04s WALL (  348853 calls)
     hs_1psi      :    226.64s CPU    238.17s WALL (  344008 calls)
     s_1psi       :     69.58s CPU     73.05s WALL (  344008 calls)

     General routines
     calbec       :    101.47s CPU    106.26s WALL (  715148 calls)
     fft          :      0.16s CPU      0.17s WALL (     102 calls)
     ffts         :      0.13s CPU      0.13s WALL (      12 calls)
     fftw         :    130.09s CPU    137.32s WALL (  843056 calls)
     interpolate  :      0.14s CPU      0.14s WALL (       6 calls)

     Parallel routines

     PWSCF        :   6m39.68s CPU   7m 0.28s WALL


   This run was terminated on:  23:22:24  22Sep2026            

=------------------------------------------------------------------------------=
   JOB DONE.
=------------------------------------------------------------------------------=
