    3    3    1    1
  0.7840219E+02  0.3850053E-09  0.3850053E-09  0.1832253E-08  0.5000000E-15
  1.000000000000000E-004
  CAR 
 SnS2                                    
     26     37     20
 
  0.0000000E+00  0.0000000E+00  0.0000000E+00  0.3086420E-02
    1      -23.835649   1.000000
    2      -23.835649   1.000000
    3      -23.799796   1.000000
    4      -23.790842   1.000000
    5      -23.790841   1.000000
    6      -16.094801   1.000000
    7      -14.820228   1.000000
    8       -8.302207   1.000000
    9       -3.808046   1.000000
   10       -3.156423   1.000000
   11       -3.156423   1.000000
   12       -2.775388   1.000000
   13       -2.775388   1.000000
   14       -1.168869   0.000000
   15        0.379359   0.000000
   16        1.888622   0.000000
   17        1.888623   0.000000
   18        2.861475   0.000000
   19        3.013108   0.000000
   20        3.990814   0.000000
 
  0.5555556E-01  0.3469447E-17  0.1540744E-32  0.1851852E-01
    1      -23.836652   1.000000
    2      -23.834515   1.000000
    3      -23.799037   1.000000
    4      -23.791645   1.000000
    5      -23.790832   1.000000
    6      -16.066085   1.000000
    7      -14.800160   1.000000
    8       -8.308504   1.000000
    9       -3.794647   1.000000
   10       -3.472824   1.000000
   11       -3.271224   1.000000
   12       -2.941653   1.000000
   13       -2.735381   1.000000
   14       -0.967346   0.000000
   15        0.604392   0.000000
   16        1.787320   0.000000
   17        1.961073   0.000000
   18        2.946540   0.000000
   19        3.038821   0.000000
   20        4.056492   0.000000
 
  0.1111111E+00  0.6938894E-17  0.3081488E-32  0.1851852E-01
    1      -23.839728   1.000000
    2      -23.831327   1.000000
    3      -23.796991   1.000000
    4      -23.793632   1.000000
    5      -23.790700   1.000000
    6      -15.980873   1.000000
    7      -14.742005   1.000000
    8       -8.334347   1.000000
    9       -4.121113   1.000000
   10       -3.755695   1.000000
   11       -3.516080   1.000000
   12       -3.359337   1.000000
   13       -2.698066   1.000000
   14       -0.629296   0.000000
   15        0.989331   0.000000
   16        1.757870   0.000000
   17        2.156282   0.000000
   18        3.098459   0.000000
   19        3.160037   0.000000
   20        4.233328   0.000000
 
  0.1666667E+00  0.1387779E-16  0.9244464E-32  0.1851852E-01
    1      -23.844903   1.000000
    2      -23.826765   1.000000
    3      -23.797832   1.000000
    4      -23.792266   1.000000
    5      -23.790175   1.000000
    6      -15.842167   1.000000
    7      -14.652073   1.000000
    8       -8.400310   1.000000
    9       -4.814607   1.000000
   10       -3.924034   1.000000
   11       -3.802004   1.000000
   12       -3.625414   1.000000
   13       -2.710331   1.000000
   14       -0.517954   0.000000
   15        1.129630   0.000000
   16        2.193284   0.000000
   17        2.415764   0.000000
   18        3.198405   0.000000
   19        3.442279   0.000000
   20        4.449581   0.000000
 
  0.2222222E+00  0.1387779E-16  0.3081488E-32  0.1851852E-01
    1      -23.851792   1.000000
    2      -23.821905   1.000000
    3      -23.801369   1.000000
    4      -23.788810   1.000000
    5      -23.787543   1.000000
    6      -15.655679   1.000000
    7      -14.541346   1.000000
    8       -8.535632   1.000000
    9       -5.450668   1.000000
   10       -4.361639   1.000000
   11       -4.087669   1.000000
   12       -3.562467   1.000000
   13       -2.763110   1.000000
   14       -0.725219   0.000000
   15        1.279894   0.000000
   16        2.643016   0.000000
   17        2.666346   0.000000
   18        3.333937   0.000000
   19        3.798557   0.000000
   20        4.303721   0.000000
 
  0.2777778E+00  0.2775558E-16  0.1848893E-31  0.1851852E-01
    1      -23.859565   1.000000
    2      -23.817882   1.000000
    3      -23.804927   1.000000
    4      -23.786183   1.000000
    5      -23.782255   1.000000
    6      -15.431019   1.000000
    7      -14.425951   1.000000
    8       -8.758449   1.000000
    9       -5.982807   1.000000
   10       -4.704427   1.000000
   11       -4.347372   1.000000
   12       -3.482661   1.000000
   13       -2.836417   1.000000
   14       -1.074194   0.000000
   15        1.408637   0.000000
   16        2.764472   0.000000
   17        2.851452   0.000000
   18        3.561849   0.000000
   19        4.059115   0.000000
   20        4.274963   0.000000
 
  0.3333333E+00  0.5551115E-16  0.1232595E-31  0.1851852E-01
    1      -23.867169   1.000000
    2      -23.815326   1.000000
    3      -23.808054   1.000000
    4      -23.782480   1.000000
    5      -23.777207   1.000000
    6      -15.183593   1.000000
    7      -14.326941   1.000000
    8       -9.046263   1.000000
    9       -6.405117   1.000000
   10       -4.903733   1.000000
   11       -4.563875   1.000000
   12       -3.421239   1.000000
   13       -2.911701   1.000000
   14       -1.423480   0.000000
   15        1.448001   0.000000
   16        2.688035   0.000000
   17        2.955679   0.000000
   18        3.593331   0.000000
   19        4.188866   0.000000
   20        4.694305   0.000000
 
  0.3888889E+00  0.5551115E-16  0.1848893E-31  0.1851852E-01
    1      -23.873511   1.000000
    2      -23.814047   1.000000
    3      -23.810472   1.000000
    4      -23.778635   1.000000
    5      -23.773069   1.000000
    6      -14.937716   1.000000
    7      -14.267035   1.000000
    8       -9.333502   1.000000
    9       -6.721535   1.000000
   10       -4.974659   1.000000
   11       -4.725680   1.000000
   12       -3.395183   1.000000
   13       -2.974835   1.000000
   14       -1.702407   0.000000
   15        1.425044   0.000000
   16        2.614296   0.000000
   17        2.998913   0.000000
   18        3.350146   0.000000
   19        4.630460   0.000000
   20        5.171762   0.000000
 
  0.4444444E+00  0.2775558E-16  0.6162976E-32  0.1851852E-01
    1      -23.877712   1.000000
    2      -23.813541   1.000000
    3      -23.812006   1.000000
    4      -23.775807   1.000000
    5      -23.770356   1.000000
    6      -14.733333   1.000000
    7      -14.258409   1.000000
    8       -9.543833   1.000000
    9       -6.922536   1.000000
   10       -4.973798   1.000000
   11       -4.825479   1.000000
   12       -3.400975   1.000000
   13       -3.016320   1.000000
   14       -1.875061   0.000000
   15        1.387728   0.000000
   16        2.621276   0.000000
   17        3.010663   0.000000
   18        3.091327   0.000000
   19        5.193025   0.000000
   20        5.679508   0.000000
 
  0.5000000E+00  0.1110223E-15  0.0000000E+00  0.9259259E-02
    1      -23.879169   1.000000
    2      -23.813412   1.000000
    3      -23.812519   1.000000
    4      -23.774768   1.000000
    5      -23.769410   1.000000
    6      -14.643680   1.000000
    7      -14.271292   1.000000
    8       -9.620790   1.000000
    9       -6.992007   1.000000
   10       -4.964058   1.000000
   11       -4.859177   1.000000
   12       -3.409578   1.000000
   13       -3.030733   1.000000
   14       -1.932105   0.000000
   15        1.371035   0.000000
   16        2.665415   0.000000
   17        2.956101   0.000000
   18        3.012142   0.000000
   19        5.799356   0.000000
   20        5.860087   0.000000
 
  0.5555556E-01  0.5555556E-01  0.3081488E-32  0.1851852E-01
    1      -23.838569   1.000000
    2      -23.832494   1.000000
    3      -23.797557   1.000000
    4      -23.793133   1.000000
    5      -23.790735   1.000000
    6      -16.009116   1.000000
    7      -14.761040   1.000000
    8       -8.324518   1.000000
    9       -3.855674   1.000000
   10       -3.774432   1.000000
   11       -3.649865   1.000000
   12       -2.999485   1.000000
   13       -2.811133   1.000000
   14       -0.707270   0.000000
   15        0.941454   0.000000
   16        1.660783   0.000000
   17        2.123352   0.000000
   18        3.084599   0.000000
   19        3.089932   0.000000
   20        4.177768   0.000000
 
  0.1111111E+00  0.5555556E-01  0.6162976E-32  0.3703704E-01
    1      -23.842419   1.000000
    2      -23.828960   1.000000
    3      -23.796210   1.000000
    4      -23.794374   1.000000
    5      -23.790167   1.000000
    6      -15.897105   1.000000
    7      -14.686920   1.000000
    8       -8.370072   1.000000
    9       -4.470889   1.000000
   10       -4.088771   1.000000
   11       -3.744412   1.000000
   12       -3.257929   1.000000
   13       -2.834774   1.000000
   14       -0.491051   0.000000
   15        1.239827   0.000000
   16        1.762684   0.000000
   17        2.402315   0.000000
   18        3.189095   0.000000
   19        3.317546   0.000000
   20        4.390710   0.000000
 
  0.1666667E+00  0.5555556E-01  0.6162976E-32  0.3703704E-01
    1      -23.848179   1.000000
    2      -23.824628   1.000000
    3      -23.799372   1.000000
    4      -23.791605   1.000000
    5      -23.787879   1.000000
    6      -15.734318   1.000000
    7      -14.586332   1.000000
    8       -8.470222   1.000000
    9       -5.131057   1.000000
   10       -4.456155   1.000000
   11       -3.843824   1.000000
   12       -3.485905   1.000000
   13       -2.860132   1.000000
   14       -0.537346   0.000000
   15        1.343145   0.000000
   16        2.224183   0.000000
   17        2.657797   0.000000
   18        3.338480   0.000000
   19        3.631911   0.000000
   20        4.444258   0.000000
 
  0.2222222E+00  0.5555556E-01  0.1232595E-31  0.3703704E-01
    1      -23.855270   1.000000
    2      -23.820494   1.000000
    3      -23.802840   1.000000
    4      -23.789104   1.000000
    5      -23.783365   1.000000
    6      -15.528257   1.000000
    7      -14.472664   1.000000
    8       -8.650234   1.000000
    9       -5.715770   1.000000
   10       -4.753552   1.000000
   11       -4.152990   1.000000
   12       -3.483977   1.000000
   13       -2.914498   1.000000
   14       -0.803272   0.000000
   15        1.482019   0.000000
   16        2.606580   0.000000
   17        2.771180   0.000000
   18        3.532590   0.000000
   19        3.991206   0.000000
   20        4.274572   0.000000
 
  0.2777778E+00  0.5555556E-01  0.1848893E-31  0.3703704E-01
    1      -23.862767   1.000000
    2      -23.817465   1.000000
    3      -23.806059   1.000000
    4      -23.785795   1.000000
    5      -23.778417   1.000000
    6      -15.291147   1.000000
    7      -14.364430   1.000000
    8       -8.909551   1.000000
    9       -6.192605   1.000000
   10       -4.947863   1.000000
   11       -4.460269   1.000000
   12       -3.441115   1.000000
   13       -2.976170   1.000000
   14       -1.138193   0.000000
   15        1.571413   0.000000
   16        2.695001   0.000000
   17        2.863428   0.000000
   18        3.669369   0.000000
   19        4.132816   0.000000
   20        4.510914   0.000000
 
  0.3333333E+00  0.5555556E-01  0.2465190E-31  0.3703704E-01
    1      -23.869581   1.000000
    2      -23.815755   1.000000
    3      -23.808730   1.000000
    4      -23.781771   1.000000
    5      -23.774146   1.000000
    6      -15.042282   1.000000
    7      -14.283939   1.000000
    8       -9.202818   1.000000
    9       -6.559900   1.000000
   10       -5.032102   1.000000
   11       -4.703893   1.000000
   12       -3.413934   1.000000
   13       -3.032408   1.000000
   14       -1.444769   0.000000
   15        1.586070   0.000000
   16        2.634958   0.000000
   17        2.927983   0.000000
   18        3.529347   0.000000
   19        4.440053   0.000000
   20        4.963210   0.000000
 
  0.3888889E+00  0.5555556E-01  0.6162976E-32  0.3703704E-01
    1      -23.874738   1.000000
    2      -23.814984   1.000000
    3      -23.810651   1.000000
    4      -23.778043   1.000000
    5      -23.771168   1.000000
    6      -14.812214   1.000000
    7      -14.250843   1.000000
    8       -9.456728   1.000000
    9       -6.815980   1.000000
   10       -5.037390   1.000000
   11       -4.871480   1.000000
   12       -3.403961   1.000000
   13       -3.084057   1.000000
   14       -1.667976   0.000000
   15        1.561237   0.000000
   16        2.621756   0.000000
   17        2.932563   0.000000
   18        3.278022   0.000000
   19        4.939232   0.000000
   20        5.461815   0.000000
 
  0.4444444E+00  0.5555556E-01  0.1848893E-31  0.3703704E-01
    1      -23.877495   1.000000
    2      -23.814707   1.000000
    3      -23.811648   1.000000
    4      -23.775764   1.000000
    5      -23.769710   1.000000
    6      -14.654183   1.000000
    7      -14.261301   1.000000
    8       -9.603396   1.000000
    9       -6.949421   1.000000
   10       -5.011774   1.000000
   11       -4.963719   1.000000
   12       -3.400028   1.000000
   13       -3.122799   1.000000
   14       -1.781636   0.000000
   15        1.536851   0.000000
   16        2.673405   0.000000
   17        2.922277   0.000000
   18        3.070547   0.000000
   19        5.535133   0.000000
   20        5.970671   0.000000
 
  0.1111111E+00  0.1111111E+00  0.6162976E-32  0.1851852E-01
    1      -23.846408   1.000000
    2      -23.826217   1.000000
    3      -23.798088   1.000000
    4      -23.793277   1.000000
    5      -23.787769   1.000000
    6      -15.760878   1.000000
    7      -14.601955   1.000000
    8       -8.449229   1.000000
    9       -4.804764   1.000000
   10       -4.752352   1.000000
   11       -3.769215   1.000000
   12       -3.185607   1.000000
   13       -3.130051   1.000000
   14       -0.434464   0.000000
   15        1.627419   0.000000
   16        1.770329   0.000000
   17        2.658771   0.000000
   18        3.385030   0.000000
   19        3.548186   0.000000
   20        4.573952   0.000000
 
  0.1666667E+00  0.1111111E+00  0.1540744E-31  0.3703704E-01
    1      -23.851736   1.000000
    2      -23.823381   1.000000
    3      -23.800753   1.000000
    4      -23.791969   1.000000
    5      -23.783400   1.000000
    6      -15.578005   1.000000
    7      -14.497756   1.000000
    8       -8.594189   1.000000
    9       -5.400085   1.000000
   10       -5.037559   1.000000
   11       -3.934497   1.000000
   12       -3.407179   1.000000
   13       -3.136168   1.000000
   14       -0.530547   0.000000
   15        1.730713   0.000000
   16        2.172239   0.000000
   17        2.773890   0.000000
   18        3.621048   0.000000
   19        3.857575   0.000000
   20        4.436527   0.000000
 
  0.2222222E+00  0.1111111E+00  0.1232595E-31  0.3703704E-01
    1      -23.857948   1.000000
    2      -23.820965   1.000000
    3      -23.803475   1.000000
    4      -23.789767   1.000000
    5      -23.778552   1.000000
    6      -15.358184   1.000000
    7      -14.389791   1.000000
    8       -8.815152   1.000000
    9       -5.932008   1.000000
   10       -5.200933   1.000000
   11       -4.268045   1.000000
   12       -3.508036   1.000000
   13       -3.124058   1.000000
   14       -0.756032   0.000000
   15        1.825417   0.000000
   16        2.462184   0.000000
   17        2.862330   0.000000
   18        3.775956   0.000000
   19        4.157296   0.000000
   20        4.472037   0.000000
 
  0.2777778E+00  0.1111111E+00  0.1232595E-31  0.3703704E-01
    1      -23.864147   1.000000
    2      -23.819404   1.000000
    3      -23.805935   1.000000
    4      -23.786356   1.000000
    5      -23.774351   1.000000
    6      -15.116761   1.000000
    7      -14.297980   1.000000
    8       -9.089313   1.000000
    9       -6.348451   1.000000
   10       -5.279837   1.000000
   11       -4.608096   1.000000
   12       -3.542899   1.000000
   13       -3.126261   1.000000
   14       -1.029122   0.000000
   15        1.899452   0.000000
   16        2.514634   0.000000
   17        2.965155   0.000000
   18        3.749318   0.000000
   19        4.383764   0.000000
   20        4.828614   0.000000
 
  0.3333333E+00  0.1111111E+00  0.1848893E-31  0.3703704E-01
    1      -23.869383   1.000000
    2      -23.818660   1.000000
    3      -23.807896   1.000000
    4      -23.782332   1.000000
    5      -23.771489   1.000000
    6      -14.877495   1.000000
    7      -14.243637   1.000000
    8       -9.359562   1.000000
    9       -6.647340   1.000000
   10       -5.305630   1.000000
   11       -4.866452   1.000000
   12       -3.533474   1.000000
   13       -3.164124   1.000000
   14       -1.272326   0.000000
   15        1.934353   0.000000
   16        2.527259   0.000000
   17        2.961007   0.000000
   18        3.562171   0.000000
   19        4.783380   0.000000
   20        5.302544   0.000000
 
  0.3888889E+00  0.1111111E+00  0.1848893E-31  0.3703704E-01
    1      -23.872869   1.000000
    2      -23.818410   1.000000
    3      -23.809172   1.000000
    4      -23.778880   1.000000
    5      -23.770159   1.000000
    6      -14.678549   1.000000
    7      -14.238270   1.000000
    8       -9.557558   1.000000
    9       -6.828990   1.000000
   10       -5.319991   1.000000
   11       -5.008963   1.000000
   12       -3.472657   1.000000
   13       -3.249841   1.000000
   14       -1.432946   0.000000
   15        1.938895   0.000000
   16        2.604652   0.000000
   17        2.879445   0.000000
   18        3.359601   0.000000
   19        5.319621   0.000000
   20        5.817012   0.000000
 
  0.4444444E+00  0.1111111E+00  0.2465190E-31  0.1851852E-01
    1      -23.874083   1.000000
    2      -23.818353   1.000000
    3      -23.809608   1.000000
    4      -23.777432   1.000000
    5      -23.769892   1.000000
    6      -14.590594   1.000000
    7      -14.252615   1.000000
    8       -9.630198   1.000000
    9       -6.890260   1.000000
   10       -5.330393   1.000000
   11       -5.047882   1.000000
   12       -3.382784   1.000000
   13       -3.350640   1.000000
   14       -1.487830   0.000000
   15        1.936079   0.000000
   16        2.715285   0.000000
   17        2.775369   0.000000
   18        3.270863   0.000000
   19        5.895358   0.000000
   20        5.959399   0.000000
 
  0.1666667E+00  0.1666667E+00  0.1540744E-31  0.1851852E-01
    1      -23.855635   1.000000
    2      -23.822861   1.000000
    3      -23.802010   1.000000
    4      -23.791718   1.000000
    5      -23.778543   1.000000
    6      -15.380932   1.000000
    7      -14.398739   1.000000
    8       -8.781347   1.000000
    9       -5.724621   1.000000
   10       -5.425255   1.000000
   11       -4.129966   1.000000
   12       -3.604305   1.000000
   13       -3.177364   1.000000
   14       -0.570039   0.000000
   15        1.959672   0.000000
   16        2.319147   0.000000
   17        2.860830   0.000000
   18        3.879087   0.000000
   19        4.120505   0.000000
   20        4.582820   0.000000
 
  0.2222222E+00  0.1666667E+00  0.1232595E-31  0.3703704E-01
    1      -23.859741   1.000000
    2      -23.822848   1.000000
    3      -23.803269   1.000000
    4      -23.790104   1.000000
    5      -23.774360   1.000000
    6      -15.155383   1.000000
    7      -14.305947   1.000000
    8       -9.022115   1.000000
    9       -6.129473   1.000000
   10       -5.562589   1.000000
   11       -4.458222   1.000000
   12       -3.752539   1.000000
   13       -3.147509   1.000000
   14       -0.705080   0.000000
   15        2.000139   0.000000
   16        2.537378   0.000000
   17        3.016997   0.000000
   18        4.027871   0.000000
   19        4.393434   0.000000
   20        4.799426   0.000000
 
  0.2777778E+00  0.1666667E+00  0.6162976E-32  0.3703704E-01
    1      -23.863568   1.000000
    2      -23.823205   1.000000
    3      -23.804500   1.000000
    4      -23.787079   1.000000
    5      -23.771568   1.000000
    6      -14.920096   1.000000
    7      -14.238982   1.000000
    8       -9.280705   1.000000
    9       -6.448435   1.000000
   10       -5.623301   1.000000
   11       -4.801100   1.000000
   12       -3.772126   1.000000
   13       -3.159740   1.000000
   14       -0.897495   0.000000
   15        2.075176   0.000000
   16        2.583196   0.000000
   17        3.138750   0.000000
   18        3.961375   0.000000
   19        4.707574   0.000000
   20        5.181247   0.000000
 
  0.3333333E+00  0.1666667E+00  0.1232595E-31  0.3703704E-01
    1      -23.866533   1.000000
    2      -23.823689   1.000000
    3      -23.805508   1.000000
    4      -23.783500   1.000000
    5      -23.770408   1.000000
    6      -14.703309   1.000000
    7      -14.215080   1.000000
    8       -9.501969   1.000000
    9       -6.654425   1.000000
   10       -5.662001   1.000000
   11       -5.056029   1.000000
   12       -3.701861   1.000000
   13       -3.232054   1.000000
   14       -1.072254   0.000000
   15        2.199790   0.000000
   16        2.559546   0.000000
   17        3.106887   0.000000
   18        3.807864   0.000000
   19        5.170941   0.000000
   20        5.665507   0.000000
 
  0.3888889E+00  0.1666667E+00  0.1848893E-31  0.3703704E-01
    1      -23.868142   1.000000
    2      -23.824023   1.000000
    3      -23.806069   1.000000
    4      -23.780854   1.000000
    5      -23.770393   1.000000
    6      -14.552730   1.000000
    7      -14.230937   1.000000
    8       -9.630157   1.000000
    9       -6.753518   1.000000
   10       -5.689137   1.000000
   11       -5.183683   1.000000
   12       -3.585324   1.000000
   13       -3.345427   1.000000
   14       -1.172001   0.000000
   15        2.327040   0.000000
   16        2.525226   0.000000
   17        3.015024   0.000000
   18        3.703011   0.000000
   19        5.731559   0.000000
   20        6.109075   0.000000
 
  0.2222222E+00  0.2222222E+00  0.0000000E+00  0.1851852E-01
    1      -23.860785   1.000000
    2      -23.825523   1.000000
    3      -23.802565   1.000000
    4      -23.789538   1.000000
    5      -23.771581   1.000000
    6      -14.934852   1.000000
    7      -14.237421   1.000000
    8       -9.249955   1.000000
    9       -6.325493   1.000000
   10       -5.793078   1.000000
   11       -4.756368   1.000000
   12       -3.891368   1.000000
   13       -3.151385   1.000000
   14       -0.740304   0.000000
   15        2.004037   0.000000
   16        2.742916   0.000000
   17        3.223591   0.000000
   18        4.390638   0.000000
   19        4.611287   0.000000
   20        4.985933   0.000000
 
  0.2777778E+00  0.2222222E+00  0.1232595E-31  0.3703704E-01
    1      -23.861247   1.000000
    2      -23.828286   1.000000
    3      -23.801964   1.000000
    4      -23.787721   1.000000
    5      -23.770500   1.000000
    6      -14.718183   1.000000
    7      -14.201263   1.000000
    8       -9.463430   1.000000
    9       -6.483509   1.000000
   10       -5.918287   1.000000
   11       -5.091551   1.000000
   12       -3.860205   1.000000
   13       -3.204360   1.000000
   14       -0.848186   0.000000
   15        2.090251   0.000000
   16        2.768836   0.000000
   17        3.388021   0.000000
   18        4.426808   0.000000
   19        5.020814   0.000000
   20        5.349179   0.000000
 
  0.3333333E+00  0.2222222E+00  0.1848893E-31  0.3703704E-01
    1      -23.861353   1.000000
    2      -23.830396   1.000000
    3      -23.801722   1.000000
    4      -23.785352   1.000000
    5      -23.770730   1.000000
    6      -14.536828   1.000000
    7      -14.207605   1.000000
    8       -9.618148   1.000000
    9       -6.571796   1.000000
   10       -5.978077   1.000000
   11       -5.347888   1.000000
   12       -3.738627   1.000000
   13       -3.308544   1.000000
   14       -0.954534   0.000000
   15        2.260528   0.000000
   16        2.673116   0.000000
   17        3.415136   0.000000
   18        4.328516   0.000000
   19        5.563011   0.000000
   20        5.855429   0.000000
 
  0.3888889E+00  0.2222222E+00  0.1848893E-31  0.1851852E-01
    1      -23.861358   1.000000
    2      -23.831193   1.000000
    3      -23.801686   1.000000
    4      -23.784178   1.000000
    5      -23.771116   1.000000
    6      -14.452528   1.000000
    7      -14.229018   1.000000
    8       -9.675006   1.000000
    9       -6.597524   1.000000
   10       -5.994542   1.000000
   11       -5.445128   1.000000
   12       -3.645597   1.000000
   13       -3.391284   1.000000
   14       -0.997151   0.000000
   15        2.413054   0.000000
   16        2.550088   0.000000
   17        3.402884   0.000000
   18        4.290134   0.000000
   19        6.044349   0.000000
   20        6.055546   0.000000
 
  0.2777778E+00  0.2777778E+00  0.1232595E-31  0.1851852E-01
    1      -23.857735   1.000000
    2      -23.833832   1.000000
    3      -23.799061   1.000000
    4      -23.788124   1.000000
    5      -23.770838   1.000000
    6      -14.532987   1.000000
    7      -14.197745   1.000000
    8       -9.611474   1.000000
    9       -6.453430   1.000000
   10       -6.117892   1.000000
   11       -5.428720   1.000000
   12       -3.789681   1.000000
   13       -3.292705   1.000000
   14       -0.879965   0.000000
   15        2.199696   0.000000
   16        2.751950   0.000000
   17        3.630457   0.000000
   18        4.973740   0.000000
   19        5.214798   0.000000
   20        5.570722   0.000000
 
  0.3333333E+00  0.2777778E+00  0.1232595E-31  0.3703704E-01
    1      -23.854434   1.000000
    2      -23.838213   1.000000
    3      -23.797055   1.000000
    4      -23.788235   1.000000
    5      -23.771597   1.000000
    6      -14.395399   1.000000
    7      -14.230494   1.000000
    8       -9.695773   1.000000
    9       -6.406380   1.000000
   10       -6.187517   1.000000
   11       -5.685262   1.000000
   12       -3.658486   1.000000
   13       -3.410053   1.000000
   14       -0.923675   0.000000
   15        2.373136   0.000000
   16        2.628938   0.000000
   17        3.725610   0.000000
   18        5.000969   0.000000
   19        5.807944   0.000000
   20        5.927572   0.000000
 
  0.3333333E+00  0.3333333E+00  0.1232595E-31  0.6172840E-02
    1      -23.846466   1.000000
    2      -23.846466   1.000000
    3      -23.792281   1.000000
    4      -23.792281   1.000000
    5      -23.772027   1.000000
    6      -14.291839   1.000000
    7      -14.291839   1.000000
    8       -9.723313   1.000000
    9       -6.261446   1.000000
   10       -6.261446   1.000000
   11       -5.894315   1.000000
   12       -3.533348   1.000000
   13       -3.533348   1.000000
   14       -0.923678   0.000000
   15        2.515018   0.000000
   16        2.515019   0.000000
   17        3.832754   0.000000
   18        5.392003   0.000000
   19        5.987779   0.000000
   20        6.025443   0.000000
