"Sn1 Se2"                               
   1.00000000000000     
     3.8500526717160253    0.0000000000010754    0.0000000000000000
    -1.9250263359068902    3.3342434196222679    0.0000000000000000
     0.0000000000000004    0.0000000000000001   18.3225321772563952
   Sn   Se
     1     2
Direct
 -0.0000000000000000 -0.0000000000000000  0.5000000000000000
  0.6666666670000012  0.3333333329999988  0.5874030481495341
  0.3333333329999988  0.6666666670000012  0.4125969518504660
 
  0.00000000E+00  0.00000000E+00  0.00000000E+00
  0.00000000E+00  0.00000000E+00  0.00000000E+00
  0.00000000E+00  0.00000000E+00  0.00000000E+00
