<?xml version="1.0" encoding="ISO-8859-1"?>
<modeling>
 <generator>
  <i name="program" type="string">vasp </i>
  <i name="version" type="string">5.4.4.18Apr17-6-g9f103f2a35  </i>
  <i name="subversion" type="string">(build Feb 26 2024 21:30:50) complex            parallel </i>
  <i name="platform" type="string">LinuxIFC </i>
  <i name="date" type="string">2025 10 16 </i>
  <i name="time" type="string">20:10:04 </i>
 </generator>
 <incar>
  <i type="string" name="SYSTEM"> SnS2</i>
  <i type="int" name="ISTART">     0</i>
  <i type="string" name="PREC">accurate</i>
  <i type="string" name="ALGO"> N</i>
  <i type="int" name="NSIM">     4</i>
  <i type="int" name="MAXMIX">    80</i>
  <i name="AMIX">      0.10000000</i>
  <i name="BMIX">      0.00010000</i>
  <i name="AMIX_MAG">      0.40000000</i>
  <i name="BMIX_MAG">      0.00010000</i>
  <i type="int" name="NELM">   160</i>
  <i type="int" name="NELMIN">     4</i>
  <i type="int" name="IBRION">    -1</i>
  <i name="EDIFF">      0.00000100</i>
  <i type="int" name="ISIF">     2</i>
  <i name="ENCUT">    400.00000000</i>
  <i type="string" name="LREAL"> A                 projection done in re</i>
  <i type="logical" name="LPLANE"> T  </i>
  <i type="int" name="ISMEAR">     0</i>
  <i name="SIGMA">      0.05000000</i>
  <i type="logical" name="LCORR"> T  </i>
  <i type="int" name="LMAXMIX">     4</i>
  <i type="logical" name="LWAVE"> F  </i>
  <i type="logical" name="LCHARG"> T  </i>
  <i type="int" name="LORBIT">    11</i>
  <i type="logical" name="LASPH"> T  </i>
  <v type="int" name="KPOINT_BSE">    -1     0     0     0</v>
  <i type="int" name="NELM">   160</i>
  <i type="string" name="GGA"> PE</i>
  <i type="int" name="VOSKOWN">     1</i>
  <i type="logical" name="LASPH"> T  </i>
 </incar>
 <structure name="primitive_cell" >
  <crystal>
   <varray name="basis" >
    <v>       3.85005267       0.00000000       0.00000000 </v>
    <v>      -1.92502634       3.33424342       0.00000000 </v>
    <v>       0.00000000       0.00000000      18.32253218 </v>
   </varray>
   <i name="volume">    235.20657983 </i>
   <varray name="rec_basis" >
    <v>       0.25973671       0.14995906      -0.00000000 </v>
    <v>      -0.00000000       0.29991811      -0.00000000 </v>
    <v>       0.00000000       0.00000000       0.05457761 </v>
   </varray>
  </crystal>
  <varray name="positions" >
   <v>       0.00000000       0.00000000      -0.50000000 </v>
   <v>      -0.33333333       0.33333333      -0.41259695 </v>
   <v>       0.33333333      -0.33333333       0.41259695 </v>
  </varray>
 </structure>
 <varray name="primitive_index" >
  <v type="int" >        1 </v>
  <v type="int" >        2 </v>
  <v type="int" >        3 </v>
 </varray>
 <kpoints>
  <generation param="Gamma">
   <v type="int" name="divisions">      18       18        1 </v>
   <v name="usershift">      0.00000000       0.00000000       0.00000000 </v>
   <v name="genvec1">      0.05555556       0.00000000       0.00000000 </v>
   <v name="genvec2">      0.00000000       0.05555556       0.00000000 </v>
   <v name="genvec3">      0.00000000       0.00000000       1.00000000 </v>
   <v name="shift">      0.00000000       0.00000000       0.00000000 </v>
  </generation>
  <varray name="kpointlist" >
   <v>       0.00000000       0.00000000       0.00000000 </v>
   <v>       0.05555556       0.00000000       0.00000000 </v>
   <v>       0.11111111       0.00000000       0.00000000 </v>
   <v>       0.16666667       0.00000000       0.00000000 </v>
   <v>       0.22222222       0.00000000       0.00000000 </v>
   <v>       0.27777778       0.00000000       0.00000000 </v>
   <v>       0.33333333       0.00000000       0.00000000 </v>
   <v>       0.38888889       0.00000000       0.00000000 </v>
   <v>       0.44444444       0.00000000       0.00000000 </v>
   <v>       0.50000000       0.00000000       0.00000000 </v>
   <v>       0.05555556       0.05555556       0.00000000 </v>
   <v>       0.11111111       0.05555556       0.00000000 </v>
   <v>       0.16666667       0.05555556       0.00000000 </v>
   <v>       0.22222222       0.05555556       0.00000000 </v>
   <v>       0.27777778       0.05555556       0.00000000 </v>
   <v>       0.33333333       0.05555556       0.00000000 </v>
   <v>       0.38888889       0.05555556       0.00000000 </v>
   <v>       0.44444444       0.05555556       0.00000000 </v>
   <v>       0.11111111       0.11111111       0.00000000 </v>
   <v>       0.16666667       0.11111111       0.00000000 </v>
   <v>       0.22222222       0.11111111       0.00000000 </v>
   <v>       0.27777778       0.11111111       0.00000000 </v>
   <v>       0.33333333       0.11111111       0.00000000 </v>
   <v>       0.38888889       0.11111111       0.00000000 </v>
   <v>       0.44444444       0.11111111       0.00000000 </v>
   <v>       0.16666667       0.16666667       0.00000000 </v>
   <v>       0.22222222       0.16666667       0.00000000 </v>
   <v>       0.27777778       0.16666667       0.00000000 </v>
   <v>       0.33333333       0.16666667       0.00000000 </v>
   <v>       0.38888889       0.16666667       0.00000000 </v>
   <v>       0.22222222       0.22222222       0.00000000 </v>
   <v>       0.27777778       0.22222222       0.00000000 </v>
   <v>       0.33333333       0.22222222       0.00000000 </v>
   <v>       0.38888889       0.22222222       0.00000000 </v>
   <v>       0.27777778       0.27777778       0.00000000 </v>
   <v>       0.33333333       0.27777778       0.00000000 </v>
   <v>       0.33333333       0.33333333       0.00000000 </v>
  </varray>
  <varray name="weights" >
   <v>       0.00308642 </v>
   <v>       0.01851852 </v>
   <v>       0.01851852 </v>
   <v>       0.01851852 </v>
   <v>       0.01851852 </v>
   <v>       0.01851852 </v>
   <v>       0.01851852 </v>
   <v>       0.01851852 </v>
   <v>       0.01851852 </v>
   <v>       0.00925926 </v>
   <v>       0.01851852 </v>
   <v>       0.03703704 </v>
   <v>       0.03703704 </v>
   <v>       0.03703704 </v>
   <v>       0.03703704 </v>
   <v>       0.03703704 </v>
   <v>       0.03703704 </v>
   <v>       0.03703704 </v>
   <v>       0.01851852 </v>
   <v>       0.03703704 </v>
   <v>       0.03703704 </v>
   <v>       0.03703704 </v>
   <v>       0.03703704 </v>
   <v>       0.03703704 </v>
   <v>       0.01851852 </v>
   <v>       0.01851852 </v>
   <v>       0.03703704 </v>
   <v>       0.03703704 </v>
   <v>       0.03703704 </v>
   <v>       0.03703704 </v>
   <v>       0.01851852 </v>
   <v>       0.03703704 </v>
   <v>       0.03703704 </v>
   <v>       0.01851852 </v>
   <v>       0.01851852 </v>
   <v>       0.03703704 </v>
   <v>       0.00617284 </v>
  </varray>
 </kpoints>
 <parameters>
  <separator name="general" >
   <i type="string" name="SYSTEM">SnS2</i>
   <i type="logical" name="LCOMPAT"> F  </i>
  </separator>
  <separator name="electronic" >
   <i type="string" name="PREC">accura</i>
   <i name="ENMAX">    400.00000000</i>
   <i name="ENAUG">    446.84200000</i>
   <i name="EDIFF">      0.00000100</i>
   <i type="int" name="IALGO">    38</i>
   <i type="int" name="IWAVPR">    10</i>
   <i type="int" name="NBANDS">    20</i>
   <i name="NELECT">     26.00000000</i>
   <i type="int" name="TURBO">     0</i>
   <i type="int" name="IRESTART">     0</i>
   <i type="int" name="NREBOOT">     0</i>
   <i type="int" name="NMIN">     0</i>
   <i name="EREF">      0.00000000</i>
   <separator name="electronic smearing" >
    <i type="int" name="ISMEAR">     0</i>
    <i name="SIGMA">      0.05000000</i>
    <i name="KSPACING">      0.50000000</i>
    <i type="logical" name="KGAMMA"> T  </i>
   </separator>
   <separator name="electronic projectors" >
    <i type="logical" name="LREAL"> T  </i>
    <v name="ROPT">     -0.00025000     -0.00025000</v>
    <i type="int" name="LMAXPAW">  -100</i>
    <i type="int" name="LMAXMIX">     4</i>
    <i type="logical" name="NLSPLINE"> F  </i>
   </separator>
   <separator name="electronic startup" >
    <i type="int" name="ISTART">     0</i>
    <i type="int" name="ICHARG">     2</i>
    <i type="int" name="INIWAV">     1</i>
   </separator>
   <separator name="electronic spin" >
    <i type="int" name="ISPIN">     1</i>
    <i type="logical" name="LNONCOLLINEAR"> F  </i>
    <v name="MAGMOM">      1.00000000      1.00000000      1.00000000</v>
    <i name="NUPDOWN">     -1.00000000</i>
    <i type="logical" name="LSORBIT"> F  </i>
    <v name="SAXIS">      0.00000000      0.00000000      1.00000000</v>
    <i type="logical" name="LSPIRAL"> F  </i>
    <v name="QSPIRAL">      0.00000000      0.00000000      0.00000000</v>
    <i type="logical" name="LZEROZ"> F  </i>
   </separator>
   <separator name="electronic exchange-correlation" >
    <i type="logical" name="LASPH"> T  </i>
    <i type="logical" name="LMETAGGA"> F  </i>
   </separator>
   <separator name="electronic convergence" >
    <i type="int" name="NELM">   160</i>
    <i type="int" name="NELMDL">    -5</i>
    <i type="int" name="NELMIN">     4</i>
    <i name="ENINI">    400.00000000</i>
    <separator name="electronic convergence detail" >
     <i type="logical" name="LDIAG"> T  </i>
     <i type="logical" name="LSUBROT"> F  </i>
     <i name="WEIMIN">      0.00000000</i>
     <i name="EBREAK">      0.00000001</i>
     <i name="DEPER">      0.30000000</i>
     <i type="int" name="NRMM">     4</i>
     <i name="TIME">      0.40000000</i>
    </separator>
   </separator>
   <separator name="electronic mixer" >
    <i name="AMIX">      0.10000000</i>
    <i name="BMIX">      0.00010000</i>
    <i name="AMIN">      0.10000000</i>
    <i name="AMIX_MAG">      0.40000000</i>
    <i name="BMIX_MAG">      0.00010000</i>
    <separator name="electronic mixer details" >
     <i type="int" name="IMIX">     4</i>
     <i type="logical" name="MIXFIRST"> F  </i>
     <i type="int" name="MAXMIX">    80</i>
     <i name="WC">    100.00000000</i>
     <i type="int" name="INIMIX">     1</i>
     <i type="int" name="MIXPRE">     1</i>
     <i type="int" name="MREMOVE">     5</i>
    </separator>
   </separator>
   <separator name="electronic dipolcorrection" >
    <i type="logical" name="LDIPOL"> F  </i>
    <i type="logical" name="LMONO"> F  </i>
    <i type="int" name="IDIPOL">     0</i>
    <i name="EPSILON">      1.00000000</i>
    <v name="DIPOL">   -100.00000000   -100.00000000   -100.00000000</v>
    <i name="EFIELD">      0.00000000</i>
   </separator>
  </separator>
  <separator name="grids" >
   <i type="int" name="NGX">    28</i>
   <i type="int" name="NGY">    28</i>
   <i type="int" name="NGZ">   120</i>
   <i type="int" name="NGXF">    56</i>
   <i type="int" name="NGYF">    56</i>
   <i type="int" name="NGZF">   240</i>
   <i type="logical" name="ADDGRID"> F  </i>
  </separator>
  <separator name="ionic" >
   <i type="int" name="NSW">     0</i>
   <i type="int" name="IBRION">    -1</i>
   <i type="int" name="MDALGO">     0</i>
   <i type="int" name="ISIF">     2</i>
   <i name="PSTRESS">      0.00000000</i>
   <i name="EDIFFG">      0.00001000</i>
   <i type="int" name="NFREE">     0</i>
   <i name="POTIM">      0.50000000</i>
   <i name="SMASS">     -3.00000000</i>
   <i name="SCALEE">      1.00000000</i>
  </separator>
  <separator name="ionic md" >
   <i name="TEBEG">      0.00010000</i>
   <i name="TEEND">      0.00010000</i>
   <i type="int" name="NBLOCK">     1</i>
   <i type="int" name="KBLOCK">     1</i>
   <i type="int" name="NPACO">   256</i>
   <i name="APACO">     16.00000000</i>
  </separator>
  <separator name="symmetry" >
   <i type="int" name="ISYM">     2</i>
   <i name="SYMPREC">      0.00001000</i>
  </separator>
  <separator name="dos" >
   <i type="int" name="LORBIT">    11</i>
   <v name="RWIGS">     -1.00000000     -1.00000000</v>
   <i type="int" name="NEDOS">   301</i>
   <i name="EMIN">     10.00000000</i>
   <i name="EMAX">    -10.00000000</i>
   <i name="EFERMI">      0.00000000</i>
  </separator>
  <separator name="writing" >
   <i type="int" name="NWRITE">     2</i>
   <i type="logical" name="LWAVE"> F  </i>
   <i type="logical" name="LDOWNSAMPLE"> F  </i>
   <i type="logical" name="LCHARG"> T  </i>
   <i type="logical" name="LPARD"> F  </i>
   <i type="logical" name="LVTOT"> F  </i>
   <i type="logical" name="LVHAR"> F  </i>
   <i type="logical" name="LELF"> F  </i>
   <i type="logical" name="LOPTICS"> F  </i>
   <v name="STM">      0.00000000      0.00000000      0.00000000      0.00000000      0.00000000      0.00000000      0.00000000</v>
  </separator>
  <separator name="performance" >
   <i type="int" name="NPAR">     4</i>
   <i type="int" name="NSIM">     4</i>
   <i type="int" name="NBLK">    -1</i>
   <i type="logical" name="LPLANE"> T  </i>
   <i type="logical" name="LSCALAPACK"> T  </i>
   <i type="logical" name="LSCAAWARE"> F  </i>
   <i type="logical" name="LSCALU"> F  </i>
   <i type="logical" name="LASYNC"> F  </i>
   <i type="logical" name="LORBITALREAL"> F  </i>
  </separator>
  <separator name="miscellaneous" >
   <i type="int" name="IDIOT">     3</i>
   <i type="int" name="ISPECIAL">     0</i>
   <i type="logical" name="LMUSIC"> F  </i>
   <v name="POMASS">    118.71000000     78.96000000</v>
   <v name="DARWINR">      0.00000000      0.00000000</v>
   <v name="DARWINV">      1.00000000      1.00000000</v>
   <i type="logical" name="LCORR"> T  </i>
  </separator>
  <i type="logical" name="GGA_COMPAT"> T  </i>
  <i type="logical" name="LBERRY"> F  </i>
  <i type="int" name="ICORELEVEL">     0</i>
  <i type="logical" name="LDAU"> F  </i>
  <i type="int" name="I_CONSTRAINED_M">     0</i>
  <separator name="electronic exchange-correlation" >
   <i type="string" name="GGA">PE</i>
   <i type="int" name="VOSKOWN">     1</i>
   <i type="logical" name="LHFCALC"> F  </i>
   <i type="string" name="PRECFOCK"></i>
   <i type="logical" name="LSYMGRAD"> F  </i>
   <i type="logical" name="LHFONE"> F  </i>
   <i type="logical" name="LRHFCALC"> F  </i>
   <i type="logical" name="LTHOMAS"> F  </i>
   <i type="logical" name="LMODELHF"> F  </i>
   <i name="ENCUT4O">     -1.00000000</i>
   <i type="int" name="EXXOEP">     0</i>
   <i type="int" name="FOURORBIT">     0</i>
   <i name="AEXX">      0.00000000</i>
   <i name="HFALPHA">      0.00000000</i>
   <i name="MCALPHA">      0.00000000</i>
   <i name="ALDAX">      1.00000000</i>
   <i name="AGGAX">      1.00000000</i>
   <i name="ALDAC">      1.00000000</i>
   <i name="AGGAC">      1.00000000</i>
   <i type="int" name="NKREDX">     1</i>
   <i type="int" name="NKREDY">     1</i>
   <i type="int" name="NKREDZ">     1</i>
   <i type="logical" name="SHIFTRED"> F  </i>
   <i type="logical" name="ODDONLY"> F  </i>
   <i type="logical" name="EVENONLY"> F  </i>
   <i type="int" name="LMAXFOCK">     0</i>
   <i type="int" name="NMAXFOCKAE">     0</i>
   <i type="logical" name="LFOCKAEDFT"> F  </i>
   <i name="HFSCREEN">      0.00000000</i>
   <i name="HFSCREENC">      0.00000000</i>
   <i type="int" name="NBANDSGWLOW">     0</i>
  </separator>
  <separator name="vdW DFT" >
   <i type="logical" name="LUSE_VDW"> F  </i>
   <i name="Zab_VDW">     -0.84910000</i>
   <i name="PARAM1">      0.12340000</i>
   <i name="PARAM2">      1.00000000</i>
   <i name="PARAM3">      0.00000000</i>
  </separator>
  <separator name="model GW" >
   <i type="int" name="MODEL_GW">     0</i>
   <i name="MODEL_EPS0">     47.04131597</i>
   <i name="MODEL_ALPHA">      1.00000000</i>
  </separator>
  <separator name="linear response parameters" >
   <i type="logical" name="LEPSILON"> F  </i>
   <i type="logical" name="LRPA"> F  </i>
   <i type="logical" name="LNABLA"> F  </i>
   <i type="logical" name="LVEL"> F  </i>
   <i type="int" name="KINTER">     0</i>
   <i name="CSHIFT">      0.10000000</i>
   <i name="OMEGAMAX">     -1.00000000</i>
   <i name="DEG_THRESHOLD">      0.00200000</i>
   <i name="RTIME">     -0.10000000</i>
   <i name="WPLASMAI">      0.00000000</i>
   <v name="DFIELD">      0.00000000      0.00000000      0.00000000</v>
   <v name="WPLASMA">      0.00000000      0.00000000      0.00000000      0.00000000      0.00000000      0.00000000      0.00000000      0.00000000      0.00000000</v>
  </separator>
  <separator name="orbital magnetization" >
   <i type="logical" name="NUCIND"> F  </i>
   <v name="MAGPOS">      0.00000000      0.00000000      0.00000000</v>
   <i type="logical" name="LNICSALL"> T  </i>
   <i type="logical" name="ORBITALMAG"> F  </i>
   <i type="logical" name="LMAGBLOCH"> F  </i>
   <i type="logical" name="LCHIMAG"> F  </i>
   <i type="logical" name="LGAUGE"> T  </i>
   <i type="int" name="MAGATOM">     0</i>
   <v name="MAGDIPOL">      0.00000000      0.00000000      0.00000000</v>
   <v name="AVECCONST">      0.00000000      0.00000000      0.00000000</v>
  </separator>
  <separator name="response functions" >
   <i type="logical" name="LADDER"> F  </i>
   <i type="logical" name="LRPAFORCE"> F  </i>
   <i type="logical" name="LFXC"> F  </i>
   <i type="logical" name="LHARTREE"> T  </i>
   <i type="int" name="IBSE">     0</i>
   <v type="int" name="KPOINT">    -1     0     0     0</v>
   <i type="logical" name="LTCTE"> F  </i>
   <i type="logical" name="LTETE"> F  </i>
   <i type="logical" name="LTRIPLET"> F  </i>
   <i type="logical" name="LFXCEPS"> F  </i>
   <i type="logical" name="LFXHEG"> F  </i>
   <i type="int" name="NATURALO">     2</i>
   <i type="logical" name="L2ORDER"> F  </i>
   <i type="logical" name="LMP2LT"> F  </i>
   <i type="logical" name="LUSEW"> F  </i>
   <i name="ENCUTGW">     -2.00000000</i>
   <i name="ENCUTGWSOFT">     -2.00000000</i>
   <i name="ENCUTLF">     -1.00000000</i>
   <i type="int" name="LMAXMP2">    -1</i>
   <i name="SCISSOR">      0.00000000</i>
   <i type="int" name="NOMEGA">     0</i>
   <i type="int" name="NOMEGAR">     0</i>
   <i type="int" name="NBANDSGW">    -1</i>
   <i type="int" name="NBANDSO">    -1</i>
   <i type="int" name="NBANDSV">    -1</i>
   <i type="int" name="NELM">   160</i>
   <i type="int" name="NELMHF">     1</i>
   <i type="int" name="DIM">     3</i>
   <i type="int" name="ANTIRES">     0</i>
   <i name="OMEGAMAX">    -30.00000000</i>
   <i name="OMEGAMIN">    -30.00000000</i>
   <i name="OMEGATL">   -200.00000000</i>
   <i type="int" name="OMEGAGRID">   140</i>
   <i name="CSHIFT">     -0.10000000</i>
   <i type="logical" name="SELFENERGY"> F  </i>
   <i type="logical" name="LSPECTRAL"> F  </i>
   <i type="logical" name="LSPECTRALGW"> F  </i>
   <i type="logical" name="LSINGLES"> F  </i>
   <i type="logical" name="LFERMIGW"> F  </i>
   <i type="logical" name="ODDONLYGW"> F  </i>
   <i type="logical" name="EVENONLYGW"> F  </i>
   <i type="int" name="NKREDLFX">     1</i>
   <i type="int" name="NKREDLFY">     1</i>
   <i type="int" name="NKREDLFZ">     1</i>
   <i type="int" name="MAXMEM">  2800</i>
   <i type="int" name="TELESCOPE">     0</i>
   <i type="int" name="TAUPAR">     1</i>
   <i type="int" name="OMEGAPAR">    -1</i>
   <i name="LAMBDA">      1.00000000</i>
  </separator>
  <separator name="External order field" >
   <i name="OFIELD_KAPPA">      0.00000000</i>
   <v name="OFIELD_K">      0.00000000      0.00000000      0.00000000</v>
   <i name="OFIELD_Q6_NEAR">      0.00000000</i>
   <i name="OFIELD_Q6_FAR">      0.00000000</i>
   <i name="OFIELD_A">      0.00000000</i>
  </separator>
 </parameters>
 <atominfo>
  <atoms>       3 </atoms>
  <types>       2 </types>
  <array name="atoms" >
   <dimension dim="1">ion</dimension>
   <field type="string">element</field>
   <field type="int">atomtype</field>
   <set>
    <rc><c>Sn</c><c>   1</c></rc>
    <rc><c>Se</c><c>   2</c></rc>
    <rc><c>Se</c><c>   2</c></rc>
   </set>
  </array>
  <array name="atomtypes" >
   <dimension dim="1">type</dimension>
   <field type="int">atomspertype</field>
   <field type="string">element</field>
   <field>mass</field>
   <field>valence</field>
   <field type="string">pseudopotential</field>
   <set>
    <rc><c>   1</c><c>Sn</c><c>    118.71000000</c><c>     14.00000000</c><c>  PAW_PBE Sn_d 06Sep2000                </c></rc>
    <rc><c>   2</c><c>Se</c><c>     78.96000000</c><c>      6.00000000</c><c>  PAW_PBE Se 06Sep2000                  </c></rc>
   </set>
  </array>
 </atominfo>
 <structure name="initialpos" >
  <crystal>
   <varray name="basis" >
    <v>       3.85005267       0.00000000       0.00000000 </v>
    <v>      -1.92502634       3.33424342       0.00000000 </v>
    <v>       0.00000000       0.00000000      18.32253218 </v>
   </varray>
   <i name="volume">    235.20657983 </i>
   <varray name="rec_basis" >
    <v>       0.25973671       0.14995906      -0.00000000 </v>
    <v>      -0.00000000       0.29991811      -0.00000000 </v>
    <v>       0.00000000       0.00000000       0.05457761 </v>
   </varray>
  </crystal>
  <varray name="positions" >
   <v>       0.00000000       0.00000000       0.50000000 </v>
   <v>       0.66666667       0.33333333       0.58740305 </v>
   <v>       0.33333333       0.66666667       0.41259695 </v>
  </varray>
 </structure>
 <calculation>
  <scstep>
   <time name="dav">    1.58    1.58</time>
   <time name="total">    1.86    1.87</time>
   <energy>
    <i name="alphaZ">     21.69146323 </i>
    <i name="ewald">   2677.98609625 </i>
    <i name="hartreedc">  -4806.35185894 </i>
    <i name="XCdc">     55.63981350 </i>
    <i name="pawpsdc">   1989.48296194 </i>
    <i name="pawaedc">  -1999.16640218 </i>
    <i name="eentropy">     -0.00261250 </i>
    <i name="bandstr">   -182.93057021 </i>
    <i name="atom">   2407.35767383 </i>
    <i name="e_fr_energy">    163.70656491 </i>
    <i name="e_wo_entrp">    163.70917742 </i>
    <i name="e_0_energy">    163.70787116 </i>
   </energy>
  </scstep>
  <scstep>
   <time name="dav">    1.33    1.33</time>
   <time name="total">    1.33    1.33</time>
   <energy>
    <i name="e_fr_energy">      5.65159652 </i>
    <i name="e_wo_entrp">      5.65159655 </i>
    <i name="e_0_energy">      5.65159653 </i>
   </energy>
  </scstep>
  <scstep>
   <time name="dav">    1.64    1.64</time>
   <time name="total">    1.64    1.64</time>
   <energy>
    <i name="e_fr_energy">    -11.66430756 </i>
    <i name="e_wo_entrp">    -11.66430756 </i>
    <i name="e_0_energy">    -11.66430756 </i>
   </energy>
  </scstep>
  <scstep>
   <time name="dav">    1.88    1.88</time>
   <time name="total">    1.88    1.88</time>
   <energy>
    <i name="e_fr_energy">    -12.12801601 </i>
    <i name="e_wo_entrp">    -12.12801601 </i>
    <i name="e_0_energy">    -12.12801601 </i>
   </energy>
  </scstep>
  <scstep>
   <time name="dav">    2.00    2.01</time>
   <time name="total">    2.09    2.10</time>
   <energy>
    <i name="e_fr_energy">    -12.13984369 </i>
    <i name="e_wo_entrp">    -12.13984369 </i>
    <i name="e_0_energy">    -12.13984369 </i>
   </energy>
  </scstep>
  <scstep>
   <time name="dav">    1.95    1.95</time>
   <time name="total">    2.30    2.31</time>
   <energy>
    <i name="e_fr_energy">    -12.02211486 </i>
    <i name="e_wo_entrp">    -12.02211486 </i>
    <i name="e_0_energy">    -12.02211486 </i>
   </energy>
  </scstep>
  <scstep>
   <time name="dav">    1.86    1.86</time>
   <time name="total">    2.20    2.21</time>
   <energy>
    <i name="e_fr_energy">    -11.90861464 </i>
    <i name="e_wo_entrp">    -11.90861464 </i>
    <i name="e_0_energy">    -11.90861464 </i>
   </energy>
  </scstep>
  <scstep>
   <time name="dav">    1.42    1.43</time>
   <time name="total">    1.77    1.78</time>
   <energy>
    <i name="e_fr_energy">    -11.87076134 </i>
    <i name="e_wo_entrp">    -11.87076134 </i>
    <i name="e_0_energy">    -11.87076134 </i>
   </energy>
  </scstep>
  <scstep>
   <time name="dav">    0.98    0.98</time>
   <time name="total">    1.32    1.32</time>
   <energy>
    <i name="e_fr_energy">    -11.86907788 </i>
    <i name="e_wo_entrp">    -11.86907788 </i>
    <i name="e_0_energy">    -11.86907788 </i>
   </energy>
  </scstep>
  <scstep>
   <time name="dav">    1.92    1.92</time>
   <time name="total">    2.26    2.27</time>
   <energy>
    <i name="e_fr_energy">    -11.86345303 </i>
    <i name="e_wo_entrp">    -11.86345303 </i>
    <i name="e_0_energy">    -11.86345303 </i>
   </energy>
  </scstep>
  <scstep>
   <time name="dav">    1.79    1.80</time>
   <time name="total">    2.15    2.15</time>
   <energy>
    <i name="e_fr_energy">    -11.86318356 </i>
    <i name="e_wo_entrp">    -11.86318356 </i>
    <i name="e_0_energy">    -11.86318356 </i>
   </energy>
  </scstep>
  <scstep>
   <time name="dav">    1.76    1.77</time>
   <time name="total">    2.12    2.13</time>
   <energy>
    <i name="e_fr_energy">    -11.86309004 </i>
    <i name="e_wo_entrp">    -11.86309004 </i>
    <i name="e_0_energy">    -11.86309004 </i>
   </energy>
  </scstep>
  <scstep>
   <time name="dav">    1.67    1.67</time>
   <time name="total">    2.03    2.03</time>
   <energy>
    <i name="e_fr_energy">    -11.86311282 </i>
    <i name="e_wo_entrp">    -11.86311282 </i>
    <i name="e_0_energy">    -11.86311282 </i>
   </energy>
  </scstep>
  <scstep>
   <time name="dav">    1.80    1.80</time>
   <time name="total">    2.16    2.17</time>
   <energy>
    <i name="e_fr_energy">    -11.86311532 </i>
    <i name="e_wo_entrp">    -11.86311532 </i>
    <i name="e_0_energy">    -11.86311532 </i>
   </energy>
  </scstep>
  <scstep>
   <time name="dav">    1.82    1.83</time>
   <time name="total">    2.09    2.10</time>
   <energy>
    <i name="alphaZ">     21.69146323 </i>
    <i name="ewald">   2677.98609625 </i>
    <i name="hartreedc">  -4805.43493272 </i>
    <i name="XCdc">     55.99368827 </i>
    <i name="pawpsdc">   2568.67463908 </i>
    <i name="pawaedc">  -2578.04705125 </i>
    <i name="eentropy">     -0.00000000 </i>
    <i name="bandstr">   -360.08469129 </i>
    <i name="atom">   2407.35767383 </i>
    <i name="e_fr_energy">    -11.86311461 </i>
    <i name="e_wo_entrp">    -11.86311461 </i>
    <i name="e_0_energy">    -11.86311461 </i>
   </energy>
  </scstep>
  <structure>
   <crystal>
    <varray name="basis" >
     <v>       3.85005267       0.00000000       0.00000000 </v>
     <v>      -1.92502634       3.33424342       0.00000000 </v>
     <v>       0.00000000       0.00000000      18.32253218 </v>
    </varray>
    <i name="volume">    235.20657983 </i>
    <varray name="rec_basis" >
     <v>       0.25973671       0.14995906      -0.00000000 </v>
     <v>      -0.00000000       0.29991811      -0.00000000 </v>
     <v>       0.00000000       0.00000000       0.05457761 </v>
    </varray>
   </crystal>
   <varray name="positions" >
    <v>       0.00000000       0.00000000       0.50000000 </v>
    <v>       0.66666667       0.33333333       0.58740305 </v>
    <v>       0.33333333       0.66666667       0.41259695 </v>
   </varray>
  </structure>
  <varray name="forces" >
   <v>      -0.00000000      -0.00000000       0.00000000 </v>
   <v>      -0.00000000      -0.00000000      -0.00389526 </v>
   <v>       0.00000000       0.00000000       0.00389526 </v>
  </varray>
  <varray name="stress" >
   <v>      -0.33615690       0.00000000       0.00000000 </v>
   <v>       0.00000000      -0.33615690       0.00000000 </v>
   <v>       0.00000000       0.00000000      -0.33835319 </v>
  </varray>
  <energy>
   <i name="e_fr_energy">    -12.26898996 </i>
   <i name="e_wo_entrp">    -12.26898996 </i>
   <i name="e_0_energy">     -0.00000000 </i>
  </energy>
  <time name="totalsc">   32.21   32.32</time>
  <eigenvalues>
   <array>
    <dimension dim="1">band</dimension>
    <dimension dim="2">kpoint</dimension>
    <dimension dim="3">spin</dimension>
    <field>eigene</field>
    <field>occ</field>
    <set>
     <set comment="spin 1">
      <set comment="kpoint 1">
       <r>  -23.8356    1.0000 </r>
       <r>  -23.8356    1.0000 </r>
       <r>  -23.7998    1.0000 </r>
       <r>  -23.7908    1.0000 </r>
       <r>  -23.7908    1.0000 </r>
       <r>  -16.0948    1.0000 </r>
       <r>  -14.8202    1.0000 </r>
       <r>   -8.3022    1.0000 </r>
       <r>   -3.8080    1.0000 </r>
       <r>   -3.1564    1.0000 </r>
       <r>   -3.1564    1.0000 </r>
       <r>   -2.7754    1.0000 </r>
       <r>   -2.7754    1.0000 </r>
       <r>   -1.1689    0.0000 </r>
       <r>    0.3794    0.0000 </r>
       <r>    1.8886    0.0000 </r>
       <r>    1.8886    0.0000 </r>
       <r>    2.8615    0.0000 </r>
       <r>    3.0131    0.0000 </r>
       <r>    3.9908    0.0000 </r>
      </set>
      <set comment="kpoint 2">
       <r>  -23.8367    1.0000 </r>
       <r>  -23.8345    1.0000 </r>
       <r>  -23.7990    1.0000 </r>
       <r>  -23.7916    1.0000 </r>
       <r>  -23.7908    1.0000 </r>
       <r>  -16.0661    1.0000 </r>
       <r>  -14.8002    1.0000 </r>
       <r>   -8.3085    1.0000 </r>
       <r>   -3.7946    1.0000 </r>
       <r>   -3.4728    1.0000 </r>
       <r>   -3.2712    1.0000 </r>
       <r>   -2.9417    1.0000 </r>
       <r>   -2.7354    1.0000 </r>
       <r>   -0.9673    0.0000 </r>
       <r>    0.6044    0.0000 </r>
       <r>    1.7873    0.0000 </r>
       <r>    1.9611    0.0000 </r>
       <r>    2.9465    0.0000 </r>
       <r>    3.0388    0.0000 </r>
       <r>    4.0565    0.0000 </r>
      </set>
      <set comment="kpoint 3">
       <r>  -23.8397    1.0000 </r>
       <r>  -23.8313    1.0000 </r>
       <r>  -23.7970    1.0000 </r>
       <r>  -23.7936    1.0000 </r>
       <r>  -23.7907    1.0000 </r>
       <r>  -15.9809    1.0000 </r>
       <r>  -14.7420    1.0000 </r>
       <r>   -8.3343    1.0000 </r>
       <r>   -4.1211    1.0000 </r>
       <r>   -3.7557    1.0000 </r>
       <r>   -3.5161    1.0000 </r>
       <r>   -3.3593    1.0000 </r>
       <r>   -2.6981    1.0000 </r>
       <r>   -0.6293    0.0000 </r>
       <r>    0.9893    0.0000 </r>
       <r>    1.7579    0.0000 </r>
       <r>    2.1563    0.0000 </r>
       <r>    3.0985    0.0000 </r>
       <r>    3.1600    0.0000 </r>
       <r>    4.2333    0.0000 </r>
      </set>
      <set comment="kpoint 4">
       <r>  -23.8449    1.0000 </r>
       <r>  -23.8268    1.0000 </r>
       <r>  -23.7978    1.0000 </r>
       <r>  -23.7923    1.0000 </r>
       <r>  -23.7902    1.0000 </r>
       <r>  -15.8422    1.0000 </r>
       <r>  -14.6521    1.0000 </r>
       <r>   -8.4003    1.0000 </r>
       <r>   -4.8146    1.0000 </r>
       <r>   -3.9240    1.0000 </r>
       <r>   -3.8020    1.0000 </r>
       <r>   -3.6254    1.0000 </r>
       <r>   -2.7103    1.0000 </r>
       <r>   -0.5180    0.0000 </r>
       <r>    1.1296    0.0000 </r>
       <r>    2.1933    0.0000 </r>
       <r>    2.4158    0.0000 </r>
       <r>    3.1984    0.0000 </r>
       <r>    3.4423    0.0000 </r>
       <r>    4.4496    0.0000 </r>
      </set>
      <set comment="kpoint 5">
       <r>  -23.8518    1.0000 </r>
       <r>  -23.8219    1.0000 </r>
       <r>  -23.8014    1.0000 </r>
       <r>  -23.7888    1.0000 </r>
       <r>  -23.7875    1.0000 </r>
       <r>  -15.6557    1.0000 </r>
       <r>  -14.5413    1.0000 </r>
       <r>   -8.5356    1.0000 </r>
       <r>   -5.4507    1.0000 </r>
       <r>   -4.3616    1.0000 </r>
       <r>   -4.0877    1.0000 </r>
       <r>   -3.5625    1.0000 </r>
       <r>   -2.7631    1.0000 </r>
       <r>   -0.7252    0.0000 </r>
       <r>    1.2799    0.0000 </r>
       <r>    2.6430    0.0000 </r>
       <r>    2.6663    0.0000 </r>
       <r>    3.3339    0.0000 </r>
       <r>    3.7986    0.0000 </r>
       <r>    4.3037    0.0000 </r>
      </set>
      <set comment="kpoint 6">
       <r>  -23.8596    1.0000 </r>
       <r>  -23.8179    1.0000 </r>
       <r>  -23.8049    1.0000 </r>
       <r>  -23.7862    1.0000 </r>
       <r>  -23.7823    1.0000 </r>
       <r>  -15.4310    1.0000 </r>
       <r>  -14.4260    1.0000 </r>
       <r>   -8.7584    1.0000 </r>
       <r>   -5.9828    1.0000 </r>
       <r>   -4.7044    1.0000 </r>
       <r>   -4.3474    1.0000 </r>
       <r>   -3.4827    1.0000 </r>
       <r>   -2.8364    1.0000 </r>
       <r>   -1.0742    0.0000 </r>
       <r>    1.4086    0.0000 </r>
       <r>    2.7645    0.0000 </r>
       <r>    2.8515    0.0000 </r>
       <r>    3.5618    0.0000 </r>
       <r>    4.0591    0.0000 </r>
       <r>    4.2750    0.0000 </r>
      </set>
      <set comment="kpoint 7">
       <r>  -23.8672    1.0000 </r>
       <r>  -23.8153    1.0000 </r>
       <r>  -23.8081    1.0000 </r>
       <r>  -23.7825    1.0000 </r>
       <r>  -23.7772    1.0000 </r>
       <r>  -15.1836    1.0000 </r>
       <r>  -14.3269    1.0000 </r>
       <r>   -9.0463    1.0000 </r>
       <r>   -6.4051    1.0000 </r>
       <r>   -4.9037    1.0000 </r>
       <r>   -4.5639    1.0000 </r>
       <r>   -3.4212    1.0000 </r>
       <r>   -2.9117    1.0000 </r>
       <r>   -1.4235    0.0000 </r>
       <r>    1.4480    0.0000 </r>
       <r>    2.6880    0.0000 </r>
       <r>    2.9557    0.0000 </r>
       <r>    3.5933    0.0000 </r>
       <r>    4.1889    0.0000 </r>
       <r>    4.6943    0.0000 </r>
      </set>
      <set comment="kpoint 8">
       <r>  -23.8735    1.0000 </r>
       <r>  -23.8140    1.0000 </r>
       <r>  -23.8105    1.0000 </r>
       <r>  -23.7786    1.0000 </r>
       <r>  -23.7731    1.0000 </r>
       <r>  -14.9377    1.0000 </r>
       <r>  -14.2670    1.0000 </r>
       <r>   -9.3335    1.0000 </r>
       <r>   -6.7215    1.0000 </r>
       <r>   -4.9747    1.0000 </r>
       <r>   -4.7257    1.0000 </r>
       <r>   -3.3952    1.0000 </r>
       <r>   -2.9748    1.0000 </r>
       <r>   -1.7024    0.0000 </r>
       <r>    1.4250    0.0000 </r>
       <r>    2.6143    0.0000 </r>
       <r>    2.9989    0.0000 </r>
       <r>    3.3501    0.0000 </r>
       <r>    4.6305    0.0000 </r>
       <r>    5.1718    0.0000 </r>
      </set>
      <set comment="kpoint 9">
       <r>  -23.8777    1.0000 </r>
       <r>  -23.8135    1.0000 </r>
       <r>  -23.8120    1.0000 </r>
       <r>  -23.7758    1.0000 </r>
       <r>  -23.7704    1.0000 </r>
       <r>  -14.7333    1.0000 </r>
       <r>  -14.2584    1.0000 </r>
       <r>   -9.5438    1.0000 </r>
       <r>   -6.9225    1.0000 </r>
       <r>   -4.9738    1.0000 </r>
       <r>   -4.8255    1.0000 </r>
       <r>   -3.4010    1.0000 </r>
       <r>   -3.0163    1.0000 </r>
       <r>   -1.8751    0.0000 </r>
       <r>    1.3877    0.0000 </r>
       <r>    2.6213    0.0000 </r>
       <r>    3.0107    0.0000 </r>
       <r>    3.0913    0.0000 </r>
       <r>    5.1930    0.0000 </r>
       <r>    5.6795    0.0000 </r>
      </set>
      <set comment="kpoint 10">
       <r>  -23.8792    1.0000 </r>
       <r>  -23.8134    1.0000 </r>
       <r>  -23.8125    1.0000 </r>
       <r>  -23.7748    1.0000 </r>
       <r>  -23.7694    1.0000 </r>
       <r>  -14.6437    1.0000 </r>
       <r>  -14.2713    1.0000 </r>
       <r>   -9.6208    1.0000 </r>
       <r>   -6.9920    1.0000 </r>
       <r>   -4.9641    1.0000 </r>
       <r>   -4.8592    1.0000 </r>
       <r>   -3.4096    1.0000 </r>
       <r>   -3.0307    1.0000 </r>
       <r>   -1.9321    0.0000 </r>
       <r>    1.3710    0.0000 </r>
       <r>    2.6654    0.0000 </r>
       <r>    2.9561    0.0000 </r>
       <r>    3.0121    0.0000 </r>
       <r>    5.7994    0.0000 </r>
       <r>    5.8601    0.0000 </r>
      </set>
      <set comment="kpoint 11">
       <r>  -23.8386    1.0000 </r>
       <r>  -23.8325    1.0000 </r>
       <r>  -23.7976    1.0000 </r>
       <r>  -23.7931    1.0000 </r>
       <r>  -23.7907    1.0000 </r>
       <r>  -16.0091    1.0000 </r>
       <r>  -14.7610    1.0000 </r>
       <r>   -8.3245    1.0000 </r>
       <r>   -3.8557    1.0000 </r>
       <r>   -3.7744    1.0000 </r>
       <r>   -3.6499    1.0000 </r>
       <r>   -2.9995    1.0000 </r>
       <r>   -2.8111    1.0000 </r>
       <r>   -0.7073    0.0000 </r>
       <r>    0.9415    0.0000 </r>
       <r>    1.6608    0.0000 </r>
       <r>    2.1234    0.0000 </r>
       <r>    3.0846    0.0000 </r>
       <r>    3.0899    0.0000 </r>
       <r>    4.1778    0.0000 </r>
      </set>
      <set comment="kpoint 12">
       <r>  -23.8424    1.0000 </r>
       <r>  -23.8290    1.0000 </r>
       <r>  -23.7962    1.0000 </r>
       <r>  -23.7944    1.0000 </r>
       <r>  -23.7902    1.0000 </r>
       <r>  -15.8971    1.0000 </r>
       <r>  -14.6869    1.0000 </r>
       <r>   -8.3701    1.0000 </r>
       <r>   -4.4709    1.0000 </r>
       <r>   -4.0888    1.0000 </r>
       <r>   -3.7444    1.0000 </r>
       <r>   -3.2579    1.0000 </r>
       <r>   -2.8348    1.0000 </r>
       <r>   -0.4911    0.0000 </r>
       <r>    1.2398    0.0000 </r>
       <r>    1.7627    0.0000 </r>
       <r>    2.4023    0.0000 </r>
       <r>    3.1891    0.0000 </r>
       <r>    3.3175    0.0000 </r>
       <r>    4.3907    0.0000 </r>
      </set>
      <set comment="kpoint 13">
       <r>  -23.8482    1.0000 </r>
       <r>  -23.8246    1.0000 </r>
       <r>  -23.7994    1.0000 </r>
       <r>  -23.7916    1.0000 </r>
       <r>  -23.7879    1.0000 </r>
       <r>  -15.7343    1.0000 </r>
       <r>  -14.5863    1.0000 </r>
       <r>   -8.4702    1.0000 </r>
       <r>   -5.1311    1.0000 </r>
       <r>   -4.4562    1.0000 </r>
       <r>   -3.8438    1.0000 </r>
       <r>   -3.4859    1.0000 </r>
       <r>   -2.8601    1.0000 </r>
       <r>   -0.5373    0.0000 </r>
       <r>    1.3431    0.0000 </r>
       <r>    2.2242    0.0000 </r>
       <r>    2.6578    0.0000 </r>
       <r>    3.3385    0.0000 </r>
       <r>    3.6319    0.0000 </r>
       <r>    4.4443    0.0000 </r>
      </set>
      <set comment="kpoint 14">
       <r>  -23.8553    1.0000 </r>
       <r>  -23.8205    1.0000 </r>
       <r>  -23.8028    1.0000 </r>
       <r>  -23.7891    1.0000 </r>
       <r>  -23.7834    1.0000 </r>
       <r>  -15.5283    1.0000 </r>
       <r>  -14.4727    1.0000 </r>
       <r>   -8.6502    1.0000 </r>
       <r>   -5.7158    1.0000 </r>
       <r>   -4.7536    1.0000 </r>
       <r>   -4.1530    1.0000 </r>
       <r>   -3.4840    1.0000 </r>
       <r>   -2.9145    1.0000 </r>
       <r>   -0.8033    0.0000 </r>
       <r>    1.4820    0.0000 </r>
       <r>    2.6066    0.0000 </r>
       <r>    2.7712    0.0000 </r>
       <r>    3.5326    0.0000 </r>
       <r>    3.9912    0.0000 </r>
       <r>    4.2746    0.0000 </r>
      </set>
      <set comment="kpoint 15">
       <r>  -23.8628    1.0000 </r>
       <r>  -23.8175    1.0000 </r>
       <r>  -23.8061    1.0000 </r>
       <r>  -23.7858    1.0000 </r>
       <r>  -23.7784    1.0000 </r>
       <r>  -15.2911    1.0000 </r>
       <r>  -14.3644    1.0000 </r>
       <r>   -8.9096    1.0000 </r>
       <r>   -6.1926    1.0000 </r>
       <r>   -4.9479    1.0000 </r>
       <r>   -4.4603    1.0000 </r>
       <r>   -3.4411    1.0000 </r>
       <r>   -2.9762    1.0000 </r>
       <r>   -1.1382    0.0000 </r>
       <r>    1.5714    0.0000 </r>
       <r>    2.6950    0.0000 </r>
       <r>    2.8634    0.0000 </r>
       <r>    3.6694    0.0000 </r>
       <r>    4.1328    0.0000 </r>
       <r>    4.5109    0.0000 </r>
      </set>
      <set comment="kpoint 16">
       <r>  -23.8696    1.0000 </r>
       <r>  -23.8158    1.0000 </r>
       <r>  -23.8087    1.0000 </r>
       <r>  -23.7818    1.0000 </r>
       <r>  -23.7741    1.0000 </r>
       <r>  -15.0423    1.0000 </r>
       <r>  -14.2839    1.0000 </r>
       <r>   -9.2028    1.0000 </r>
       <r>   -6.5599    1.0000 </r>
       <r>   -5.0321    1.0000 </r>
       <r>   -4.7039    1.0000 </r>
       <r>   -3.4139    1.0000 </r>
       <r>   -3.0324    1.0000 </r>
       <r>   -1.4448    0.0000 </r>
       <r>    1.5861    0.0000 </r>
       <r>    2.6350    0.0000 </r>
       <r>    2.9280    0.0000 </r>
       <r>    3.5293    0.0000 </r>
       <r>    4.4401    0.0000 </r>
       <r>    4.9632    0.0000 </r>
      </set>
      <set comment="kpoint 17">
       <r>  -23.8747    1.0000 </r>
       <r>  -23.8150    1.0000 </r>
       <r>  -23.8107    1.0000 </r>
       <r>  -23.7780    1.0000 </r>
       <r>  -23.7712    1.0000 </r>
       <r>  -14.8122    1.0000 </r>
       <r>  -14.2508    1.0000 </r>
       <r>   -9.4567    1.0000 </r>
       <r>   -6.8160    1.0000 </r>
       <r>   -5.0374    1.0000 </r>
       <r>   -4.8715    1.0000 </r>
       <r>   -3.4040    1.0000 </r>
       <r>   -3.0841    1.0000 </r>
       <r>   -1.6680    0.0000 </r>
       <r>    1.5612    0.0000 </r>
       <r>    2.6218    0.0000 </r>
       <r>    2.9326    0.0000 </r>
       <r>    3.2780    0.0000 </r>
       <r>    4.9392    0.0000 </r>
       <r>    5.4618    0.0000 </r>
      </set>
      <set comment="kpoint 18">
       <r>  -23.8775    1.0000 </r>
       <r>  -23.8147    1.0000 </r>
       <r>  -23.8116    1.0000 </r>
       <r>  -23.7758    1.0000 </r>
       <r>  -23.7697    1.0000 </r>
       <r>  -14.6542    1.0000 </r>
       <r>  -14.2613    1.0000 </r>
       <r>   -9.6034    1.0000 </r>
       <r>   -6.9494    1.0000 </r>
       <r>   -5.0118    1.0000 </r>
       <r>   -4.9637    1.0000 </r>
       <r>   -3.4000    1.0000 </r>
       <r>   -3.1228    1.0000 </r>
       <r>   -1.7816    0.0000 </r>
       <r>    1.5369    0.0000 </r>
       <r>    2.6734    0.0000 </r>
       <r>    2.9223    0.0000 </r>
       <r>    3.0705    0.0000 </r>
       <r>    5.5351    0.0000 </r>
       <r>    5.9707    0.0000 </r>
      </set>
      <set comment="kpoint 19">
       <r>  -23.8464    1.0000 </r>
       <r>  -23.8262    1.0000 </r>
       <r>  -23.7981    1.0000 </r>
       <r>  -23.7933    1.0000 </r>
       <r>  -23.7878    1.0000 </r>
       <r>  -15.7609    1.0000 </r>
       <r>  -14.6020    1.0000 </r>
       <r>   -8.4492    1.0000 </r>
       <r>   -4.8048    1.0000 </r>
       <r>   -4.7524    1.0000 </r>
       <r>   -3.7692    1.0000 </r>
       <r>   -3.1856    1.0000 </r>
       <r>   -3.1301    1.0000 </r>
       <r>   -0.4345    0.0000 </r>
       <r>    1.6274    0.0000 </r>
       <r>    1.7703    0.0000 </r>
       <r>    2.6588    0.0000 </r>
       <r>    3.3850    0.0000 </r>
       <r>    3.5482    0.0000 </r>
       <r>    4.5740    0.0000 </r>
      </set>
      <set comment="kpoint 20">
       <r>  -23.8517    1.0000 </r>
       <r>  -23.8234    1.0000 </r>
       <r>  -23.8008    1.0000 </r>
       <r>  -23.7920    1.0000 </r>
       <r>  -23.7834    1.0000 </r>
       <r>  -15.5780    1.0000 </r>
       <r>  -14.4978    1.0000 </r>
       <r>   -8.5942    1.0000 </r>
       <r>   -5.4001    1.0000 </r>
       <r>   -5.0376    1.0000 </r>
       <r>   -3.9345    1.0000 </r>
       <r>   -3.4072    1.0000 </r>
       <r>   -3.1362    1.0000 </r>
       <r>   -0.5305    0.0000 </r>
       <r>    1.7307    0.0000 </r>
       <r>    2.1722    0.0000 </r>
       <r>    2.7739    0.0000 </r>
       <r>    3.6210    0.0000 </r>
       <r>    3.8576    0.0000 </r>
       <r>    4.4365    0.0000 </r>
      </set>
      <set comment="kpoint 21">
       <r>  -23.8579    1.0000 </r>
       <r>  -23.8210    1.0000 </r>
       <r>  -23.8035    1.0000 </r>
       <r>  -23.7898    1.0000 </r>
       <r>  -23.7786    1.0000 </r>
       <r>  -15.3582    1.0000 </r>
       <r>  -14.3898    1.0000 </r>
       <r>   -8.8152    1.0000 </r>
       <r>   -5.9320    1.0000 </r>
       <r>   -5.2009    1.0000 </r>
       <r>   -4.2680    1.0000 </r>
       <r>   -3.5080    1.0000 </r>
       <r>   -3.1241    1.0000 </r>
       <r>   -0.7560    0.0000 </r>
       <r>    1.8254    0.0000 </r>
       <r>    2.4622    0.0000 </r>
       <r>    2.8623    0.0000 </r>
       <r>    3.7760    0.0000 </r>
       <r>    4.1573    0.0000 </r>
       <r>    4.4720    0.0000 </r>
      </set>
      <set comment="kpoint 22">
       <r>  -23.8641    1.0000 </r>
       <r>  -23.8194    1.0000 </r>
       <r>  -23.8059    1.0000 </r>
       <r>  -23.7864    1.0000 </r>
       <r>  -23.7744    1.0000 </r>
       <r>  -15.1168    1.0000 </r>
       <r>  -14.2980    1.0000 </r>
       <r>   -9.0893    1.0000 </r>
       <r>   -6.3485    1.0000 </r>
       <r>   -5.2798    1.0000 </r>
       <r>   -4.6081    1.0000 </r>
       <r>   -3.5429    1.0000 </r>
       <r>   -3.1263    1.0000 </r>
       <r>   -1.0291    0.0000 </r>
       <r>    1.8995    0.0000 </r>
       <r>    2.5146    0.0000 </r>
       <r>    2.9652    0.0000 </r>
       <r>    3.7493    0.0000 </r>
       <r>    4.3838    0.0000 </r>
       <r>    4.8286    0.0000 </r>
      </set>
      <set comment="kpoint 23">
       <r>  -23.8694    1.0000 </r>
       <r>  -23.8187    1.0000 </r>
       <r>  -23.8079    1.0000 </r>
       <r>  -23.7823    1.0000 </r>
       <r>  -23.7715    1.0000 </r>
       <r>  -14.8775    1.0000 </r>
       <r>  -14.2436    1.0000 </r>
       <r>   -9.3596    1.0000 </r>
       <r>   -6.6473    1.0000 </r>
       <r>   -5.3056    1.0000 </r>
       <r>   -4.8665    1.0000 </r>
       <r>   -3.5335    1.0000 </r>
       <r>   -3.1641    1.0000 </r>
       <r>   -1.2723    0.0000 </r>
       <r>    1.9344    0.0000 </r>
       <r>    2.5273    0.0000 </r>
       <r>    2.9610    0.0000 </r>
       <r>    3.5622    0.0000 </r>
       <r>    4.7834    0.0000 </r>
       <r>    5.3025    0.0000 </r>
      </set>
      <set comment="kpoint 24">
       <r>  -23.8729    1.0000 </r>
       <r>  -23.8184    1.0000 </r>
       <r>  -23.8092    1.0000 </r>
       <r>  -23.7789    1.0000 </r>
       <r>  -23.7702    1.0000 </r>
       <r>  -14.6785    1.0000 </r>
       <r>  -14.2383    1.0000 </r>
       <r>   -9.5576    1.0000 </r>
       <r>   -6.8290    1.0000 </r>
       <r>   -5.3200    1.0000 </r>
       <r>   -5.0090    1.0000 </r>
       <r>   -3.4727    1.0000 </r>
       <r>   -3.2498    1.0000 </r>
       <r>   -1.4329    0.0000 </r>
       <r>    1.9389    0.0000 </r>
       <r>    2.6047    0.0000 </r>
       <r>    2.8794    0.0000 </r>
       <r>    3.3596    0.0000 </r>
       <r>    5.3196    0.0000 </r>
       <r>    5.8170    0.0000 </r>
      </set>
      <set comment="kpoint 25">
       <r>  -23.8741    1.0000 </r>
       <r>  -23.8184    1.0000 </r>
       <r>  -23.8096    1.0000 </r>
       <r>  -23.7774    1.0000 </r>
       <r>  -23.7699    1.0000 </r>
       <r>  -14.5906    1.0000 </r>
       <r>  -14.2526    1.0000 </r>
       <r>   -9.6302    1.0000 </r>
       <r>   -6.8903    1.0000 </r>
       <r>   -5.3304    1.0000 </r>
       <r>   -5.0479    1.0000 </r>
       <r>   -3.3828    1.0000 </r>
       <r>   -3.3506    1.0000 </r>
       <r>   -1.4878    0.0000 </r>
       <r>    1.9361    0.0000 </r>
       <r>    2.7153    0.0000 </r>
       <r>    2.7754    0.0000 </r>
       <r>    3.2709    0.0000 </r>
       <r>    5.8954    0.0000 </r>
       <r>    5.9594    0.0000 </r>
      </set>
      <set comment="kpoint 26">
       <r>  -23.8556    1.0000 </r>
       <r>  -23.8229    1.0000 </r>
       <r>  -23.8020    1.0000 </r>
       <r>  -23.7917    1.0000 </r>
       <r>  -23.7785    1.0000 </r>
       <r>  -15.3809    1.0000 </r>
       <r>  -14.3987    1.0000 </r>
       <r>   -8.7813    1.0000 </r>
       <r>   -5.7246    1.0000 </r>
       <r>   -5.4253    1.0000 </r>
       <r>   -4.1300    1.0000 </r>
       <r>   -3.6043    1.0000 </r>
       <r>   -3.1774    1.0000 </r>
       <r>   -0.5700    0.0000 </r>
       <r>    1.9597    0.0000 </r>
       <r>    2.3191    0.0000 </r>
       <r>    2.8608    0.0000 </r>
       <r>    3.8791    0.0000 </r>
       <r>    4.1205    0.0000 </r>
       <r>    4.5828    0.0000 </r>
      </set>
      <set comment="kpoint 27">
       <r>  -23.8597    1.0000 </r>
       <r>  -23.8228    1.0000 </r>
       <r>  -23.8033    1.0000 </r>
       <r>  -23.7901    1.0000 </r>
       <r>  -23.7744    1.0000 </r>
       <r>  -15.1554    1.0000 </r>
       <r>  -14.3059    1.0000 </r>
       <r>   -9.0221    1.0000 </r>
       <r>   -6.1295    1.0000 </r>
       <r>   -5.5626    1.0000 </r>
       <r>   -4.4582    1.0000 </r>
       <r>   -3.7525    1.0000 </r>
       <r>   -3.1475    1.0000 </r>
       <r>   -0.7051    0.0000 </r>
       <r>    2.0001    0.0000 </r>
       <r>    2.5374    0.0000 </r>
       <r>    3.0170    0.0000 </r>
       <r>    4.0279    0.0000 </r>
       <r>    4.3934    0.0000 </r>
       <r>    4.7994    0.0000 </r>
      </set>
      <set comment="kpoint 28">
       <r>  -23.8636    1.0000 </r>
       <r>  -23.8232    1.0000 </r>
       <r>  -23.8045    1.0000 </r>
       <r>  -23.7871    1.0000 </r>
       <r>  -23.7716    1.0000 </r>
       <r>  -14.9201    1.0000 </r>
       <r>  -14.2390    1.0000 </r>
       <r>   -9.2807    1.0000 </r>
       <r>   -6.4484    1.0000 </r>
       <r>   -5.6233    1.0000 </r>
       <r>   -4.8011    1.0000 </r>
       <r>   -3.7721    1.0000 </r>
       <r>   -3.1597    1.0000 </r>
       <r>   -0.8975    0.0000 </r>
       <r>    2.0752    0.0000 </r>
       <r>    2.5832    0.0000 </r>
       <r>    3.1387    0.0000 </r>
       <r>    3.9614    0.0000 </r>
       <r>    4.7076    0.0000 </r>
       <r>    5.1812    0.0000 </r>
      </set>
      <set comment="kpoint 29">
       <r>  -23.8665    1.0000 </r>
       <r>  -23.8237    1.0000 </r>
       <r>  -23.8055    1.0000 </r>
       <r>  -23.7835    1.0000 </r>
       <r>  -23.7704    1.0000 </r>
       <r>  -14.7033    1.0000 </r>
       <r>  -14.2151    1.0000 </r>
       <r>   -9.5020    1.0000 </r>
       <r>   -6.6544    1.0000 </r>
       <r>   -5.6620    1.0000 </r>
       <r>   -5.0560    1.0000 </r>
       <r>   -3.7019    1.0000 </r>
       <r>   -3.2321    1.0000 </r>
       <r>   -1.0723    0.0000 </r>
       <r>    2.1998    0.0000 </r>
       <r>    2.5595    0.0000 </r>
       <r>    3.1069    0.0000 </r>
       <r>    3.8079    0.0000 </r>
       <r>    5.1709    0.0000 </r>
       <r>    5.6655    0.0000 </r>
      </set>
      <set comment="kpoint 30">
       <r>  -23.8681    1.0000 </r>
       <r>  -23.8240    1.0000 </r>
       <r>  -23.8061    1.0000 </r>
       <r>  -23.7809    1.0000 </r>
       <r>  -23.7704    1.0000 </r>
       <r>  -14.5527    1.0000 </r>
       <r>  -14.2309    1.0000 </r>
       <r>   -9.6302    1.0000 </r>
       <r>   -6.7535    1.0000 </r>
       <r>   -5.6891    1.0000 </r>
       <r>   -5.1837    1.0000 </r>
       <r>   -3.5853    1.0000 </r>
       <r>   -3.3454    1.0000 </r>
       <r>   -1.1720    0.0000 </r>
       <r>    2.3270    0.0000 </r>
       <r>    2.5252    0.0000 </r>
       <r>    3.0150    0.0000 </r>
       <r>    3.7030    0.0000 </r>
       <r>    5.7316    0.0000 </r>
       <r>    6.1091    0.0000 </r>
      </set>
      <set comment="kpoint 31">
       <r>  -23.8608    1.0000 </r>
       <r>  -23.8255    1.0000 </r>
       <r>  -23.8026    1.0000 </r>
       <r>  -23.7895    1.0000 </r>
       <r>  -23.7716    1.0000 </r>
       <r>  -14.9349    1.0000 </r>
       <r>  -14.2374    1.0000 </r>
       <r>   -9.2500    1.0000 </r>
       <r>   -6.3255    1.0000 </r>
       <r>   -5.7931    1.0000 </r>
       <r>   -4.7564    1.0000 </r>
       <r>   -3.8914    1.0000 </r>
       <r>   -3.1514    1.0000 </r>
       <r>   -0.7403    0.0000 </r>
       <r>    2.0040    0.0000 </r>
       <r>    2.7429    0.0000 </r>
       <r>    3.2236    0.0000 </r>
       <r>    4.3906    0.0000 </r>
       <r>    4.6113    0.0000 </r>
       <r>    4.9859    0.0000 </r>
      </set>
      <set comment="kpoint 32">
       <r>  -23.8612    1.0000 </r>
       <r>  -23.8283    1.0000 </r>
       <r>  -23.8020    1.0000 </r>
       <r>  -23.7877    1.0000 </r>
       <r>  -23.7705    1.0000 </r>
       <r>  -14.7182    1.0000 </r>
       <r>  -14.2013    1.0000 </r>
       <r>   -9.4634    1.0000 </r>
       <r>   -6.4835    1.0000 </r>
       <r>   -5.9183    1.0000 </r>
       <r>   -5.0916    1.0000 </r>
       <r>   -3.8602    1.0000 </r>
       <r>   -3.2044    1.0000 </r>
       <r>   -0.8482    0.0000 </r>
       <r>    2.0903    0.0000 </r>
       <r>    2.7688    0.0000 </r>
       <r>    3.3880    0.0000 </r>
       <r>    4.4268    0.0000 </r>
       <r>    5.0208    0.0000 </r>
       <r>    5.3492    0.0000 </r>
      </set>
      <set comment="kpoint 33">
       <r>  -23.8614    1.0000 </r>
       <r>  -23.8304    1.0000 </r>
       <r>  -23.8017    1.0000 </r>
       <r>  -23.7854    1.0000 </r>
       <r>  -23.7707    1.0000 </r>
       <r>  -14.5368    1.0000 </r>
       <r>  -14.2076    1.0000 </r>
       <r>   -9.6181    1.0000 </r>
       <r>   -6.5718    1.0000 </r>
       <r>   -5.9781    1.0000 </r>
       <r>   -5.3479    1.0000 </r>
       <r>   -3.7386    1.0000 </r>
       <r>   -3.3085    1.0000 </r>
       <r>   -0.9545    0.0000 </r>
       <r>    2.2605    0.0000 </r>
       <r>    2.6731    0.0000 </r>
       <r>    3.4151    0.0000 </r>
       <r>    4.3285    0.0000 </r>
       <r>    5.5630    0.0000 </r>
       <r>    5.8554    0.0000 </r>
      </set>
      <set comment="kpoint 34">
       <r>  -23.8614    1.0000 </r>
       <r>  -23.8312    1.0000 </r>
       <r>  -23.8017    1.0000 </r>
       <r>  -23.7842    1.0000 </r>
       <r>  -23.7711    1.0000 </r>
       <r>  -14.4525    1.0000 </r>
       <r>  -14.2290    1.0000 </r>
       <r>   -9.6750    1.0000 </r>
       <r>   -6.5975    1.0000 </r>
       <r>   -5.9945    1.0000 </r>
       <r>   -5.4451    1.0000 </r>
       <r>   -3.6456    1.0000 </r>
       <r>   -3.3913    1.0000 </r>
       <r>   -0.9972    0.0000 </r>
       <r>    2.4131    0.0000 </r>
       <r>    2.5501    0.0000 </r>
       <r>    3.4029    0.0000 </r>
       <r>    4.2901    0.0000 </r>
       <r>    6.0443    0.0000 </r>
       <r>    6.0555    0.0000 </r>
      </set>
      <set comment="kpoint 35">
       <r>  -23.8577    1.0000 </r>
       <r>  -23.8338    1.0000 </r>
       <r>  -23.7991    1.0000 </r>
       <r>  -23.7881    1.0000 </r>
       <r>  -23.7708    1.0000 </r>
       <r>  -14.5330    1.0000 </r>
       <r>  -14.1977    1.0000 </r>
       <r>   -9.6115    1.0000 </r>
       <r>   -6.4534    1.0000 </r>
       <r>   -6.1179    1.0000 </r>
       <r>   -5.4287    1.0000 </r>
       <r>   -3.7897    1.0000 </r>
       <r>   -3.2927    1.0000 </r>
       <r>   -0.8800    0.0000 </r>
       <r>    2.1997    0.0000 </r>
       <r>    2.7519    0.0000 </r>
       <r>    3.6305    0.0000 </r>
       <r>    4.9737    0.0000 </r>
       <r>    5.2148    0.0000 </r>
       <r>    5.5707    0.0000 </r>
      </set>
      <set comment="kpoint 36">
       <r>  -23.8544    1.0000 </r>
       <r>  -23.8382    1.0000 </r>
       <r>  -23.7971    1.0000 </r>
       <r>  -23.7882    1.0000 </r>
       <r>  -23.7716    1.0000 </r>
       <r>  -14.3954    1.0000 </r>
       <r>  -14.2305    1.0000 </r>
       <r>   -9.6958    1.0000 </r>
       <r>   -6.4064    1.0000 </r>
       <r>   -6.1875    1.0000 </r>
       <r>   -5.6853    1.0000 </r>
       <r>   -3.6585    1.0000 </r>
       <r>   -3.4101    1.0000 </r>
       <r>   -0.9237    0.0000 </r>
       <r>    2.3731    0.0000 </r>
       <r>    2.6289    0.0000 </r>
       <r>    3.7256    0.0000 </r>
       <r>    5.0010    0.0000 </r>
       <r>    5.8079    0.0000 </r>
       <r>    5.9276    0.0000 </r>
      </set>
      <set comment="kpoint 37">
       <r>  -23.8465    1.0000 </r>
       <r>  -23.8465    1.0000 </r>
       <r>  -23.7923    1.0000 </r>
       <r>  -23.7923    1.0000 </r>
       <r>  -23.7720    1.0000 </r>
       <r>  -14.2918    1.0000 </r>
       <r>  -14.2918    1.0000 </r>
       <r>   -9.7233    1.0000 </r>
       <r>   -6.2614    1.0000 </r>
       <r>   -6.2614    1.0000 </r>
       <r>   -5.8943    1.0000 </r>
       <r>   -3.5333    1.0000 </r>
       <r>   -3.5333    1.0000 </r>
       <r>   -0.9237    0.0000 </r>
       <r>    2.5150    0.0000 </r>
       <r>    2.5150    0.0000 </r>
       <r>    3.8328    0.0000 </r>
       <r>    5.3920    0.0000 </r>
       <r>    5.9878    0.0000 </r>
       <r>    6.0254    0.0000 </r>
      </set>
     </set>
    </set>
   </array>
  </eigenvalues>
  <separator name="orbital magnetization" >
   <v name="MAGDIPOLOUT">      0.00000000      0.00000000      0.00000000</v>
  </separator>
  <dos>
   <i name="efermi">     -2.39071823 </i>
   <total>
    <array>
     <dimension dim="1">gridpoints</dimension>
     <dimension dim="2">spin</dimension>
     <field>energy</field>
     <field>total</field>
     <field>integrated</field>
     <set>
      <set comment="spin 1">
       <r>   -25.3786     0.0000     0.0000 </r>
       <r>   -25.2686     0.0000     0.0000 </r>
       <r>   -25.1587     0.0000     0.0000 </r>
       <r>   -25.0487     0.0000     0.0000 </r>
       <r>   -24.9388     0.0000     0.0000 </r>
       <r>   -24.8288     0.0000     0.0000 </r>
       <r>   -24.7188     0.0000     0.0000 </r>
       <r>   -24.6089     0.0000     0.0000 </r>
       <r>   -24.4989     0.0000     0.0000 </r>
       <r>   -24.3890     0.0000     0.0000 </r>
       <r>   -24.2790     0.0000     0.0000 </r>
       <r>   -24.1691     0.0000     0.0000 </r>
       <r>   -24.0591     0.0000     0.0000 </r>
       <r>   -23.9491     0.1511     0.0166 </r>
       <r>   -23.8392    23.8267     2.6365 </r>
       <r>   -23.7292    63.8214     9.6541 </r>
       <r>   -23.6193     3.1453    10.0000 </r>
       <r>   -23.5093     0.0001    10.0000 </r>
       <r>   -23.3994     0.0000    10.0000 </r>
       <r>   -23.2894     0.0000    10.0000 </r>
       <r>   -23.1794     0.0000    10.0000 </r>
       <r>   -23.0695     0.0000    10.0000 </r>
       <r>   -22.9595     0.0000    10.0000 </r>
       <r>   -22.8496     0.0000    10.0000 </r>
       <r>   -22.7396     0.0000    10.0000 </r>
       <r>   -22.6297     0.0000    10.0000 </r>
       <r>   -22.5197     0.0000    10.0000 </r>
       <r>   -22.4097     0.0000    10.0000 </r>
       <r>   -22.2998     0.0000    10.0000 </r>
       <r>   -22.1898     0.0000    10.0000 </r>
       <r>   -22.0799     0.0000    10.0000 </r>
       <r>   -21.9699     0.0000    10.0000 </r>
       <r>   -21.8600     0.0000    10.0000 </r>
       <r>   -21.7500     0.0000    10.0000 </r>
       <r>   -21.6400     0.0000    10.0000 </r>
       <r>   -21.5301     0.0000    10.0000 </r>
       <r>   -21.4201     0.0000    10.0000 </r>
       <r>   -21.3102     0.0000    10.0000 </r>
       <r>   -21.2002     0.0000    10.0000 </r>
       <r>   -21.0903     0.0000    10.0000 </r>
       <r>   -20.9803     0.0000    10.0000 </r>
       <r>   -20.8703     0.0000    10.0000 </r>
       <r>   -20.7604     0.0000    10.0000 </r>
       <r>   -20.6504     0.0000    10.0000 </r>
       <r>   -20.5405     0.0000    10.0000 </r>
       <r>   -20.4305     0.0000    10.0000 </r>
       <r>   -20.3206     0.0000    10.0000 </r>
       <r>   -20.2106     0.0000    10.0000 </r>
       <r>   -20.1007     0.0000    10.0000 </r>
       <r>   -19.9907     0.0000    10.0000 </r>
       <r>   -19.8807     0.0000    10.0000 </r>
       <r>   -19.7708     0.0000    10.0000 </r>
       <r>   -19.6608     0.0000    10.0000 </r>
       <r>   -19.5509     0.0000    10.0000 </r>
       <r>   -19.4409     0.0000    10.0000 </r>
       <r>   -19.3310     0.0000    10.0000 </r>
       <r>   -19.2210     0.0000    10.0000 </r>
       <r>   -19.1110     0.0000    10.0000 </r>
       <r>   -19.0011     0.0000    10.0000 </r>
       <r>   -18.8911     0.0000    10.0000 </r>
       <r>   -18.7812     0.0000    10.0000 </r>
       <r>   -18.6712     0.0000    10.0000 </r>
       <r>   -18.5613     0.0000    10.0000 </r>
       <r>   -18.4513     0.0000    10.0000 </r>
       <r>   -18.3413     0.0000    10.0000 </r>
       <r>   -18.2314     0.0000    10.0000 </r>
       <r>   -18.1214     0.0000    10.0000 </r>
       <r>   -18.0115     0.0000    10.0000 </r>
       <r>   -17.9015     0.0000    10.0000 </r>
       <r>   -17.7916     0.0000    10.0000 </r>
       <r>   -17.6816     0.0000    10.0000 </r>
       <r>   -17.5716     0.0000    10.0000 </r>
       <r>   -17.4617     0.0000    10.0000 </r>
       <r>   -17.3517     0.0000    10.0000 </r>
       <r>   -17.2418     0.0000    10.0000 </r>
       <r>   -17.1318     0.0000    10.0000 </r>
       <r>   -17.0219     0.0000    10.0000 </r>
       <r>   -16.9119     0.0000    10.0000 </r>
       <r>   -16.8019     0.0000    10.0000 </r>
       <r>   -16.6920     0.0000    10.0000 </r>
       <r>   -16.5820     0.0000    10.0000 </r>
       <r>   -16.4721     0.0000    10.0000 </r>
       <r>   -16.3621     0.0000    10.0000 </r>
       <r>   -16.2522     0.0000    10.0000 </r>
       <r>   -16.1422     0.0104    10.0011 </r>
       <r>   -16.0322     0.4345    10.0489 </r>
       <r>   -15.9223     0.7673    10.1333 </r>
       <r>   -15.8123     0.8259    10.2241 </r>
       <r>   -15.7024     0.9412    10.3276 </r>
       <r>   -15.5924     0.6864    10.4031 </r>
       <r>   -15.4825     1.0634    10.5200 </r>
       <r>   -15.3725     0.8013    10.6081 </r>
       <r>   -15.2625     1.1241    10.7317 </r>
       <r>   -15.1526     0.8744    10.8279 </r>
       <r>   -15.0426     1.2707    10.9676 </r>
       <r>   -14.9327     0.9980    11.0773 </r>
       <r>   -14.8227     1.7242    11.2669 </r>
       <r>   -14.7128     2.4954    11.5413 </r>
       <r>   -14.6028     3.5897    11.9360 </r>
       <r>   -14.4928     3.3281    12.3019 </r>
       <r>   -14.3829     2.8131    12.6113 </r>
       <r>   -14.2729     4.6271    13.1200 </r>
       <r>   -14.1630     7.6436    13.9605 </r>
       <r>   -14.0530     0.3591    14.0000 </r>
       <r>   -13.9431     0.0000    14.0000 </r>
       <r>   -13.8331     0.0000    14.0000 </r>
       <r>   -13.7232     0.0000    14.0000 </r>
       <r>   -13.6132     0.0000    14.0000 </r>
       <r>   -13.5032     0.0000    14.0000 </r>
       <r>   -13.3933     0.0000    14.0000 </r>
       <r>   -13.2833     0.0000    14.0000 </r>
       <r>   -13.1734     0.0000    14.0000 </r>
       <r>   -13.0634     0.0000    14.0000 </r>
       <r>   -12.9535     0.0000    14.0000 </r>
       <r>   -12.8435     0.0000    14.0000 </r>
       <r>   -12.7335     0.0000    14.0000 </r>
       <r>   -12.6236     0.0000    14.0000 </r>
       <r>   -12.5136     0.0000    14.0000 </r>
       <r>   -12.4037     0.0000    14.0000 </r>
       <r>   -12.2937     0.0000    14.0000 </r>
       <r>   -12.1838     0.0000    14.0000 </r>
       <r>   -12.0738     0.0000    14.0000 </r>
       <r>   -11.9638     0.0000    14.0000 </r>
       <r>   -11.8539     0.0000    14.0000 </r>
       <r>   -11.7439     0.0000    14.0000 </r>
       <r>   -11.6340     0.0000    14.0000 </r>
       <r>   -11.5240     0.0000    14.0000 </r>
       <r>   -11.4141     0.0000    14.0000 </r>
       <r>   -11.3041     0.0000    14.0000 </r>
       <r>   -11.1941     0.0000    14.0000 </r>
       <r>   -11.0842     0.0000    14.0000 </r>
       <r>   -10.9742     0.0000    14.0000 </r>
       <r>   -10.8643     0.0000    14.0000 </r>
       <r>   -10.7543     0.0000    14.0000 </r>
       <r>   -10.6444     0.0000    14.0000 </r>
       <r>   -10.5344     0.0000    14.0000 </r>
       <r>   -10.4244     0.0000    14.0000 </r>
       <r>   -10.3145     0.0000    14.0000 </r>
       <r>   -10.2045     0.0000    14.0000 </r>
       <r>   -10.0946     0.0000    14.0000 </r>
       <r>    -9.9846     0.0000    14.0000 </r>
       <r>    -9.8747     0.0000    14.0000 </r>
       <r>    -9.7647     0.0328    14.0036 </r>
       <r>    -9.6547     1.3733    14.1546 </r>
       <r>    -9.5448     3.1977    14.5062 </r>
       <r>    -9.4348     2.0841    14.7354 </r>
       <r>    -9.3249     1.1711    14.8641 </r>
       <r>    -9.2149     1.3506    15.0127 </r>
       <r>    -9.1050     0.7449    15.0946 </r>
       <r>    -8.9950     1.2703    15.2342 </r>
       <r>    -8.8850     0.6973    15.3109 </r>
       <r>    -8.7751     1.0343    15.4247 </r>
       <r>    -8.6651     0.7011    15.5017 </r>
       <r>    -8.5552     1.1173    15.6246 </r>
       <r>    -8.4452     1.0665    15.7419 </r>
       <r>    -8.3353     1.5388    15.9111 </r>
       <r>    -8.2253     0.8036    15.9994 </r>
       <r>    -8.1153     0.0052    16.0000 </r>
       <r>    -8.0054     0.0000    16.0000 </r>
       <r>    -7.8954     0.0000    16.0000 </r>
       <r>    -7.7855     0.0000    16.0000 </r>
       <r>    -7.6755     0.0000    16.0000 </r>
       <r>    -7.5656     0.0000    16.0000 </r>
       <r>    -7.4556     0.0000    16.0000 </r>
       <r>    -7.3457     0.0000    16.0000 </r>
       <r>    -7.2357     0.0000    16.0000 </r>
       <r>    -7.1257     0.0000    16.0000 </r>
       <r>    -7.0158     0.0641    16.0070 </r>
       <r>    -6.9058     1.0580    16.1234 </r>
       <r>    -6.7959     1.5142    16.2899 </r>
       <r>    -6.6859     1.3867    16.4423 </r>
       <r>    -6.5760     1.9474    16.6565 </r>
       <r>    -6.4660     1.7717    16.8513 </r>
       <r>    -6.3560     2.1195    17.0843 </r>
       <r>    -6.2461     0.9705    17.1911 </r>
       <r>    -6.1361     1.6524    17.3727 </r>
       <r>    -6.0262     0.8669    17.4681 </r>
       <r>    -5.9162     1.9829    17.6861 </r>
       <r>    -5.8063     0.7911    17.7731 </r>
       <r>    -5.6963     1.6154    17.9507 </r>
       <r>    -5.5863     2.3563    18.2098 </r>
       <r>    -5.4764     0.8207    18.3000 </r>
       <r>    -5.3664     2.0183    18.5220 </r>
       <r>    -5.2565     2.6238    18.8105 </r>
       <r>    -5.1465     1.6845    18.9957 </r>
       <r>    -5.0366     3.2107    19.3487 </r>
       <r>    -4.9266     4.3567    19.8278 </r>
       <r>    -4.8166     2.7183    20.1267 </r>
       <r>    -4.7067     2.9728    20.4536 </r>
       <r>    -4.5967     1.2393    20.5898 </r>
       <r>    -4.4868     1.1696    20.7184 </r>
       <r>    -4.3768     2.2125    20.9617 </r>
       <r>    -4.2669     0.8578    21.0560 </r>
       <r>    -4.1569     0.7933    21.1433 </r>
       <r>    -4.0469     1.7657    21.3374 </r>
       <r>    -3.9370     0.6192    21.4055 </r>
       <r>    -3.8270     2.4464    21.6745 </r>
       <r>    -3.7171     4.5659    22.1766 </r>
       <r>    -3.6071     2.8400    22.4888 </r>
       <r>    -3.4972     4.0969    22.9393 </r>
       <r>    -3.3872     6.7316    23.6795 </r>
       <r>    -3.2772     4.1763    24.1387 </r>
       <r>    -3.1673     4.3830    24.6207 </r>
       <r>    -3.0573     5.2266    25.1954 </r>
       <r>    -2.9474     2.5606    25.4769 </r>
       <r>    -2.8374     2.3281    25.7329 </r>
       <r>    -2.7275     1.7242    25.9225 </r>
       <r>    -2.6175     0.6995    25.9994 </r>
       <r>    -2.5075     0.0054    26.0000 </r>
       <r>    -2.3976     0.0000    26.0000 </r>
       <r>    -2.2876     0.0000    26.0000 </r>
       <r>    -2.1777     0.0000    26.0000 </r>
       <r>    -2.0677     0.0000    26.0000 </r>
       <r>    -1.9578     0.0427    26.0047 </r>
       <r>    -1.8478     0.4076    26.0495 </r>
       <r>    -1.7378     0.7255    26.1293 </r>
       <r>    -1.6279     0.9212    26.2306 </r>
       <r>    -1.5179     0.1786    26.2502 </r>
       <r>    -1.4080     1.5574    26.4215 </r>
       <r>    -1.2980     0.5349    26.4803 </r>
       <r>    -1.1881     0.7996    26.5682 </r>
       <r>    -1.0781     1.5932    26.7434 </r>
       <r>    -0.9682     1.9492    26.9577 </r>
       <r>    -0.8582     2.5013    27.2328 </r>
       <r>    -0.7482     1.9470    27.4468 </r>
       <r>    -0.6383     1.7767    27.6422 </r>
       <r>    -0.5283     1.5061    27.8078 </r>
       <r>    -0.4184     1.6236    27.9863 </r>
       <r>    -0.3084     0.1242    28.0000 </r>
       <r>    -0.1985     0.0001    28.0000 </r>
       <r>    -0.0885     0.0000    28.0000 </r>
       <r>     0.0215     0.0000    28.0000 </r>
       <r>     0.1314     0.0000    28.0000 </r>
       <r>     0.2414     0.0000    28.0000 </r>
       <r>     0.3513     0.0120    28.0013 </r>
       <r>     0.4613     0.0436    28.0061 </r>
       <r>     0.5712     0.0593    28.0126 </r>
       <r>     0.6812     0.2731    28.0427 </r>
       <r>     0.7912     0.0050    28.0432 </r>
       <r>     0.9011     0.0449    28.0481 </r>
       <r>     1.0111     0.5300    28.1064 </r>
       <r>     1.1210     0.2351    28.1323 </r>
       <r>     1.2310     0.4988    28.1871 </r>
       <r>     1.3409     1.0940    28.3074 </r>
       <r>     1.4509     1.6512    28.4890 </r>
       <r>     1.5609     2.0902    28.7188 </r>
       <r>     1.6708     1.9693    28.9353 </r>
       <r>     1.7808     1.8991    29.1442 </r>
       <r>     1.8907     1.7611    29.3378 </r>
       <r>     2.0007     3.0203    29.6699 </r>
       <r>     2.1106     1.8854    29.8772 </r>
       <r>     2.2206     2.7741    30.1823 </r>
       <r>     2.3306     2.0287    30.4053 </r>
       <r>     2.4405     2.3186    30.6603 </r>
       <r>     2.5505     3.6250    31.0589 </r>
       <r>     2.6604     6.8831    31.8157 </r>
       <r>     2.7704     5.2170    32.3894 </r>
       <r>     2.8803     3.6009    32.7853 </r>
       <r>     2.9903     5.0760    33.3434 </r>
       <r>     3.1003     4.1538    33.8002 </r>
       <r>     3.2102     2.7967    34.1077 </r>
       <r>     3.3202     2.3087    34.3616 </r>
       <r>     3.4301     3.6425    34.7621 </r>
       <r>     3.5401     1.9000    34.9710 </r>
       <r>     3.6500     3.2513    35.3285 </r>
       <r>     3.7600     2.8285    35.6395 </r>
       <r>     3.8700     2.3884    35.9021 </r>
       <r>     3.9799     1.3097    36.0461 </r>
       <r>     4.0899     1.9493    36.2605 </r>
       <r>     4.1998     2.1063    36.4921 </r>
       <r>     4.3098     2.0819    36.7210 </r>
       <r>     4.4197     3.7112    37.1291 </r>
       <r>     4.5297     3.6885    37.5346 </r>
       <r>     4.6397     1.3426    37.6823 </r>
       <r>     4.7496     1.2828    37.8233 </r>
       <r>     4.8596     1.7842    38.0195 </r>
       <r>     4.9695     1.5216    38.1868 </r>
       <r>     5.0795     1.9686    38.4033 </r>
       <r>     5.1894     1.3751    38.5545 </r>
       <r>     5.2994     1.5745    38.7276 </r>
       <r>     5.4093     1.5560    38.8987 </r>
       <r>     5.5193     0.9795    39.0064 </r>
       <r>     5.6293     1.4920    39.1705 </r>
       <r>     5.7392     1.3213    39.3158 </r>
       <r>     5.8492     1.9650    39.5318 </r>
       <r>     5.9591     1.9853    39.7501 </r>
       <r>     6.0691     1.4706    39.9118 </r>
       <r>     6.1790     0.7858    39.9982 </r>
       <r>     6.2890     0.0162    40.0000 </r>
       <r>     6.3990     0.0000    40.0000 </r>
       <r>     6.5089     0.0000    40.0000 </r>
       <r>     6.6189     0.0000    40.0000 </r>
       <r>     6.7288     0.0000    40.0000 </r>
       <r>     6.8388     0.0000    40.0000 </r>
       <r>     6.9487     0.0000    40.0000 </r>
       <r>     7.0587     0.0000    40.0000 </r>
       <r>     7.1687     0.0000    40.0000 </r>
       <r>     7.2786     0.0000    40.0000 </r>
       <r>     7.3886     0.0000    40.0000 </r>
       <r>     7.4985     0.0000    40.0000 </r>
       <r>     7.6085     0.0000    40.0000 </r>
      </set>
     </set>
    </array>
   </total>
   <partial>
    <array>
     <dimension dim="1">gridpoints</dimension>
     <dimension dim="2">spin</dimension>
     <dimension dim="3">ion</dimension>
     <field>energy</field>
     <field>    s</field>
     <field>   py</field>
     <field>   pz</field>
     <field>   px</field>
     <field>  dxy</field>
     <field>  dyz</field>
     <field>  dz2</field>
     <field>  dxz</field>
     <field>x2-y2</field>
     <set>
      <set comment="ion 1">
       <set comment="spin 1">
        <r>   -25.3786     0.0000     0.0000     0.0000     0.0000     0.0000     0.0000     0.0000     0.0000     0.0000 </r>
        <r>   -25.2686     0.0000     0.0000     0.0000     0.0000     0.0000     0.0000     0.0000     0.0000     0.0000 </r>
        <r>   -25.1587     0.0000     0.0000     0.0000     0.0000     0.0000     0.0000     0.0000     0.0000     0.0000 </r>
        <r>   -25.0487     0.0000     0.0000     0.0000     0.0000     0.0000     0.0000     0.0000     0.0000     0.0000 </r>
        <r>   -24.9388     0.0000     0.0000     0.0000     0.0000     0.0000     0.0000     0.0000     0.0000     0.0000 </r>
        <r>   -24.8288     0.0000     0.0000     0.0000     0.0000     0.0000     0.0000     0.0000     0.0000     0.0000 </r>
        <r>   -24.7188     0.0000     0.0000     0.0000     0.0000     0.0000     0.0000     0.0000     0.0000     0.0000 </r>
        <r>   -24.6089     0.0000     0.0000     0.0000     0.0000     0.0000     0.0000     0.0000     0.0000     0.0000 </r>
        <r>   -24.4989     0.0000     0.0000     0.0000     0.0000     0.0000     0.0000     0.0000     0.0000     0.0000 </r>
        <r>   -24.3890     0.0000     0.0000     0.0000     0.0000     0.0000     0.0000     0.0000     0.0000     0.0000 </r>
        <r>   -24.2790     0.0000     0.0000     0.0000     0.0000     0.0000     0.0000     0.0000     0.0000     0.0000 </r>
        <r>   -24.1691     0.0000     0.0000     0.0000     0.0000     0.0000     0.0000     0.0000     0.0000     0.0000 </r>
        <r>   -24.0591     0.0000     0.0000     0.0000     0.0000     0.0000     0.0000     0.0000     0.0000     0.0000 </r>
        <r>   -23.9491     0.0000     0.0000     0.0000     0.0000     0.0493     0.0256     0.0018     0.0434     0.0283 </r>
        <r>   -23.8392     0.0002     0.0001     0.0000     0.0001     6.1928     5.1943     1.1484     5.8453     5.1054 </r>
        <r>   -23.7292     0.0003     0.0001     0.0000     0.0002    11.2951    12.3914    15.3869    11.7550    12.3415 </r>
        <r>   -23.6193     0.0000     0.0000     0.0000     0.0000     0.4446     0.3562     1.4846     0.3117     0.5208 </r>
        <r>   -23.5093     0.0000     0.0000     0.0000     0.0000     0.0000     0.0000     0.0001     0.0000     0.0000 </r>
        <r>   -23.3994     0.0000     0.0000     0.0000     0.0000     0.0000     0.0000     0.0000     0.0000     0.0000 </r>
        <r>   -23.2894     0.0000     0.0000     0.0000     0.0000     0.0000     0.0000     0.0000     0.0000     0.0000 </r>
        <r>   -23.1794     0.0000     0.0000     0.0000     0.0000     0.0000     0.0000     0.0000     0.0000     0.0000 </r>
        <r>   -23.0695     0.0000     0.0000     0.0000     0.0000     0.0000     0.0000     0.0000     0.0000     0.0000 </r>
        <r>   -22.9595     0.0000     0.0000     0.0000     0.0000     0.0000     0.0000     0.0000     0.0000     0.0000 </r>
        <r>   -22.8496     0.0000     0.0000     0.0000     0.0000     0.0000     0.0000     0.0000     0.0000     0.0000 </r>
        <r>   -22.7396     0.0000     0.0000     0.0000     0.0000     0.0000     0.0000     0.0000     0.0000     0.0000 </r>
        <r>   -22.6297     0.0000     0.0000     0.0000     0.0000     0.0000     0.0000     0.0000     0.0000     0.0000 </r>
        <r>   -22.5197     0.0000     0.0000     0.0000     0.0000     0.0000     0.0000     0.0000     0.0000     0.0000 </r>
        <r>   -22.4097     0.0000     0.0000     0.0000     0.0000     0.0000     0.0000     0.0000     0.0000     0.0000 </r>
        <r>   -22.2998     0.0000     0.0000     0.0000     0.0000     0.0000     0.0000     0.0000     0.0000     0.0000 </r>
        <r>   -22.1898     0.0000     0.0000     0.0000     0.0000     0.0000     0.0000     0.0000     0.0000     0.0000 </r>
        <r>   -22.0799     0.0000     0.0000     0.0000     0.0000     0.0000     0.0000     0.0000     0.0000     0.0000 </r>
        <r>   -21.9699     0.0000     0.0000     0.0000     0.0000     0.0000     0.0000     0.0000     0.0000     0.0000 </r>
        <r>   -21.8600     0.0000     0.0000     0.0000     0.0000     0.0000     0.0000     0.0000     0.0000     0.0000 </r>
        <r>   -21.7500     0.0000     0.0000     0.0000     0.0000     0.0000     0.0000     0.0000     0.0000     0.0000 </r>
        <r>   -21.6400     0.0000     0.0000     0.0000     0.0000     0.0000     0.0000     0.0000     0.0000     0.0000 </r>
        <r>   -21.5301     0.0000     0.0000     0.0000     0.0000     0.0000     0.0000     0.0000     0.0000     0.0000 </r>
        <r>   -21.4201     0.0000     0.0000     0.0000     0.0000     0.0000     0.0000     0.0000     0.0000     0.0000 </r>
        <r>   -21.3102     0.0000     0.0000     0.0000     0.0000     0.0000     0.0000     0.0000     0.0000     0.0000 </r>
        <r>   -21.2002     0.0000     0.0000     0.0000     0.0000     0.0000     0.0000     0.0000     0.0000     0.0000 </r>
        <r>   -21.0903     0.0000     0.0000     0.0000     0.0000     0.0000     0.0000     0.0000     0.0000     0.0000 </r>
        <r>   -20.9803     0.0000     0.0000     0.0000     0.0000     0.0000     0.0000     0.0000     0.0000     0.0000 </r>
        <r>   -20.8703     0.0000     0.0000     0.0000     0.0000     0.0000     0.0000     0.0000     0.0000     0.0000 </r>
        <r>   -20.7604     0.0000     0.0000     0.0000     0.0000     0.0000     0.0000     0.0000     0.0000     0.0000 </r>
        <r>   -20.6504     0.0000     0.0000     0.0000     0.0000     0.0000     0.0000     0.0000     0.0000     0.0000 </r>
        <r>   -20.5405     0.0000     0.0000     0.0000     0.0000     0.0000     0.0000     0.0000     0.0000     0.0000 </r>
        <r>   -20.4305     0.0000     0.0000     0.0000     0.0000     0.0000     0.0000     0.0000     0.0000     0.0000 </r>
        <r>   -20.3206     0.0000     0.0000     0.0000     0.0000     0.0000     0.0000     0.0000     0.0000     0.0000 </r>
        <r>   -20.2106     0.0000     0.0000     0.0000     0.0000     0.0000     0.0000     0.0000     0.0000     0.0000 </r>
        <r>   -20.1007     0.0000     0.0000     0.0000     0.0000     0.0000     0.0000     0.0000     0.0000     0.0000 </r>
        <r>   -19.9907     0.0000     0.0000     0.0000     0.0000     0.0000     0.0000     0.0000     0.0000     0.0000 </r>
        <r>   -19.8807     0.0000     0.0000     0.0000     0.0000     0.0000     0.0000     0.0000     0.0000     0.0000 </r>
        <r>   -19.7708     0.0000     0.0000     0.0000     0.0000     0.0000     0.0000     0.0000     0.0000     0.0000 </r>
        <r>   -19.6608     0.0000     0.0000     0.0000     0.0000     0.0000     0.0000     0.0000     0.0000     0.0000 </r>
        <r>   -19.5509     0.0000     0.0000     0.0000     0.0000     0.0000     0.0000     0.0000     0.0000     0.0000 </r>
        <r>   -19.4409     0.0000     0.0000     0.0000     0.0000     0.0000     0.0000     0.0000     0.0000     0.0000 </r>
        <r>   -19.3310     0.0000     0.0000     0.0000     0.0000     0.0000     0.0000     0.0000     0.0000     0.0000 </r>
        <r>   -19.2210     0.0000     0.0000     0.0000     0.0000     0.0000     0.0000     0.0000     0.0000     0.0000 </r>
        <r>   -19.1110     0.0000     0.0000     0.0000     0.0000     0.0000     0.0000     0.0000     0.0000     0.0000 </r>
        <r>   -19.0011     0.0000     0.0000     0.0000     0.0000     0.0000     0.0000     0.0000     0.0000     0.0000 </r>
        <r>   -18.8911     0.0000     0.0000     0.0000     0.0000     0.0000     0.0000     0.0000     0.0000     0.0000 </r>
        <r>   -18.7812     0.0000     0.0000     0.0000     0.0000     0.0000     0.0000     0.0000     0.0000     0.0000 </r>
        <r>   -18.6712     0.0000     0.0000     0.0000     0.0000     0.0000     0.0000     0.0000     0.0000     0.0000 </r>
        <r>   -18.5613     0.0000     0.0000     0.0000     0.0000     0.0000     0.0000     0.0000     0.0000     0.0000 </r>
        <r>   -18.4513     0.0000     0.0000     0.0000     0.0000     0.0000     0.0000     0.0000     0.0000     0.0000 </r>
        <r>   -18.3413     0.0000     0.0000     0.0000     0.0000     0.0000     0.0000     0.0000     0.0000     0.0000 </r>
        <r>   -18.2314     0.0000     0.0000     0.0000     0.0000     0.0000     0.0000     0.0000     0.0000     0.0000 </r>
        <r>   -18.1214     0.0000     0.0000     0.0000     0.0000     0.0000     0.0000     0.0000     0.0000     0.0000 </r>
        <r>   -18.0115     0.0000     0.0000     0.0000     0.0000     0.0000     0.0000     0.0000     0.0000     0.0000 </r>
        <r>   -17.9015     0.0000     0.0000     0.0000     0.0000     0.0000     0.0000     0.0000     0.0000     0.0000 </r>
        <r>   -17.7916     0.0000     0.0000     0.0000     0.0000     0.0000     0.0000     0.0000     0.0000     0.0000 </r>
        <r>   -17.6816     0.0000     0.0000     0.0000     0.0000     0.0000     0.0000     0.0000     0.0000     0.0000 </r>
        <r>   -17.5716     0.0000     0.0000     0.0000     0.0000     0.0000     0.0000     0.0000     0.0000     0.0000 </r>
        <r>   -17.4617     0.0000     0.0000     0.0000     0.0000     0.0000     0.0000     0.0000     0.0000     0.0000 </r>
        <r>   -17.3517     0.0000     0.0000     0.0000     0.0000     0.0000     0.0000     0.0000     0.0000     0.0000 </r>
        <r>   -17.2418     0.0000     0.0000     0.0000     0.0000     0.0000     0.0000     0.0000     0.0000     0.0000 </r>
        <r>   -17.1318     0.0000     0.0000     0.0000     0.0000     0.0000     0.0000     0.0000     0.0000     0.0000 </r>
        <r>   -17.0219     0.0000     0.0000     0.0000     0.0000     0.0000     0.0000     0.0000     0.0000     0.0000 </r>
        <r>   -16.9119     0.0000     0.0000     0.0000     0.0000     0.0000     0.0000     0.0000     0.0000     0.0000 </r>
        <r>   -16.8019     0.0000     0.0000     0.0000     0.0000     0.0000     0.0000     0.0000     0.0000     0.0000 </r>
        <r>   -16.6920     0.0000     0.0000     0.0000     0.0000     0.0000     0.0000     0.0000     0.0000     0.0000 </r>
        <r>   -16.5820     0.0000     0.0000     0.0000     0.0000     0.0000     0.0000     0.0000     0.0000     0.0000 </r>
        <r>   -16.4721     0.0000     0.0000     0.0000     0.0000     0.0000     0.0000     0.0000     0.0000     0.0000 </r>
        <r>   -16.3621     0.0000     0.0000     0.0000     0.0000     0.0000     0.0000     0.0000     0.0000     0.0000 </r>
        <r>   -16.2522     0.0000     0.0000     0.0000     0.0000     0.0000     0.0000     0.0000     0.0000     0.0000 </r>
        <r>   -16.1422     0.0014     0.0000     0.0000     0.0000     0.0000     0.0000     0.0000     0.0000     0.0000 </r>
        <r>   -16.0322     0.0591     0.0002     0.0000     0.0002     0.0000     0.0000     0.0001     0.0000     0.0000 </r>
        <r>   -15.9223     0.1007     0.0010     0.0000     0.0011     0.0000     0.0000     0.0001     0.0000     0.0000 </r>
        <r>   -15.8123     0.1028     0.0020     0.0000     0.0024     0.0000     0.0000     0.0001     0.0000     0.0000 </r>
        <r>   -15.7024     0.1090     0.0042     0.0000     0.0036     0.0001     0.0000     0.0001     0.0001     0.0000 </r>
        <r>   -15.5924     0.0743     0.0033     0.0000     0.0040     0.0001     0.0000     0.0001     0.0001     0.0000 </r>
        <r>   -15.4825     0.1078     0.0068     0.0000     0.0067     0.0003     0.0000     0.0001     0.0003     0.0000 </r>
        <r>   -15.3725     0.0724     0.0061     0.0000     0.0065     0.0003     0.0001     0.0000     0.0003     0.0001 </r>
        <r>   -15.2625     0.0947     0.0096     0.0001     0.0098     0.0006     0.0000     0.0000     0.0005     0.0000 </r>
        <r>   -15.1526     0.0627     0.0084     0.0001     0.0092     0.0006     0.0001     0.0000     0.0006     0.0001 </r>
        <r>   -15.0426     0.0828     0.0135     0.0003     0.0140     0.0010     0.0001     0.0000     0.0010     0.0001 </r>
        <r>   -14.9327     0.0516     0.0113     0.0004     0.0129     0.0009     0.0002     0.0000     0.0010     0.0001 </r>
        <r>   -14.8227     0.0691     0.0194     0.0051     0.0216     0.0017     0.0002     0.0000     0.0019     0.0002 </r>
        <r>   -14.7128     0.0396     0.0183     0.0322     0.0243     0.0019     0.0010     0.0000     0.0026     0.0005 </r>
        <r>   -14.6028     0.0342     0.0271     0.0392     0.0440     0.0029     0.0026     0.0000     0.0045     0.0013 </r>
        <r>   -14.4928     0.0146     0.0240     0.0373     0.0302     0.0042     0.0056     0.0000     0.0071     0.0030 </r>
        <r>   -14.3829     0.0041     0.0105     0.0362     0.0154     0.0047     0.0087     0.0000     0.0090     0.0045 </r>
        <r>   -14.2729     0.0318     0.0075     0.0398     0.0160     0.0136     0.0188     0.0000     0.0247     0.0100 </r>
        <r>   -14.1630     0.0755     0.0149     0.0282     0.0370     0.0256     0.0368     0.0000     0.0438     0.0209 </r>
        <r>   -14.0530     0.0017     0.0009     0.0010     0.0024     0.0009     0.0021     0.0000     0.0016     0.0012 </r>
        <r>   -13.9431     0.0000     0.0000     0.0000     0.0000     0.0000     0.0000     0.0000     0.0000     0.0000 </r>
        <r>   -13.8331     0.0000     0.0000     0.0000     0.0000     0.0000     0.0000     0.0000     0.0000     0.0000 </r>
        <r>   -13.7232     0.0000     0.0000     0.0000     0.0000     0.0000     0.0000     0.0000     0.0000     0.0000 </r>
        <r>   -13.6132     0.0000     0.0000     0.0000     0.0000     0.0000     0.0000     0.0000     0.0000     0.0000 </r>
        <r>   -13.5032     0.0000     0.0000     0.0000     0.0000     0.0000     0.0000     0.0000     0.0000     0.0000 </r>
        <r>   -13.3933     0.0000     0.0000     0.0000     0.0000     0.0000     0.0000     0.0000     0.0000     0.0000 </r>
        <r>   -13.2833     0.0000     0.0000     0.0000     0.0000     0.0000     0.0000     0.0000     0.0000     0.0000 </r>
        <r>   -13.1734     0.0000     0.0000     0.0000     0.0000     0.0000     0.0000     0.0000     0.0000     0.0000 </r>
        <r>   -13.0634     0.0000     0.0000     0.0000     0.0000     0.0000     0.0000     0.0000     0.0000     0.0000 </r>
        <r>   -12.9535     0.0000     0.0000     0.0000     0.0000     0.0000     0.0000     0.0000     0.0000     0.0000 </r>
        <r>   -12.8435     0.0000     0.0000     0.0000     0.0000     0.0000     0.0000     0.0000     0.0000     0.0000 </r>
        <r>   -12.7335     0.0000     0.0000     0.0000     0.0000     0.0000     0.0000     0.0000     0.0000     0.0000 </r>
        <r>   -12.6236     0.0000     0.0000     0.0000     0.0000     0.0000     0.0000     0.0000     0.0000     0.0000 </r>
        <r>   -12.5136     0.0000     0.0000     0.0000     0.0000     0.0000     0.0000     0.0000     0.0000     0.0000 </r>
        <r>   -12.4037     0.0000     0.0000     0.0000     0.0000     0.0000     0.0000     0.0000     0.0000     0.0000 </r>
        <r>   -12.2937     0.0000     0.0000     0.0000     0.0000     0.0000     0.0000     0.0000     0.0000     0.0000 </r>
        <r>   -12.1838     0.0000     0.0000     0.0000     0.0000     0.0000     0.0000     0.0000     0.0000     0.0000 </r>
        <r>   -12.0738     0.0000     0.0000     0.0000     0.0000     0.0000     0.0000     0.0000     0.0000     0.0000 </r>
        <r>   -11.9638     0.0000     0.0000     0.0000     0.0000     0.0000     0.0000     0.0000     0.0000     0.0000 </r>
        <r>   -11.8539     0.0000     0.0000     0.0000     0.0000     0.0000     0.0000     0.0000     0.0000     0.0000 </r>
        <r>   -11.7439     0.0000     0.0000     0.0000     0.0000     0.0000     0.0000     0.0000     0.0000     0.0000 </r>
        <r>   -11.6340     0.0000     0.0000     0.0000     0.0000     0.0000     0.0000     0.0000     0.0000     0.0000 </r>
        <r>   -11.5240     0.0000     0.0000     0.0000     0.0000     0.0000     0.0000     0.0000     0.0000     0.0000 </r>
        <r>   -11.4141     0.0000     0.0000     0.0000     0.0000     0.0000     0.0000     0.0000     0.0000     0.0000 </r>
        <r>   -11.3041     0.0000     0.0000     0.0000     0.0000     0.0000     0.0000     0.0000     0.0000     0.0000 </r>
        <r>   -11.1941     0.0000     0.0000     0.0000     0.0000     0.0000     0.0000     0.0000     0.0000     0.0000 </r>
        <r>   -11.0842     0.0000     0.0000     0.0000     0.0000     0.0000     0.0000     0.0000     0.0000     0.0000 </r>
        <r>   -10.9742     0.0000     0.0000     0.0000     0.0000     0.0000     0.0000     0.0000     0.0000     0.0000 </r>
        <r>   -10.8643     0.0000     0.0000     0.0000     0.0000     0.0000     0.0000     0.0000     0.0000     0.0000 </r>
        <r>   -10.7543     0.0000     0.0000     0.0000     0.0000     0.0000     0.0000     0.0000     0.0000     0.0000 </r>
        <r>   -10.6444     0.0000     0.0000     0.0000     0.0000     0.0000     0.0000     0.0000     0.0000     0.0000 </r>
        <r>   -10.5344     0.0000     0.0000     0.0000     0.0000     0.0000     0.0000     0.0000     0.0000     0.0000 </r>
        <r>   -10.4244     0.0000     0.0000     0.0000     0.0000     0.0000     0.0000     0.0000     0.0000     0.0000 </r>
        <r>   -10.3145     0.0000     0.0000     0.0000     0.0000     0.0000     0.0000     0.0000     0.0000     0.0000 </r>
        <r>   -10.2045     0.0000     0.0000     0.0000     0.0000     0.0000     0.0000     0.0000     0.0000     0.0000 </r>
        <r>   -10.0946     0.0000     0.0000     0.0000     0.0000     0.0000     0.0000     0.0000     0.0000     0.0000 </r>
        <r>    -9.9846     0.0000     0.0000     0.0000     0.0000     0.0000     0.0000     0.0000     0.0000     0.0000 </r>
        <r>    -9.8747     0.0000     0.0000     0.0000     0.0000     0.0000     0.0000     0.0000     0.0000     0.0000 </r>
        <r>    -9.7647     0.0176     0.0000     0.0000     0.0000     0.0000     0.0000     0.0000     0.0000     0.0000 </r>
        <r>    -9.6547     0.7164     0.0001     0.0000     0.0000     0.0002     0.0003     0.0007     0.0011     0.0000 </r>
        <r>    -9.5448     1.5867     0.0004     0.0000     0.0005     0.0009     0.0014     0.0011     0.0058     0.0003 </r>
        <r>    -9.4348     1.0121     0.0007     0.0000     0.0011     0.0007     0.0006     0.0005     0.0038     0.0002 </r>
        <r>    -9.3249     0.5533     0.0005     0.0000     0.0011     0.0005     0.0003     0.0002     0.0022     0.0001 </r>
        <r>    -9.2149     0.6355     0.0009     0.0000     0.0012     0.0004     0.0003     0.0001     0.0020     0.0001 </r>
        <r>    -9.1050     0.3399     0.0004     0.0000     0.0009     0.0003     0.0002     0.0000     0.0012     0.0001 </r>
        <r>    -8.9950     0.5744     0.0009     0.0000     0.0012     0.0005     0.0002     0.0000     0.0016     0.0001 </r>
        <r>    -8.8850     0.3074     0.0004     0.0000     0.0007     0.0003     0.0001     0.0000     0.0008     0.0000 </r>
        <r>    -8.7751     0.4476     0.0005     0.0000     0.0006     0.0003     0.0001     0.0001     0.0009     0.0000 </r>
        <r>    -8.6651     0.2966     0.0002     0.0000     0.0004     0.0002     0.0001     0.0002     0.0005     0.0000 </r>
        <r>    -8.5552     0.4578     0.0002     0.0000     0.0003     0.0002     0.0000     0.0008     0.0005     0.0000 </r>
        <r>    -8.4452     0.4161     0.0001     0.0000     0.0001     0.0001     0.0000     0.0016     0.0003     0.0000 </r>
        <r>    -8.3353     0.5619     0.0000     0.0000     0.0000     0.0001     0.0000     0.0043     0.0001     0.0000 </r>
        <r>    -8.2253     0.2782     0.0000     0.0000     0.0000     0.0000     0.0000     0.0032     0.0000     0.0000 </r>
        <r>    -8.1153     0.0018     0.0000     0.0000     0.0000     0.0000     0.0000     0.0000     0.0000     0.0000 </r>
        <r>    -8.0054     0.0000     0.0000     0.0000     0.0000     0.0000     0.0000     0.0000     0.0000     0.0000 </r>
        <r>    -7.8954     0.0000     0.0000     0.0000     0.0000     0.0000     0.0000     0.0000     0.0000     0.0000 </r>
        <r>    -7.7855     0.0000     0.0000     0.0000     0.0000     0.0000     0.0000     0.0000     0.0000     0.0000 </r>
        <r>    -7.6755     0.0000     0.0000     0.0000     0.0000     0.0000     0.0000     0.0000     0.0000     0.0000 </r>
        <r>    -7.5656     0.0000     0.0000     0.0000     0.0000     0.0000     0.0000     0.0000     0.0000     0.0000 </r>
        <r>    -7.4556     0.0000     0.0000     0.0000     0.0000     0.0000     0.0000     0.0000     0.0000     0.0000 </r>
        <r>    -7.3457     0.0000     0.0000     0.0000     0.0000     0.0000     0.0000     0.0000     0.0000     0.0000 </r>
        <r>    -7.2357     0.0000     0.0000     0.0000     0.0000     0.0000     0.0000     0.0000     0.0000     0.0000 </r>
        <r>    -7.1257     0.0000     0.0000     0.0000     0.0000     0.0000     0.0000     0.0000     0.0000     0.0000 </r>
        <r>    -7.0158     0.0000     0.0014     0.0053     0.0042     0.0000     0.0000     0.0000     0.0000     0.0000 </r>
        <r>    -6.9058     0.0000     0.0223     0.0861     0.0712     0.0001     0.0001     0.0001     0.0001     0.0002 </r>
        <r>    -6.7959     0.0001     0.0273     0.1173     0.1096     0.0006     0.0004     0.0002     0.0005     0.0009 </r>
        <r>    -6.6859     0.0000     0.0230     0.1020     0.1054     0.0009     0.0008     0.0003     0.0006     0.0012 </r>
        <r>    -6.5760     0.0000     0.0216     0.1336     0.1635     0.0017     0.0017     0.0006     0.0009     0.0033 </r>
        <r>    -6.4660     0.0000     0.0158     0.1172     0.1527     0.0023     0.0018     0.0006     0.0006     0.0048 </r>
        <r>    -6.3560     0.0000     0.0185     0.1248     0.1928     0.0033     0.0033     0.0010     0.0006     0.0064 </r>
        <r>    -6.2461     0.0001     0.0260     0.0489     0.0756     0.0022     0.0008     0.0006     0.0010     0.0035 </r>
        <r>    -6.1361     0.0015     0.1141     0.0484     0.0878     0.0049     0.0005     0.0015     0.0051     0.0037 </r>
        <r>    -6.0262     0.0014     0.0520     0.0283     0.0520     0.0021     0.0004     0.0006     0.0021     0.0029 </r>
        <r>    -5.9162     0.0068     0.1822     0.0404     0.0812     0.0060     0.0006     0.0027     0.0056     0.0036 </r>
        <r>    -5.8063     0.0024     0.0690     0.0270     0.0305     0.0013     0.0002     0.0014     0.0015     0.0013 </r>
        <r>    -5.6963     0.0061     0.0989     0.0681     0.0832     0.0045     0.0011     0.0027     0.0018     0.0049 </r>
        <r>    -5.5863     0.0115     0.2527     0.0760     0.0493     0.0038     0.0015     0.0038     0.0034     0.0040 </r>
        <r>    -5.4764     0.0043     0.0947     0.0171     0.0186     0.0007     0.0004     0.0033     0.0004     0.0011 </r>
        <r>    -5.3664     0.0085     0.0749     0.1140     0.1213     0.0051     0.0026     0.0050     0.0010     0.0044 </r>
        <r>    -5.2565     0.0122     0.2817     0.0829     0.0560     0.0032     0.0022     0.0042     0.0015     0.0047 </r>
        <r>    -5.1465     0.0072     0.1164     0.0808     0.0568     0.0018     0.0018     0.0048     0.0003     0.0038 </r>
        <r>    -5.0366     0.0100     0.1451     0.1951     0.1332     0.0034     0.0048     0.0060     0.0019     0.0054 </r>
        <r>    -4.9266     0.0079     0.2334     0.2303     0.1581     0.0012     0.0030     0.0074     0.0032     0.0047 </r>
        <r>    -4.8166     0.0104     0.1311     0.1128     0.1503     0.0018     0.0022     0.0043     0.0041     0.0032 </r>
        <r>    -4.7067     0.0122     0.1653     0.1317     0.1203     0.0039     0.0040     0.0061     0.0047     0.0095 </r>
        <r>    -4.5967     0.0027     0.0650     0.0531     0.0546     0.0006     0.0011     0.0014     0.0034     0.0028 </r>
        <r>    -4.4868     0.0062     0.0738     0.0377     0.0546     0.0018     0.0009     0.0017     0.0022     0.0033 </r>
        <r>    -4.3768     0.0141     0.1139     0.0911     0.0872     0.0040     0.0025     0.0047     0.0047     0.0080 </r>
        <r>    -4.2669     0.0014     0.0450     0.0409     0.0262     0.0012     0.0008     0.0010     0.0028     0.0022 </r>
        <r>    -4.1569     0.0016     0.0325     0.0407     0.0310     0.0008     0.0006     0.0005     0.0025     0.0021 </r>
        <r>    -4.0469     0.0086     0.1074     0.0537     0.0653     0.0037     0.0021     0.0022     0.0023     0.0112 </r>
        <r>    -3.9370     0.0017     0.0174     0.0396     0.0119     0.0009     0.0008     0.0006     0.0021     0.0021 </r>
        <r>    -3.8270     0.0150     0.0550     0.0889     0.0317     0.0052     0.0067     0.0037     0.0184     0.0036 </r>
        <r>    -3.7171     0.0167     0.0474     0.1467     0.0254     0.0104     0.0172     0.0042     0.0380     0.0054 </r>
        <r>    -3.6071     0.0079     0.0128     0.0374     0.0233     0.0100     0.0214     0.0022     0.0296     0.0076 </r>
        <r>    -3.4972     0.0127     0.0356     0.0516     0.0246     0.0243     0.0173     0.0053     0.0510     0.0054 </r>
        <r>    -3.3872     0.0221     0.0354     0.0714     0.0348     0.0542     0.0187     0.0144     0.0814     0.0121 </r>
        <r>    -3.2772     0.0148     0.0228     0.0182     0.0160     0.0264     0.0386     0.0073     0.0390     0.0151 </r>
        <r>    -3.1673     0.0031     0.0357     0.0055     0.0370     0.0129     0.0708     0.0018     0.0163     0.0221 </r>
        <r>    -3.0573     0.0017     0.0105     0.0050     0.0277     0.0082     0.1120     0.0007     0.0173     0.0277 </r>
        <r>    -2.9474     0.0018     0.0041     0.0064     0.0146     0.0045     0.0602     0.0001     0.0141     0.0123 </r>
        <r>    -2.8374     0.0015     0.0014     0.0042     0.0132     0.0099     0.0434     0.0003     0.0144     0.0143 </r>
        <r>    -2.7275     0.0007     0.0026     0.0006     0.0058     0.0120     0.0244     0.0003     0.0117     0.0161 </r>
        <r>    -2.6175     0.0000     0.0029     0.0000     0.0010     0.0031     0.0101     0.0000     0.0034     0.0089 </r>
        <r>    -2.5075     0.0000     0.0000     0.0000     0.0000     0.0000     0.0001     0.0000     0.0000     0.0001 </r>
        <r>    -2.3976     0.0000     0.0000     0.0000     0.0000     0.0000     0.0000     0.0000     0.0000     0.0000 </r>
        <r>    -2.2876     0.0000     0.0000     0.0000     0.0000     0.0000     0.0000     0.0000     0.0000     0.0000 </r>
        <r>    -2.1777     0.0000     0.0000     0.0000     0.0000     0.0000     0.0000     0.0000     0.0000     0.0000 </r>
        <r>    -2.0677     0.0000     0.0000     0.0000     0.0000     0.0000     0.0000     0.0000     0.0000     0.0000 </r>
        <r>    -1.9578     0.0104     0.0000     0.0000     0.0000     0.0005     0.0000     0.0000     0.0001     0.0002 </r>
        <r>    -1.8478     0.0987     0.0003     0.0000     0.0009     0.0049     0.0002     0.0000     0.0006     0.0016 </r>
        <r>    -1.7378     0.1723     0.0011     0.0000     0.0031     0.0084     0.0004     0.0001     0.0007     0.0024 </r>
        <r>    -1.6279     0.2177     0.0012     0.0002     0.0104     0.0096     0.0007     0.0001     0.0011     0.0022 </r>
        <r>    -1.5179     0.0415     0.0004     0.0000     0.0016     0.0017     0.0001     0.0001     0.0001     0.0004 </r>
        <r>    -1.4080     0.3581     0.0045     0.0007     0.0221     0.0136     0.0011     0.0005     0.0013     0.0026 </r>
        <r>    -1.2980     0.1226     0.0012     0.0002     0.0086     0.0046     0.0004     0.0002     0.0004     0.0007 </r>
        <r>    -1.1881     0.1821     0.0007     0.0001     0.0106     0.0061     0.0005     0.0009     0.0002     0.0005 </r>
        <r>    -1.0781     0.3617     0.0046     0.0013     0.0270     0.0098     0.0011     0.0021     0.0012     0.0010 </r>
        <r>    -0.9682     0.4443     0.0028     0.0007     0.0230     0.0095     0.0009     0.0050     0.0007     0.0006 </r>
        <r>    -0.8582     0.5772     0.0009     0.0001     0.0099     0.0072     0.0003     0.0102     0.0003     0.0003 </r>
        <r>    -0.7482     0.4429     0.0069     0.0016     0.0303     0.0090     0.0011     0.0027     0.0014     0.0005 </r>
        <r>    -0.6383     0.4034     0.0065     0.0009     0.0189     0.0069     0.0006     0.0039     0.0010     0.0009 </r>
        <r>    -0.5283     0.3460     0.0088     0.0008     0.0135     0.0049     0.0003     0.0036     0.0012     0.0007 </r>
        <r>    -0.4184     0.3743     0.0080     0.0007     0.0123     0.0041     0.0003     0.0047     0.0016     0.0005 </r>
        <r>    -0.3084     0.0290     0.0010     0.0000     0.0004     0.0003     0.0000     0.0003     0.0001     0.0001 </r>
        <r>    -0.1985     0.0000     0.0000     0.0000     0.0000     0.0000     0.0000     0.0000     0.0000     0.0000 </r>
        <r>    -0.0885     0.0000     0.0000     0.0000     0.0000     0.0000     0.0000     0.0000     0.0000     0.0000 </r>
        <r>     0.0215     0.0000     0.0000     0.0000     0.0000     0.0000     0.0000     0.0000     0.0000     0.0000 </r>
        <r>     0.1314     0.0000     0.0000     0.0000     0.0000     0.0000     0.0000     0.0000     0.0000     0.0000 </r>
        <r>     0.2414     0.0000     0.0000     0.0000     0.0000     0.0000     0.0000     0.0000     0.0000     0.0000 </r>
        <r>     0.3513     0.0000     0.0000     0.0036     0.0000     0.0000     0.0000     0.0000     0.0000     0.0000 </r>
        <r>     0.4613     0.0000     0.0000     0.0129     0.0000     0.0000     0.0000     0.0000     0.0000     0.0000 </r>
        <r>     0.5712     0.0000     0.0000     0.0167     0.0001     0.0000     0.0000     0.0000     0.0000     0.0000 </r>
        <r>     0.6812     0.0000     0.0002     0.0771     0.0007     0.0002     0.0001     0.0000     0.0002     0.0001 </r>
        <r>     0.7912     0.0000     0.0000     0.0014     0.0000     0.0000     0.0000     0.0000     0.0000     0.0000 </r>
        <r>     0.9011     0.0000     0.0003     0.0116     0.0008     0.0000     0.0001     0.0000     0.0000     0.0000 </r>
        <r>     1.0111     0.0000     0.0066     0.1274     0.0197     0.0002     0.0005     0.0000     0.0004     0.0003 </r>
        <r>     1.1210     0.0004     0.0081     0.0375     0.0243     0.0000     0.0000     0.0000     0.0001     0.0000 </r>
        <r>     1.2310     0.0009     0.0132     0.0695     0.0667     0.0000     0.0003     0.0000     0.0001     0.0001 </r>
        <r>     1.3409     0.0056     0.0251     0.1330     0.1447     0.0001     0.0007     0.0000     0.0003     0.0002 </r>
        <r>     1.4509     0.0112     0.0385     0.1856     0.1581     0.0005     0.0006     0.0000     0.0015     0.0003 </r>
        <r>     1.5609     0.0145     0.0407     0.2276     0.1904     0.0006     0.0003     0.0000     0.0029     0.0007 </r>
        <r>     1.6708     0.0104     0.0955     0.2039     0.1868     0.0007     0.0005     0.0001     0.0030     0.0008 </r>
        <r>     1.7808     0.0056     0.2110     0.0966     0.2736     0.0014     0.0011     0.0004     0.0015     0.0004 </r>
        <r>     1.8907     0.0096     0.1147     0.0828     0.2876     0.0009     0.0005     0.0003     0.0018     0.0007 </r>
        <r>     2.0007     0.0082     0.1760     0.1538     0.4449     0.0006     0.0006     0.0000     0.0023     0.0017 </r>
        <r>     2.1106     0.0034     0.1249     0.0125     0.4045     0.0005     0.0004     0.0001     0.0004     0.0009 </r>
        <r>     2.2206     0.0030     0.3927     0.0797     0.3495     0.0009     0.0010     0.0004     0.0032     0.0010 </r>
        <r>     2.3306     0.0027     0.1963     0.0478     0.2612     0.0004     0.0013     0.0003     0.0022     0.0004 </r>
        <r>     2.4405     0.0013     0.3311     0.0372     0.3299     0.0003     0.0016     0.0002     0.0019     0.0008 </r>
        <r>     2.5505     0.0034     0.6528     0.1519     0.1973     0.0027     0.0017     0.0007     0.0030     0.0008 </r>
        <r>     2.6604     0.0044     0.7758     0.5458     0.4342     0.0198     0.0046     0.0076     0.0067     0.0065 </r>
        <r>     2.7704     0.0028     0.4767     0.4706     0.3523     0.0149     0.0024     0.0043     0.0031     0.0055 </r>
        <r>     2.8803     0.0016     0.3990     0.4308     0.1292     0.0086     0.0017     0.0035     0.0027     0.0053 </r>
        <r>     2.9903     0.0049     0.9124     0.3615     0.1693     0.0191     0.0041     0.0184     0.0086     0.0075 </r>
        <r>     3.1003     0.0031     0.2933     0.4214     0.0701     0.0252     0.0075     0.0285     0.0187     0.0093 </r>
        <r>     3.2102     0.0031     0.0770     0.2742     0.0128     0.0141     0.0032     0.0136     0.0070     0.0063 </r>
        <r>     3.3202     0.0031     0.0253     0.1091     0.0197     0.0305     0.0066     0.0349     0.0223     0.0121 </r>
        <r>     3.4301     0.0032     0.0330     0.4501     0.0394     0.0326     0.0070     0.0339     0.0216     0.0158 </r>
        <r>     3.5401     0.0031     0.0214     0.1670     0.0295     0.0220     0.0046     0.0238     0.0141     0.0095 </r>
        <r>     3.6500     0.0058     0.0384     0.1748     0.0703     0.0434     0.0086     0.0440     0.0260     0.0217 </r>
        <r>     3.7600     0.0035     0.0140     0.2903     0.0508     0.0501     0.0097     0.0477     0.0265     0.0221 </r>
        <r>     3.8700     0.0024     0.0185     0.1162     0.0578     0.0379     0.0078     0.0323     0.0192     0.0209 </r>
        <r>     3.9799     0.0015     0.0116     0.0273     0.0390     0.0195     0.0047     0.0144     0.0090     0.0142 </r>
        <r>     4.0899     0.0058     0.0168     0.0288     0.0500     0.0232     0.0073     0.0174     0.0124     0.0182 </r>
        <r>     4.1998     0.0058     0.0286     0.0077     0.0134     0.0029     0.0029     0.0086     0.0081     0.0017 </r>
        <r>     4.3098     0.0069     0.0122     0.0068     0.0111     0.0271     0.0103     0.0326     0.0260     0.0097 </r>
        <r>     4.4197     0.0057     0.0413     0.0093     0.0308     0.0453     0.0154     0.0423     0.0285     0.0293 </r>
        <r>     4.5297     0.0030     0.0159     0.0168     0.0329     0.0392     0.0243     0.0310     0.0335     0.0260 </r>
        <r>     4.6397     0.0006     0.0010     0.0078     0.0063     0.0070     0.0152     0.0056     0.0076     0.0149 </r>
        <r>     4.7496     0.0010     0.0085     0.0045     0.0083     0.0021     0.0017     0.0025     0.0029     0.0023 </r>
        <r>     4.8596     0.0006     0.0035     0.0055     0.0281     0.0062     0.0033     0.0092     0.0058     0.0008 </r>
        <r>     4.9695     0.0033     0.0053     0.0052     0.0163     0.0087     0.0014     0.0181     0.0028     0.0031 </r>
        <r>     5.0795     0.0085     0.0168     0.0028     0.0209     0.0213     0.0040     0.0407     0.0047     0.0140 </r>
        <r>     5.1894     0.0020     0.0043     0.0043     0.0243     0.0044     0.0017     0.0040     0.0017     0.0063 </r>
        <r>     5.2994     0.0014     0.0058     0.0044     0.0363     0.0070     0.0030     0.0044     0.0019     0.0156 </r>
        <r>     5.4093     0.0026     0.0009     0.0037     0.0336     0.0041     0.0007     0.0187     0.0014     0.0133 </r>
        <r>     5.5193     0.0032     0.0004     0.0033     0.0133     0.0015     0.0007     0.0036     0.0009     0.0012 </r>
        <r>     5.6293     0.0034     0.0023     0.0032     0.0123     0.0079     0.0019     0.0028     0.0024     0.0039 </r>
        <r>     5.7392     0.0039     0.0013     0.0029     0.0252     0.0025     0.0016     0.0026     0.0007     0.0017 </r>
        <r>     5.8492     0.0050     0.0030     0.0041     0.0442     0.0070     0.0020     0.0053     0.0010     0.0233 </r>
        <r>     5.9591     0.0052     0.0026     0.0049     0.0280     0.0113     0.0036     0.0044     0.0024     0.0120 </r>
        <r>     6.0691     0.0078     0.0041     0.0016     0.0141     0.0101     0.0021     0.0015     0.0009     0.0053 </r>
        <r>     6.1790     0.0025     0.0013     0.0002     0.0178     0.0028     0.0021     0.0005     0.0002     0.0011 </r>
        <r>     6.2890     0.0000     0.0000     0.0000     0.0005     0.0000     0.0000     0.0000     0.0000     0.0000 </r>
        <r>     6.3990     0.0000     0.0000     0.0000     0.0000     0.0000     0.0000     0.0000     0.0000     0.0000 </r>
        <r>     6.5089     0.0000     0.0000     0.0000     0.0000     0.0000     0.0000     0.0000     0.0000     0.0000 </r>
        <r>     6.6189     0.0000     0.0000     0.0000     0.0000     0.0000     0.0000     0.0000     0.0000     0.0000 </r>
        <r>     6.7288     0.0000     0.0000     0.0000     0.0000     0.0000     0.0000     0.0000     0.0000     0.0000 </r>
        <r>     6.8388     0.0000     0.0000     0.0000     0.0000     0.0000     0.0000     0.0000     0.0000     0.0000 </r>
        <r>     6.9487     0.0000     0.0000     0.0000     0.0000     0.0000     0.0000     0.0000     0.0000     0.0000 </r>
        <r>     7.0587     0.0000     0.0000     0.0000     0.0000     0.0000     0.0000     0.0000     0.0000     0.0000 </r>
        <r>     7.1687     0.0000     0.0000     0.0000     0.0000     0.0000     0.0000     0.0000     0.0000     0.0000 </r>
        <r>     7.2786     0.0000     0.0000     0.0000     0.0000     0.0000     0.0000     0.0000     0.0000     0.0000 </r>
        <r>     7.3886     0.0000     0.0000     0.0000     0.0000     0.0000     0.0000     0.0000     0.0000     0.0000 </r>
        <r>     7.4985     0.0000     0.0000     0.0000     0.0000     0.0000     0.0000     0.0000     0.0000     0.0000 </r>
        <r>     7.6085     0.0000     0.0000     0.0000     0.0000     0.0000     0.0000     0.0000     0.0000     0.0000 </r>
       </set>
      </set>
      <set comment="ion 2">
       <set comment="spin 1">
        <r>   -25.3786     0.0000     0.0000     0.0000     0.0000     0.0000     0.0000     0.0000     0.0000     0.0000 </r>
        <r>   -25.2686     0.0000     0.0000     0.0000     0.0000     0.0000     0.0000     0.0000     0.0000     0.0000 </r>
        <r>   -25.1587     0.0000     0.0000     0.0000     0.0000     0.0000     0.0000     0.0000     0.0000     0.0000 </r>
        <r>   -25.0487     0.0000     0.0000     0.0000     0.0000     0.0000     0.0000     0.0000     0.0000     0.0000 </r>
        <r>   -24.9388     0.0000     0.0000     0.0000     0.0000     0.0000     0.0000     0.0000     0.0000     0.0000 </r>
        <r>   -24.8288     0.0000     0.0000     0.0000     0.0000     0.0000     0.0000     0.0000     0.0000     0.0000 </r>
        <r>   -24.7188     0.0000     0.0000     0.0000     0.0000     0.0000     0.0000     0.0000     0.0000     0.0000 </r>
        <r>   -24.6089     0.0000     0.0000     0.0000     0.0000     0.0000     0.0000     0.0000     0.0000     0.0000 </r>
        <r>   -24.4989     0.0000     0.0000     0.0000     0.0000     0.0000     0.0000     0.0000     0.0000     0.0000 </r>
        <r>   -24.3890     0.0000     0.0000     0.0000     0.0000     0.0000     0.0000     0.0000     0.0000     0.0000 </r>
        <r>   -24.2790     0.0000     0.0000     0.0000     0.0000     0.0000     0.0000     0.0000     0.0000     0.0000 </r>
        <r>   -24.1691     0.0000     0.0000     0.0000     0.0000     0.0000     0.0000     0.0000     0.0000     0.0000 </r>
        <r>   -24.0591     0.0000     0.0000     0.0000     0.0000     0.0000     0.0000     0.0000     0.0000     0.0000 </r>
        <r>   -23.9491     0.0003     0.0000     0.0001     0.0000     0.0000     0.0000     0.0000     0.0000     0.0000 </r>
        <r>   -23.8392     0.0231     0.0022     0.0047     0.0024     0.0003     0.0006     0.0001     0.0007     0.0003 </r>
        <r>   -23.7292     0.0110     0.0043     0.0023     0.0033     0.0006     0.0011     0.0003     0.0008     0.0007 </r>
        <r>   -23.6193     0.0001     0.0001     0.0000     0.0001     0.0000     0.0000     0.0000     0.0000     0.0000 </r>
        <r>   -23.5093     0.0000     0.0000     0.0000     0.0000     0.0000     0.0000     0.0000     0.0000     0.0000 </r>
        <r>   -23.3994     0.0000     0.0000     0.0000     0.0000     0.0000     0.0000     0.0000     0.0000     0.0000 </r>
        <r>   -23.2894     0.0000     0.0000     0.0000     0.0000     0.0000     0.0000     0.0000     0.0000     0.0000 </r>
        <r>   -23.1794     0.0000     0.0000     0.0000     0.0000     0.0000     0.0000     0.0000     0.0000     0.0000 </r>
        <r>   -23.0695     0.0000     0.0000     0.0000     0.0000     0.0000     0.0000     0.0000     0.0000     0.0000 </r>
        <r>   -22.9595     0.0000     0.0000     0.0000     0.0000     0.0000     0.0000     0.0000     0.0000     0.0000 </r>
        <r>   -22.8496     0.0000     0.0000     0.0000     0.0000     0.0000     0.0000     0.0000     0.0000     0.0000 </r>
        <r>   -22.7396     0.0000     0.0000     0.0000     0.0000     0.0000     0.0000     0.0000     0.0000     0.0000 </r>
        <r>   -22.6297     0.0000     0.0000     0.0000     0.0000     0.0000     0.0000     0.0000     0.0000     0.0000 </r>
        <r>   -22.5197     0.0000     0.0000     0.0000     0.0000     0.0000     0.0000     0.0000     0.0000     0.0000 </r>
        <r>   -22.4097     0.0000     0.0000     0.0000     0.0000     0.0000     0.0000     0.0000     0.0000     0.0000 </r>
        <r>   -22.2998     0.0000     0.0000     0.0000     0.0000     0.0000     0.0000     0.0000     0.0000     0.0000 </r>
        <r>   -22.1898     0.0000     0.0000     0.0000     0.0000     0.0000     0.0000     0.0000     0.0000     0.0000 </r>
        <r>   -22.0799     0.0000     0.0000     0.0000     0.0000     0.0000     0.0000     0.0000     0.0000     0.0000 </r>
        <r>   -21.9699     0.0000     0.0000     0.0000     0.0000     0.0000     0.0000     0.0000     0.0000     0.0000 </r>
        <r>   -21.8600     0.0000     0.0000     0.0000     0.0000     0.0000     0.0000     0.0000     0.0000     0.0000 </r>
        <r>   -21.7500     0.0000     0.0000     0.0000     0.0000     0.0000     0.0000     0.0000     0.0000     0.0000 </r>
        <r>   -21.6400     0.0000     0.0000     0.0000     0.0000     0.0000     0.0000     0.0000     0.0000     0.0000 </r>
        <r>   -21.5301     0.0000     0.0000     0.0000     0.0000     0.0000     0.0000     0.0000     0.0000     0.0000 </r>
        <r>   -21.4201     0.0000     0.0000     0.0000     0.0000     0.0000     0.0000     0.0000     0.0000     0.0000 </r>
        <r>   -21.3102     0.0000     0.0000     0.0000     0.0000     0.0000     0.0000     0.0000     0.0000     0.0000 </r>
        <r>   -21.2002     0.0000     0.0000     0.0000     0.0000     0.0000     0.0000     0.0000     0.0000     0.0000 </r>
        <r>   -21.0903     0.0000     0.0000     0.0000     0.0000     0.0000     0.0000     0.0000     0.0000     0.0000 </r>
        <r>   -20.9803     0.0000     0.0000     0.0000     0.0000     0.0000     0.0000     0.0000     0.0000     0.0000 </r>
        <r>   -20.8703     0.0000     0.0000     0.0000     0.0000     0.0000     0.0000     0.0000     0.0000     0.0000 </r>
        <r>   -20.7604     0.0000     0.0000     0.0000     0.0000     0.0000     0.0000     0.0000     0.0000     0.0000 </r>
        <r>   -20.6504     0.0000     0.0000     0.0000     0.0000     0.0000     0.0000     0.0000     0.0000     0.0000 </r>
        <r>   -20.5405     0.0000     0.0000     0.0000     0.0000     0.0000     0.0000     0.0000     0.0000     0.0000 </r>
        <r>   -20.4305     0.0000     0.0000     0.0000     0.0000     0.0000     0.0000     0.0000     0.0000     0.0000 </r>
        <r>   -20.3206     0.0000     0.0000     0.0000     0.0000     0.0000     0.0000     0.0000     0.0000     0.0000 </r>
        <r>   -20.2106     0.0000     0.0000     0.0000     0.0000     0.0000     0.0000     0.0000     0.0000     0.0000 </r>
        <r>   -20.1007     0.0000     0.0000     0.0000     0.0000     0.0000     0.0000     0.0000     0.0000     0.0000 </r>
        <r>   -19.9907     0.0000     0.0000     0.0000     0.0000     0.0000     0.0000     0.0000     0.0000     0.0000 </r>
        <r>   -19.8807     0.0000     0.0000     0.0000     0.0000     0.0000     0.0000     0.0000     0.0000     0.0000 </r>
        <r>   -19.7708     0.0000     0.0000     0.0000     0.0000     0.0000     0.0000     0.0000     0.0000     0.0000 </r>
        <r>   -19.6608     0.0000     0.0000     0.0000     0.0000     0.0000     0.0000     0.0000     0.0000     0.0000 </r>
        <r>   -19.5509     0.0000     0.0000     0.0000     0.0000     0.0000     0.0000     0.0000     0.0000     0.0000 </r>
        <r>   -19.4409     0.0000     0.0000     0.0000     0.0000     0.0000     0.0000     0.0000     0.0000     0.0000 </r>
        <r>   -19.3310     0.0000     0.0000     0.0000     0.0000     0.0000     0.0000     0.0000     0.0000     0.0000 </r>
        <r>   -19.2210     0.0000     0.0000     0.0000     0.0000     0.0000     0.0000     0.0000     0.0000     0.0000 </r>
        <r>   -19.1110     0.0000     0.0000     0.0000     0.0000     0.0000     0.0000     0.0000     0.0000     0.0000 </r>
        <r>   -19.0011     0.0000     0.0000     0.0000     0.0000     0.0000     0.0000     0.0000     0.0000     0.0000 </r>
        <r>   -18.8911     0.0000     0.0000     0.0000     0.0000     0.0000     0.0000     0.0000     0.0000     0.0000 </r>
        <r>   -18.7812     0.0000     0.0000     0.0000     0.0000     0.0000     0.0000     0.0000     0.0000     0.0000 </r>
        <r>   -18.6712     0.0000     0.0000     0.0000     0.0000     0.0000     0.0000     0.0000     0.0000     0.0000 </r>
        <r>   -18.5613     0.0000     0.0000     0.0000     0.0000     0.0000     0.0000     0.0000     0.0000     0.0000 </r>
        <r>   -18.4513     0.0000     0.0000     0.0000     0.0000     0.0000     0.0000     0.0000     0.0000     0.0000 </r>
        <r>   -18.3413     0.0000     0.0000     0.0000     0.0000     0.0000     0.0000     0.0000     0.0000     0.0000 </r>
        <r>   -18.2314     0.0000     0.0000     0.0000     0.0000     0.0000     0.0000     0.0000     0.0000     0.0000 </r>
        <r>   -18.1214     0.0000     0.0000     0.0000     0.0000     0.0000     0.0000     0.0000     0.0000     0.0000 </r>
        <r>   -18.0115     0.0000     0.0000     0.0000     0.0000     0.0000     0.0000     0.0000     0.0000     0.0000 </r>
        <r>   -17.9015     0.0000     0.0000     0.0000     0.0000     0.0000     0.0000     0.0000     0.0000     0.0000 </r>
        <r>   -17.7916     0.0000     0.0000     0.0000     0.0000     0.0000     0.0000     0.0000     0.0000     0.0000 </r>
        <r>   -17.6816     0.0000     0.0000     0.0000     0.0000     0.0000     0.0000     0.0000     0.0000     0.0000 </r>
        <r>   -17.5716     0.0000     0.0000     0.0000     0.0000     0.0000     0.0000     0.0000     0.0000     0.0000 </r>
        <r>   -17.4617     0.0000     0.0000     0.0000     0.0000     0.0000     0.0000     0.0000     0.0000     0.0000 </r>
        <r>   -17.3517     0.0000     0.0000     0.0000     0.0000     0.0000     0.0000     0.0000     0.0000     0.0000 </r>
        <r>   -17.2418     0.0000     0.0000     0.0000     0.0000     0.0000     0.0000     0.0000     0.0000     0.0000 </r>
        <r>   -17.1318     0.0000     0.0000     0.0000     0.0000     0.0000     0.0000     0.0000     0.0000     0.0000 </r>
        <r>   -17.0219     0.0000     0.0000     0.0000     0.0000     0.0000     0.0000     0.0000     0.0000     0.0000 </r>
        <r>   -16.9119     0.0000     0.0000     0.0000     0.0000     0.0000     0.0000     0.0000     0.0000     0.0000 </r>
        <r>   -16.8019     0.0000     0.0000     0.0000     0.0000     0.0000     0.0000     0.0000     0.0000     0.0000 </r>
        <r>   -16.6920     0.0000     0.0000     0.0000     0.0000     0.0000     0.0000     0.0000     0.0000     0.0000 </r>
        <r>   -16.5820     0.0000     0.0000     0.0000     0.0000     0.0000     0.0000     0.0000     0.0000     0.0000 </r>
        <r>   -16.4721     0.0000     0.0000     0.0000     0.0000     0.0000     0.0000     0.0000     0.0000     0.0000 </r>
        <r>   -16.3621     0.0000     0.0000     0.0000     0.0000     0.0000     0.0000     0.0000     0.0000     0.0000 </r>
        <r>   -16.2522     0.0000     0.0000     0.0000     0.0000     0.0000     0.0000     0.0000     0.0000     0.0000 </r>
        <r>   -16.1422     0.0027     0.0000     0.0000     0.0000     0.0000     0.0000     0.0000     0.0000     0.0000 </r>
        <r>   -16.0322     0.1127     0.0000     0.0020     0.0000     0.0000     0.0000     0.0000     0.0000     0.0000 </r>
        <r>   -15.9223     0.2010     0.0001     0.0035     0.0001     0.0000     0.0000     0.0000     0.0000     0.0000 </r>
        <r>   -15.8123     0.2195     0.0002     0.0037     0.0003     0.0000     0.0000     0.0000     0.0000     0.0000 </r>
        <r>   -15.7024     0.2548     0.0004     0.0040     0.0004     0.0000     0.0000     0.0000     0.0000     0.0000 </r>
        <r>   -15.5924     0.1889     0.0003     0.0028     0.0004     0.0000     0.0000     0.0000     0.0000     0.0000 </r>
        <r>   -15.4825     0.2971     0.0007     0.0043     0.0006     0.0000     0.0000     0.0000     0.0000     0.0000 </r>
        <r>   -15.3725     0.2294     0.0005     0.0030     0.0006     0.0000     0.0000     0.0000     0.0000     0.0000 </r>
        <r>   -15.2625     0.3261     0.0008     0.0041     0.0008     0.0000     0.0000     0.0000     0.0000     0.0000 </r>
        <r>   -15.1526     0.2608     0.0006     0.0030     0.0006     0.0000     0.0000     0.0000     0.0000     0.0000 </r>
        <r>   -15.0426     0.3845     0.0010     0.0042     0.0009     0.0000     0.0001     0.0000     0.0001     0.0000 </r>
        <r>   -14.9327     0.3111     0.0007     0.0030     0.0007     0.0000     0.0000     0.0000     0.0000     0.0000 </r>
        <r>   -14.8227     0.5502     0.0011     0.0047     0.0009     0.0000     0.0001     0.0000     0.0001     0.0000 </r>
        <r>   -14.7128     0.8343     0.0008     0.0046     0.0007     0.0000     0.0001     0.0001     0.0000     0.0000 </r>
        <r>   -14.6028     1.2187     0.0011     0.0066     0.0007     0.0001     0.0001     0.0001     0.0001     0.0000 </r>
        <r>   -14.4928     1.1523     0.0010     0.0051     0.0006     0.0001     0.0001     0.0001     0.0000     0.0000 </r>
        <r>   -14.3829     0.9922     0.0007     0.0031     0.0006     0.0000     0.0000     0.0000     0.0000     0.0000 </r>
        <r>   -14.2729     1.6506     0.0007     0.0042     0.0012     0.0001     0.0000     0.0000     0.0001     0.0000 </r>
        <r>   -14.1630     2.7396     0.0006     0.0077     0.0023     0.0002     0.0001     0.0000     0.0003     0.0001 </r>
        <r>   -14.0530     0.1298     0.0000     0.0004     0.0001     0.0000     0.0000     0.0000     0.0000     0.0000 </r>
        <r>   -13.9431     0.0000     0.0000     0.0000     0.0000     0.0000     0.0000     0.0000     0.0000     0.0000 </r>
        <r>   -13.8331     0.0000     0.0000     0.0000     0.0000     0.0000     0.0000     0.0000     0.0000     0.0000 </r>
        <r>   -13.7232     0.0000     0.0000     0.0000     0.0000     0.0000     0.0000     0.0000     0.0000     0.0000 </r>
        <r>   -13.6132     0.0000     0.0000     0.0000     0.0000     0.0000     0.0000     0.0000     0.0000     0.0000 </r>
        <r>   -13.5032     0.0000     0.0000     0.0000     0.0000     0.0000     0.0000     0.0000     0.0000     0.0000 </r>
        <r>   -13.3933     0.0000     0.0000     0.0000     0.0000     0.0000     0.0000     0.0000     0.0000     0.0000 </r>
        <r>   -13.2833     0.0000     0.0000     0.0000     0.0000     0.0000     0.0000     0.0000     0.0000     0.0000 </r>
        <r>   -13.1734     0.0000     0.0000     0.0000     0.0000     0.0000     0.0000     0.0000     0.0000     0.0000 </r>
        <r>   -13.0634     0.0000     0.0000     0.0000     0.0000     0.0000     0.0000     0.0000     0.0000     0.0000 </r>
        <r>   -12.9535     0.0000     0.0000     0.0000     0.0000     0.0000     0.0000     0.0000     0.0000     0.0000 </r>
        <r>   -12.8435     0.0000     0.0000     0.0000     0.0000     0.0000     0.0000     0.0000     0.0000     0.0000 </r>
        <r>   -12.7335     0.0000     0.0000     0.0000     0.0000     0.0000     0.0000     0.0000     0.0000     0.0000 </r>
        <r>   -12.6236     0.0000     0.0000     0.0000     0.0000     0.0000     0.0000     0.0000     0.0000     0.0000 </r>
        <r>   -12.5136     0.0000     0.0000     0.0000     0.0000     0.0000     0.0000     0.0000     0.0000     0.0000 </r>
        <r>   -12.4037     0.0000     0.0000     0.0000     0.0000     0.0000     0.0000     0.0000     0.0000     0.0000 </r>
        <r>   -12.2937     0.0000     0.0000     0.0000     0.0000     0.0000     0.0000     0.0000     0.0000     0.0000 </r>
        <r>   -12.1838     0.0000     0.0000     0.0000     0.0000     0.0000     0.0000     0.0000     0.0000     0.0000 </r>
        <r>   -12.0738     0.0000     0.0000     0.0000     0.0000     0.0000     0.0000     0.0000     0.0000     0.0000 </r>
        <r>   -11.9638     0.0000     0.0000     0.0000     0.0000     0.0000     0.0000     0.0000     0.0000     0.0000 </r>
        <r>   -11.8539     0.0000     0.0000     0.0000     0.0000     0.0000     0.0000     0.0000     0.0000     0.0000 </r>
        <r>   -11.7439     0.0000     0.0000     0.0000     0.0000     0.0000     0.0000     0.0000     0.0000     0.0000 </r>
        <r>   -11.6340     0.0000     0.0000     0.0000     0.0000     0.0000     0.0000     0.0000     0.0000     0.0000 </r>
        <r>   -11.5240     0.0000     0.0000     0.0000     0.0000     0.0000     0.0000     0.0000     0.0000     0.0000 </r>
        <r>   -11.4141     0.0000     0.0000     0.0000     0.0000     0.0000     0.0000     0.0000     0.0000     0.0000 </r>
        <r>   -11.3041     0.0000     0.0000     0.0000     0.0000     0.0000     0.0000     0.0000     0.0000     0.0000 </r>
        <r>   -11.1941     0.0000     0.0000     0.0000     0.0000     0.0000     0.0000     0.0000     0.0000     0.0000 </r>
        <r>   -11.0842     0.0000     0.0000     0.0000     0.0000     0.0000     0.0000     0.0000     0.0000     0.0000 </r>
        <r>   -10.9742     0.0000     0.0000     0.0000     0.0000     0.0000     0.0000     0.0000     0.0000     0.0000 </r>
        <r>   -10.8643     0.0000     0.0000     0.0000     0.0000     0.0000     0.0000     0.0000     0.0000     0.0000 </r>
        <r>   -10.7543     0.0000     0.0000     0.0000     0.0000     0.0000     0.0000     0.0000     0.0000     0.0000 </r>
        <r>   -10.6444     0.0000     0.0000     0.0000     0.0000     0.0000     0.0000     0.0000     0.0000     0.0000 </r>
        <r>   -10.5344     0.0000     0.0000     0.0000     0.0000     0.0000     0.0000     0.0000     0.0000     0.0000 </r>
        <r>   -10.4244     0.0000     0.0000     0.0000     0.0000     0.0000     0.0000     0.0000     0.0000     0.0000 </r>
        <r>   -10.3145     0.0000     0.0000     0.0000     0.0000     0.0000     0.0000     0.0000     0.0000     0.0000 </r>
        <r>   -10.2045     0.0000     0.0000     0.0000     0.0000     0.0000     0.0000     0.0000     0.0000     0.0000 </r>
        <r>   -10.0946     0.0000     0.0000     0.0000     0.0000     0.0000     0.0000     0.0000     0.0000     0.0000 </r>
        <r>    -9.9846     0.0000     0.0000     0.0000     0.0000     0.0000     0.0000     0.0000     0.0000     0.0000 </r>
        <r>    -9.8747     0.0000     0.0000     0.0000     0.0000     0.0000     0.0000     0.0000     0.0000     0.0000 </r>
        <r>    -9.7647     0.0001     0.0010     0.0000     0.0010     0.0000     0.0000     0.0000     0.0000     0.0000 </r>
        <r>    -9.6547     0.0130     0.0349     0.0021     0.0470     0.0010     0.0017     0.0000     0.0022     0.0008 </r>
        <r>    -9.5448     0.0645     0.0677     0.0109     0.1206     0.0019     0.0031     0.0000     0.0052     0.0014 </r>
        <r>    -9.4348     0.0608     0.0458     0.0101     0.0728     0.0011     0.0021     0.0000     0.0032     0.0009 </r>
        <r>    -9.3249     0.0449     0.0231     0.0080     0.0411     0.0006     0.0010     0.0000     0.0018     0.0004 </r>
        <r>    -9.2149     0.0607     0.0318     0.0113     0.0385     0.0006     0.0015     0.0000     0.0017     0.0006 </r>
        <r>    -9.1050     0.0394     0.0136     0.0083     0.0234     0.0003     0.0006     0.0000     0.0010     0.0003 </r>
        <r>    -8.9950     0.0768     0.0258     0.0175     0.0325     0.0005     0.0012     0.0000     0.0015     0.0005 </r>
        <r>    -8.8850     0.0475     0.0115     0.0124     0.0178     0.0003     0.0006     0.0000     0.0008     0.0002 </r>
        <r>    -8.7751     0.0784     0.0182     0.0231     0.0199     0.0003     0.0009     0.0000     0.0010     0.0003 </r>
        <r>    -8.6651     0.0569     0.0098     0.0188     0.0132     0.0002     0.0005     0.0000     0.0007     0.0002 </r>
        <r>    -8.5552     0.0987     0.0139     0.0380     0.0152     0.0002     0.0008     0.0001     0.0008     0.0003 </r>
        <r>    -8.4452     0.1010     0.0085     0.0470     0.0104     0.0002     0.0005     0.0001     0.0006     0.0002 </r>
        <r>    -8.3353     0.1520     0.0066     0.0867     0.0071     0.0001     0.0005     0.0002     0.0005     0.0001 </r>
        <r>    -8.2253     0.0804     0.0012     0.0522     0.0014     0.0000     0.0001     0.0001     0.0001     0.0000 </r>
        <r>    -8.1153     0.0005     0.0000     0.0004     0.0000     0.0000     0.0000     0.0000     0.0000     0.0000 </r>
        <r>    -8.0054     0.0000     0.0000     0.0000     0.0000     0.0000     0.0000     0.0000     0.0000     0.0000 </r>
        <r>    -7.8954     0.0000     0.0000     0.0000     0.0000     0.0000     0.0000     0.0000     0.0000     0.0000 </r>
        <r>    -7.7855     0.0000     0.0000     0.0000     0.0000     0.0000     0.0000     0.0000     0.0000     0.0000 </r>
        <r>    -7.6755     0.0000     0.0000     0.0000     0.0000     0.0000     0.0000     0.0000     0.0000     0.0000 </r>
        <r>    -7.5656     0.0000     0.0000     0.0000     0.0000     0.0000     0.0000     0.0000     0.0000     0.0000 </r>
        <r>    -7.4556     0.0000     0.0000     0.0000     0.0000     0.0000     0.0000     0.0000     0.0000     0.0000 </r>
        <r>    -7.3457     0.0000     0.0000     0.0000     0.0000     0.0000     0.0000     0.0000     0.0000     0.0000 </r>
        <r>    -7.2357     0.0000     0.0000     0.0000     0.0000     0.0000     0.0000     0.0000     0.0000     0.0000 </r>
        <r>    -7.1257     0.0000     0.0000     0.0000     0.0000     0.0000     0.0000     0.0000     0.0000     0.0000 </r>
        <r>    -7.0158     0.0006     0.0020     0.0017     0.0058     0.0000     0.0000     0.0000     0.0001     0.0000 </r>
        <r>    -6.9058     0.0107     0.0330     0.0280     0.0951     0.0001     0.0003     0.0004     0.0010     0.0001 </r>
        <r>    -6.7959     0.0159     0.0523     0.0423     0.1307     0.0001     0.0006     0.0007     0.0013     0.0002 </r>
        <r>    -6.6859     0.0145     0.0508     0.0404     0.1170     0.0001     0.0005     0.0006     0.0012     0.0002 </r>
        <r>    -6.5760     0.0187     0.0860     0.0573     0.1535     0.0001     0.0009     0.0009     0.0016     0.0004 </r>
        <r>    -6.4660     0.0124     0.1069     0.0458     0.1227     0.0002     0.0011     0.0009     0.0013     0.0003 </r>
        <r>    -6.3560     0.0154     0.1309     0.0595     0.1421     0.0003     0.0014     0.0011     0.0016     0.0004 </r>
        <r>    -6.2461     0.0074     0.0647     0.0287     0.0603     0.0001     0.0007     0.0006     0.0007     0.0001 </r>
        <r>    -6.1361     0.0173     0.0912     0.0669     0.1038     0.0003     0.0011     0.0010     0.0014     0.0002 </r>
        <r>    -6.0262     0.0084     0.0543     0.0322     0.0524     0.0001     0.0006     0.0005     0.0007     0.0002 </r>
        <r>    -5.9162     0.0187     0.1171     0.0908     0.1126     0.0006     0.0016     0.0011     0.0016     0.0005 </r>
        <r>    -5.8063     0.0092     0.0390     0.0434     0.0449     0.0003     0.0005     0.0004     0.0007     0.0004 </r>
        <r>    -5.6963     0.0109     0.1091     0.0624     0.1000     0.0006     0.0012     0.0009     0.0013     0.0006 </r>
        <r>    -5.5863     0.0172     0.1856     0.1129     0.0973     0.0010     0.0023     0.0010     0.0015     0.0012 </r>
        <r>    -5.4764     0.0074     0.0486     0.0623     0.0276     0.0003     0.0006     0.0005     0.0005     0.0006 </r>
        <r>    -5.3664     0.0127     0.1077     0.0933     0.1525     0.0012     0.0009     0.0010     0.0016     0.0012 </r>
        <r>    -5.2565     0.0154     0.2501     0.1278     0.0876     0.0010     0.0031     0.0009     0.0015     0.0013 </r>
        <r>    -5.1465     0.0137     0.1230     0.1159     0.0646     0.0008     0.0012     0.0008     0.0006     0.0010 </r>
        <r>    -5.0366     0.0270     0.1819     0.2207     0.1921     0.0016     0.0017     0.0011     0.0014     0.0019 </r>
        <r>    -4.9266     0.0430     0.2531     0.3897     0.1806     0.0017     0.0028     0.0013     0.0009     0.0016 </r>
        <r>    -4.8166     0.0140     0.1413     0.1499     0.2351     0.0011     0.0027     0.0006     0.0012     0.0011 </r>
        <r>    -4.7067     0.0133     0.2401     0.1135     0.2272     0.0011     0.0029     0.0011     0.0015     0.0017 </r>
        <r>    -4.5967     0.0048     0.0692     0.0478     0.1317     0.0004     0.0013     0.0002     0.0006     0.0006 </r>
        <r>    -4.4868     0.0037     0.0854     0.0369     0.1143     0.0005     0.0013     0.0003     0.0008     0.0007 </r>
        <r>    -4.3768     0.0099     0.1591     0.0808     0.2105     0.0009     0.0019     0.0008     0.0013     0.0015 </r>
        <r>    -4.2669     0.0041     0.0553     0.0309     0.0943     0.0003     0.0008     0.0002     0.0005     0.0005 </r>
        <r>    -4.1569     0.0035     0.0243     0.0368     0.1089     0.0003     0.0005     0.0001     0.0006     0.0006 </r>
        <r>    -4.0469     0.0072     0.1913     0.0504     0.1360     0.0007     0.0019     0.0006     0.0010     0.0013 </r>
        <r>    -3.9370     0.0040     0.0360     0.0443     0.0574     0.0002     0.0003     0.0002     0.0003     0.0003 </r>
        <r>    -3.8270     0.0084     0.1651     0.2089     0.1935     0.0006     0.0007     0.0005     0.0009     0.0010 </r>
        <r>    -3.7171     0.0089     0.3482     0.5804     0.1689     0.0007     0.0008     0.0005     0.0010     0.0010 </r>
        <r>    -3.6071     0.0048     0.2637     0.3120     0.1270     0.0006     0.0004     0.0005     0.0006     0.0004 </r>
        <r>    -3.4972     0.0062     0.3873     0.4828     0.1603     0.0008     0.0009     0.0004     0.0009     0.0009 </r>
        <r>    -3.3872     0.0120     0.3079     1.1320     0.2835     0.0008     0.0010     0.0007     0.0013     0.0008 </r>
        <r>    -3.2772     0.0082     0.1799     0.6344     0.2756     0.0004     0.0006     0.0006     0.0008     0.0005 </r>
        <r>    -3.1673     0.0045     0.2186     0.5714     0.3887     0.0006     0.0007     0.0003     0.0008     0.0008 </r>
        <r>    -3.0573     0.0023     0.5274     0.5082     0.3994     0.0009     0.0007     0.0002     0.0009     0.0007 </r>
        <r>    -2.9474     0.0019     0.4494     0.0399     0.2296     0.0003     0.0005     0.0002     0.0006     0.0004 </r>
        <r>    -2.8374     0.0020     0.4339     0.0142     0.2155     0.0002     0.0005     0.0002     0.0008     0.0003 </r>
        <r>    -2.7275     0.0009     0.3241     0.0036     0.1731     0.0001     0.0007     0.0000     0.0006     0.0001 </r>
        <r>    -2.6175     0.0000     0.1540     0.0000     0.0528     0.0000     0.0004     0.0000     0.0001     0.0000 </r>
        <r>    -2.5075     0.0000     0.0012     0.0000     0.0004     0.0000     0.0000     0.0000     0.0000     0.0000 </r>
        <r>    -2.3976     0.0000     0.0000     0.0000     0.0000     0.0000     0.0000     0.0000     0.0000     0.0000 </r>
        <r>    -2.2876     0.0000     0.0000     0.0000     0.0000     0.0000     0.0000     0.0000     0.0000     0.0000 </r>
        <r>    -2.1777     0.0000     0.0000     0.0000     0.0000     0.0000     0.0000     0.0000     0.0000     0.0000 </r>
        <r>    -2.0677     0.0000     0.0000     0.0000     0.0000     0.0000     0.0000     0.0000     0.0000     0.0000 </r>
        <r>    -1.9578     0.0002     0.0011     0.0017     0.0034     0.0002     0.0000     0.0000     0.0001     0.0001 </r>
        <r>    -1.8478     0.0016     0.0112     0.0150     0.0332     0.0016     0.0003     0.0002     0.0009     0.0005 </r>
        <r>    -1.7378     0.0027     0.0237     0.0270     0.0604     0.0026     0.0006     0.0003     0.0017     0.0009 </r>
        <r>    -1.6279     0.0038     0.0279     0.0300     0.0819     0.0034     0.0007     0.0004     0.0021     0.0011 </r>
        <r>    -1.5179     0.0006     0.0073     0.0061     0.0157     0.0006     0.0002     0.0001     0.0004     0.0002 </r>
        <r>    -1.4080     0.0057     0.0642     0.0504     0.1420     0.0050     0.0013     0.0006     0.0038     0.0016 </r>
        <r>    -1.2980     0.0019     0.0222     0.0169     0.0501     0.0017     0.0005     0.0002     0.0013     0.0005 </r>
        <r>    -1.1881     0.0028     0.0420     0.0264     0.0751     0.0019     0.0008     0.0002     0.0020     0.0006 </r>
        <r>    -1.0781     0.0063     0.0808     0.0532     0.1487     0.0041     0.0015     0.0005     0.0037     0.0014 </r>
        <r>    -0.9682     0.0100     0.1164     0.0671     0.1788     0.0034     0.0024     0.0004     0.0046     0.0012 </r>
        <r>    -0.8582     0.0082     0.1948     0.0619     0.2355     0.0017     0.0050     0.0002     0.0061     0.0010 </r>
        <r>    -0.7482     0.0054     0.1218     0.0707     0.1864     0.0039     0.0026     0.0004     0.0032     0.0019 </r>
        <r>    -0.6383     0.0150     0.1087     0.0980     0.1458     0.0027     0.0017     0.0004     0.0019     0.0016 </r>
        <r>    -0.5283     0.0130     0.0921     0.0977     0.1178     0.0024     0.0010     0.0003     0.0009     0.0019 </r>
        <r>    -0.4184     0.0165     0.1069     0.1156     0.1121     0.0025     0.0007     0.0004     0.0007     0.0019 </r>
        <r>    -0.3084     0.0011     0.0113     0.0090     0.0060     0.0001     0.0001     0.0000     0.0000     0.0002 </r>
        <r>    -0.1985     0.0000     0.0000     0.0000     0.0000     0.0000     0.0000     0.0000     0.0000     0.0000 </r>
        <r>    -0.0885     0.0000     0.0000     0.0000     0.0000     0.0000     0.0000     0.0000     0.0000     0.0000 </r>
        <r>     0.0215     0.0000     0.0000     0.0000     0.0000     0.0000     0.0000     0.0000     0.0000     0.0000 </r>
        <r>     0.1314     0.0000     0.0000     0.0000     0.0000     0.0000     0.0000     0.0000     0.0000     0.0000 </r>
        <r>     0.2414     0.0000     0.0000     0.0000     0.0000     0.0000     0.0000     0.0000     0.0000     0.0000 </r>
        <r>     0.3513     0.0008     0.0000     0.0001     0.0000     0.0000     0.0000     0.0002     0.0000     0.0000 </r>
        <r>     0.4613     0.0028     0.0000     0.0003     0.0000     0.0000     0.0000     0.0006     0.0000     0.0000 </r>
        <r>     0.5712     0.0035     0.0003     0.0004     0.0008     0.0000     0.0000     0.0008     0.0000     0.0000 </r>
        <r>     0.6812     0.0160     0.0013     0.0016     0.0039     0.0001     0.0000     0.0038     0.0000     0.0000 </r>
        <r>     0.7912     0.0003     0.0000     0.0000     0.0001     0.0000     0.0000     0.0001     0.0000     0.0000 </r>
        <r>     0.9011     0.0023     0.0011     0.0002     0.0006     0.0000     0.0000     0.0006     0.0000     0.0000 </r>
        <r>     1.0111     0.0260     0.0093     0.0032     0.0090     0.0011     0.0001     0.0060     0.0002     0.0004 </r>
        <r>     1.1210     0.0107     0.0011     0.0036     0.0027     0.0012     0.0001     0.0016     0.0003     0.0004 </r>
        <r>     1.2310     0.0212     0.0050     0.0079     0.0047     0.0033     0.0002     0.0028     0.0008     0.0007 </r>
        <r>     1.3409     0.0460     0.0115     0.0289     0.0076     0.0084     0.0003     0.0042     0.0017     0.0017 </r>
        <r>     1.4509     0.0624     0.0079     0.0789     0.0053     0.0196     0.0003     0.0014     0.0014     0.0059 </r>
        <r>     1.5609     0.0752     0.0229     0.1079     0.0052     0.0259     0.0005     0.0009     0.0016     0.0076 </r>
        <r>     1.6708     0.0629     0.0290     0.0806     0.0157     0.0215     0.0014     0.0021     0.0020     0.0089 </r>
        <r>     1.7808     0.0496     0.0308     0.0241     0.0497     0.0114     0.0034     0.0039     0.0048     0.0089 </r>
        <r>     1.8907     0.0475     0.0383     0.0495     0.0305     0.0141     0.0035     0.0017     0.0046     0.0060 </r>
        <r>     2.0007     0.0714     0.0792     0.1120     0.0374     0.0265     0.0118     0.0008     0.0086     0.0117 </r>
        <r>     2.1106     0.0269     0.0503     0.0315     0.0319     0.0069     0.0219     0.0013     0.0110     0.0028 </r>
        <r>     2.2206     0.0446     0.0640     0.0483     0.0873     0.0077     0.0220     0.0059     0.0096     0.0117 </r>
        <r>     2.3306     0.0391     0.0469     0.0679     0.0489     0.0040     0.0191     0.0047     0.0079     0.0044 </r>
        <r>     2.4405     0.0271     0.0884     0.0643     0.0402     0.0078     0.0213     0.0043     0.0109     0.0077 </r>
        <r>     2.5505     0.0446     0.1710     0.0825     0.0406     0.0091     0.0446     0.0062     0.0130     0.0114 </r>
        <r>     2.6604     0.0610     0.2717     0.1553     0.1213     0.0181     0.0662     0.0276     0.0471     0.0169 </r>
        <r>     2.7704     0.0414     0.1975     0.1338     0.1167     0.0094     0.0403     0.0283     0.0424     0.0094 </r>
        <r>     2.8803     0.0244     0.1159     0.0626     0.1327     0.0093     0.0204     0.0216     0.0314     0.0060 </r>
        <r>     2.9903     0.0175     0.1567     0.0304     0.1946     0.0204     0.0408     0.0176     0.0520     0.0060 </r>
        <r>     3.1003     0.0099     0.0883     0.0520     0.1091     0.0233     0.0187     0.0206     0.0341     0.0103 </r>
        <r>     3.2102     0.0091     0.0221     0.0449     0.0612     0.0129     0.0026     0.0130     0.0172     0.0062 </r>
        <r>     3.3202     0.0053     0.0154     0.0458     0.0254     0.0177     0.0047     0.0160     0.0120     0.0088 </r>
        <r>     3.4301     0.0105     0.0612     0.0491     0.0760     0.0303     0.0075     0.0168     0.0198     0.0160 </r>
        <r>     3.5401     0.0051     0.0220     0.0331     0.0336     0.0177     0.0031     0.0116     0.0082     0.0090 </r>
        <r>     3.6500     0.0084     0.0242     0.0587     0.0437     0.0296     0.0054     0.0215     0.0095     0.0171 </r>
        <r>     3.7600     0.0047     0.0412     0.0328     0.0556     0.0352     0.0093     0.0205     0.0119     0.0201 </r>
        <r>     3.8700     0.0032     0.0168     0.0332     0.0300     0.0245     0.0063     0.0148     0.0069     0.0161 </r>
        <r>     3.9799     0.0013     0.0037     0.0225     0.0123     0.0124     0.0028     0.0077     0.0024     0.0100 </r>
        <r>     4.0899     0.0016     0.0026     0.0391     0.0138     0.0166     0.0027     0.0108     0.0028     0.0125 </r>
        <r>     4.1998     0.0025     0.0035     0.0614     0.0062     0.0049     0.0017     0.0036     0.0050     0.0041 </r>
        <r>     4.3098     0.0035     0.0105     0.0305     0.0133     0.0211     0.0037     0.0122     0.0065     0.0091 </r>
        <r>     4.4197     0.0029     0.0211     0.0501     0.0187     0.0308     0.0079     0.0203     0.0115     0.0211 </r>
        <r>     4.5297     0.0059     0.0252     0.0414     0.0271     0.0271     0.0054     0.0172     0.0097     0.0211 </r>
        <r>     4.6397     0.0027     0.0107     0.0159     0.0127     0.0056     0.0037     0.0040     0.0023     0.0128 </r>
        <r>     4.7496     0.0029     0.0072     0.0170     0.0101     0.0011     0.0017     0.0015     0.0038     0.0030 </r>
        <r>     4.8596     0.0041     0.0186     0.0211     0.0110     0.0029     0.0008     0.0027     0.0066     0.0025 </r>
        <r>     4.9695     0.0038     0.0123     0.0116     0.0139     0.0052     0.0037     0.0040     0.0059     0.0064 </r>
        <r>     5.0795     0.0029     0.0186     0.0106     0.0219     0.0139     0.0091     0.0069     0.0118     0.0178 </r>
        <r>     5.1894     0.0029     0.0094     0.0129     0.0128     0.0021     0.0009     0.0036     0.0042     0.0043 </r>
        <r>     5.2994     0.0031     0.0118     0.0138     0.0146     0.0043     0.0010     0.0063     0.0043     0.0074 </r>
        <r>     5.4093     0.0022     0.0100     0.0113     0.0128     0.0022     0.0034     0.0049     0.0080     0.0115 </r>
        <r>     5.5193     0.0023     0.0071     0.0116     0.0105     0.0013     0.0010     0.0019     0.0018     0.0019 </r>
        <r>     5.6293     0.0039     0.0107     0.0058     0.0216     0.0016     0.0023     0.0059     0.0055     0.0063 </r>
        <r>     5.7392     0.0022     0.0109     0.0170     0.0145     0.0012     0.0011     0.0025     0.0033     0.0028 </r>
        <r>     5.8492     0.0021     0.0117     0.0152     0.0375     0.0036     0.0043     0.0082     0.0092     0.0178 </r>
        <r>     5.9591     0.0036     0.0238     0.0124     0.0240     0.0084     0.0097     0.0074     0.0060     0.0095 </r>
        <r>     6.0691     0.0018     0.0216     0.0115     0.0253     0.0084     0.0074     0.0043     0.0041     0.0053 </r>
        <r>     6.1790     0.0001     0.0121     0.0113     0.0121     0.0033     0.0046     0.0016     0.0022     0.0014 </r>
        <r>     6.2890     0.0000     0.0003     0.0003     0.0002     0.0001     0.0001     0.0000     0.0000     0.0000 </r>
        <r>     6.3990     0.0000     0.0000     0.0000     0.0000     0.0000     0.0000     0.0000     0.0000     0.0000 </r>
        <r>     6.5089     0.0000     0.0000     0.0000     0.0000     0.0000     0.0000     0.0000     0.0000     0.0000 </r>
        <r>     6.6189     0.0000     0.0000     0.0000     0.0000     0.0000     0.0000     0.0000     0.0000     0.0000 </r>
        <r>     6.7288     0.0000     0.0000     0.0000     0.0000     0.0000     0.0000     0.0000     0.0000     0.0000 </r>
        <r>     6.8388     0.0000     0.0000     0.0000     0.0000     0.0000     0.0000     0.0000     0.0000     0.0000 </r>
        <r>     6.9487     0.0000     0.0000     0.0000     0.0000     0.0000     0.0000     0.0000     0.0000     0.0000 </r>
        <r>     7.0587     0.0000     0.0000     0.0000     0.0000     0.0000     0.0000     0.0000     0.0000     0.0000 </r>
        <r>     7.1687     0.0000     0.0000     0.0000     0.0000     0.0000     0.0000     0.0000     0.0000     0.0000 </r>
        <r>     7.2786     0.0000     0.0000     0.0000     0.0000     0.0000     0.0000     0.0000     0.0000     0.0000 </r>
        <r>     7.3886     0.0000     0.0000     0.0000     0.0000     0.0000     0.0000     0.0000     0.0000     0.0000 </r>
        <r>     7.4985     0.0000     0.0000     0.0000     0.0000     0.0000     0.0000     0.0000     0.0000     0.0000 </r>
        <r>     7.6085     0.0000     0.0000     0.0000     0.0000     0.0000     0.0000     0.0000     0.0000     0.0000 </r>
       </set>
      </set>
      <set comment="ion 3">
       <set comment="spin 1">
        <r>   -25.3786     0.0000     0.0000     0.0000     0.0000     0.0000     0.0000     0.0000     0.0000     0.0000 </r>
        <r>   -25.2686     0.0000     0.0000     0.0000     0.0000     0.0000     0.0000     0.0000     0.0000     0.0000 </r>
        <r>   -25.1587     0.0000     0.0000     0.0000     0.0000     0.0000     0.0000     0.0000     0.0000     0.0000 </r>
        <r>   -25.0487     0.0000     0.0000     0.0000     0.0000     0.0000     0.0000     0.0000     0.0000     0.0000 </r>
        <r>   -24.9388     0.0000     0.0000     0.0000     0.0000     0.0000     0.0000     0.0000     0.0000     0.0000 </r>
        <r>   -24.8288     0.0000     0.0000     0.0000     0.0000     0.0000     0.0000     0.0000     0.0000     0.0000 </r>
        <r>   -24.7188     0.0000     0.0000     0.0000     0.0000     0.0000     0.0000     0.0000     0.0000     0.0000 </r>
        <r>   -24.6089     0.0000     0.0000     0.0000     0.0000     0.0000     0.0000     0.0000     0.0000     0.0000 </r>
        <r>   -24.4989     0.0000     0.0000     0.0000     0.0000     0.0000     0.0000     0.0000     0.0000     0.0000 </r>
        <r>   -24.3890     0.0000     0.0000     0.0000     0.0000     0.0000     0.0000     0.0000     0.0000     0.0000 </r>
        <r>   -24.2790     0.0000     0.0000     0.0000     0.0000     0.0000     0.0000     0.0000     0.0000     0.0000 </r>
        <r>   -24.1691     0.0000     0.0000     0.0000     0.0000     0.0000     0.0000     0.0000     0.0000     0.0000 </r>
        <r>   -24.0591     0.0000     0.0000     0.0000     0.0000     0.0000     0.0000     0.0000     0.0000     0.0000 </r>
        <r>   -23.9491     0.0003     0.0000     0.0001     0.0000     0.0000     0.0000     0.0000     0.0000     0.0000 </r>
        <r>   -23.8392     0.0231     0.0022     0.0047     0.0024     0.0003     0.0006     0.0001     0.0007     0.0003 </r>
        <r>   -23.7292     0.0110     0.0043     0.0023     0.0033     0.0006     0.0011     0.0003     0.0008     0.0007 </r>
        <r>   -23.6193     0.0001     0.0001     0.0000     0.0001     0.0000     0.0000     0.0000     0.0000     0.0000 </r>
        <r>   -23.5093     0.0000     0.0000     0.0000     0.0000     0.0000     0.0000     0.0000     0.0000     0.0000 </r>
        <r>   -23.3994     0.0000     0.0000     0.0000     0.0000     0.0000     0.0000     0.0000     0.0000     0.0000 </r>
        <r>   -23.2894     0.0000     0.0000     0.0000     0.0000     0.0000     0.0000     0.0000     0.0000     0.0000 </r>
        <r>   -23.1794     0.0000     0.0000     0.0000     0.0000     0.0000     0.0000     0.0000     0.0000     0.0000 </r>
        <r>   -23.0695     0.0000     0.0000     0.0000     0.0000     0.0000     0.0000     0.0000     0.0000     0.0000 </r>
        <r>   -22.9595     0.0000     0.0000     0.0000     0.0000     0.0000     0.0000     0.0000     0.0000     0.0000 </r>
        <r>   -22.8496     0.0000     0.0000     0.0000     0.0000     0.0000     0.0000     0.0000     0.0000     0.0000 </r>
        <r>   -22.7396     0.0000     0.0000     0.0000     0.0000     0.0000     0.0000     0.0000     0.0000     0.0000 </r>
        <r>   -22.6297     0.0000     0.0000     0.0000     0.0000     0.0000     0.0000     0.0000     0.0000     0.0000 </r>
        <r>   -22.5197     0.0000     0.0000     0.0000     0.0000     0.0000     0.0000     0.0000     0.0000     0.0000 </r>
        <r>   -22.4097     0.0000     0.0000     0.0000     0.0000     0.0000     0.0000     0.0000     0.0000     0.0000 </r>
        <r>   -22.2998     0.0000     0.0000     0.0000     0.0000     0.0000     0.0000     0.0000     0.0000     0.0000 </r>
        <r>   -22.1898     0.0000     0.0000     0.0000     0.0000     0.0000     0.0000     0.0000     0.0000     0.0000 </r>
        <r>   -22.0799     0.0000     0.0000     0.0000     0.0000     0.0000     0.0000     0.0000     0.0000     0.0000 </r>
        <r>   -21.9699     0.0000     0.0000     0.0000     0.0000     0.0000     0.0000     0.0000     0.0000     0.0000 </r>
        <r>   -21.8600     0.0000     0.0000     0.0000     0.0000     0.0000     0.0000     0.0000     0.0000     0.0000 </r>
        <r>   -21.7500     0.0000     0.0000     0.0000     0.0000     0.0000     0.0000     0.0000     0.0000     0.0000 </r>
        <r>   -21.6400     0.0000     0.0000     0.0000     0.0000     0.0000     0.0000     0.0000     0.0000     0.0000 </r>
        <r>   -21.5301     0.0000     0.0000     0.0000     0.0000     0.0000     0.0000     0.0000     0.0000     0.0000 </r>
        <r>   -21.4201     0.0000     0.0000     0.0000     0.0000     0.0000     0.0000     0.0000     0.0000     0.0000 </r>
        <r>   -21.3102     0.0000     0.0000     0.0000     0.0000     0.0000     0.0000     0.0000     0.0000     0.0000 </r>
        <r>   -21.2002     0.0000     0.0000     0.0000     0.0000     0.0000     0.0000     0.0000     0.0000     0.0000 </r>
        <r>   -21.0903     0.0000     0.0000     0.0000     0.0000     0.0000     0.0000     0.0000     0.0000     0.0000 </r>
        <r>   -20.9803     0.0000     0.0000     0.0000     0.0000     0.0000     0.0000     0.0000     0.0000     0.0000 </r>
        <r>   -20.8703     0.0000     0.0000     0.0000     0.0000     0.0000     0.0000     0.0000     0.0000     0.0000 </r>
        <r>   -20.7604     0.0000     0.0000     0.0000     0.0000     0.0000     0.0000     0.0000     0.0000     0.0000 </r>
        <r>   -20.6504     0.0000     0.0000     0.0000     0.0000     0.0000     0.0000     0.0000     0.0000     0.0000 </r>
        <r>   -20.5405     0.0000     0.0000     0.0000     0.0000     0.0000     0.0000     0.0000     0.0000     0.0000 </r>
        <r>   -20.4305     0.0000     0.0000     0.0000     0.0000     0.0000     0.0000     0.0000     0.0000     0.0000 </r>
        <r>   -20.3206     0.0000     0.0000     0.0000     0.0000     0.0000     0.0000     0.0000     0.0000     0.0000 </r>
        <r>   -20.2106     0.0000     0.0000     0.0000     0.0000     0.0000     0.0000     0.0000     0.0000     0.0000 </r>
        <r>   -20.1007     0.0000     0.0000     0.0000     0.0000     0.0000     0.0000     0.0000     0.0000     0.0000 </r>
        <r>   -19.9907     0.0000     0.0000     0.0000     0.0000     0.0000     0.0000     0.0000     0.0000     0.0000 </r>
        <r>   -19.8807     0.0000     0.0000     0.0000     0.0000     0.0000     0.0000     0.0000     0.0000     0.0000 </r>
        <r>   -19.7708     0.0000     0.0000     0.0000     0.0000     0.0000     0.0000     0.0000     0.0000     0.0000 </r>
        <r>   -19.6608     0.0000     0.0000     0.0000     0.0000     0.0000     0.0000     0.0000     0.0000     0.0000 </r>
        <r>   -19.5509     0.0000     0.0000     0.0000     0.0000     0.0000     0.0000     0.0000     0.0000     0.0000 </r>
        <r>   -19.4409     0.0000     0.0000     0.0000     0.0000     0.0000     0.0000     0.0000     0.0000     0.0000 </r>
        <r>   -19.3310     0.0000     0.0000     0.0000     0.0000     0.0000     0.0000     0.0000     0.0000     0.0000 </r>
        <r>   -19.2210     0.0000     0.0000     0.0000     0.0000     0.0000     0.0000     0.0000     0.0000     0.0000 </r>
        <r>   -19.1110     0.0000     0.0000     0.0000     0.0000     0.0000     0.0000     0.0000     0.0000     0.0000 </r>
        <r>   -19.0011     0.0000     0.0000     0.0000     0.0000     0.0000     0.0000     0.0000     0.0000     0.0000 </r>
        <r>   -18.8911     0.0000     0.0000     0.0000     0.0000     0.0000     0.0000     0.0000     0.0000     0.0000 </r>
        <r>   -18.7812     0.0000     0.0000     0.0000     0.0000     0.0000     0.0000     0.0000     0.0000     0.0000 </r>
        <r>   -18.6712     0.0000     0.0000     0.0000     0.0000     0.0000     0.0000     0.0000     0.0000     0.0000 </r>
        <r>   -18.5613     0.0000     0.0000     0.0000     0.0000     0.0000     0.0000     0.0000     0.0000     0.0000 </r>
        <r>   -18.4513     0.0000     0.0000     0.0000     0.0000     0.0000     0.0000     0.0000     0.0000     0.0000 </r>
        <r>   -18.3413     0.0000     0.0000     0.0000     0.0000     0.0000     0.0000     0.0000     0.0000     0.0000 </r>
        <r>   -18.2314     0.0000     0.0000     0.0000     0.0000     0.0000     0.0000     0.0000     0.0000     0.0000 </r>
        <r>   -18.1214     0.0000     0.0000     0.0000     0.0000     0.0000     0.0000     0.0000     0.0000     0.0000 </r>
        <r>   -18.0115     0.0000     0.0000     0.0000     0.0000     0.0000     0.0000     0.0000     0.0000     0.0000 </r>
        <r>   -17.9015     0.0000     0.0000     0.0000     0.0000     0.0000     0.0000     0.0000     0.0000     0.0000 </r>
        <r>   -17.7916     0.0000     0.0000     0.0000     0.0000     0.0000     0.0000     0.0000     0.0000     0.0000 </r>
        <r>   -17.6816     0.0000     0.0000     0.0000     0.0000     0.0000     0.0000     0.0000     0.0000     0.0000 </r>
        <r>   -17.5716     0.0000     0.0000     0.0000     0.0000     0.0000     0.0000     0.0000     0.0000     0.0000 </r>
        <r>   -17.4617     0.0000     0.0000     0.0000     0.0000     0.0000     0.0000     0.0000     0.0000     0.0000 </r>
        <r>   -17.3517     0.0000     0.0000     0.0000     0.0000     0.0000     0.0000     0.0000     0.0000     0.0000 </r>
        <r>   -17.2418     0.0000     0.0000     0.0000     0.0000     0.0000     0.0000     0.0000     0.0000     0.0000 </r>
        <r>   -17.1318     0.0000     0.0000     0.0000     0.0000     0.0000     0.0000     0.0000     0.0000     0.0000 </r>
        <r>   -17.0219     0.0000     0.0000     0.0000     0.0000     0.0000     0.0000     0.0000     0.0000     0.0000 </r>
        <r>   -16.9119     0.0000     0.0000     0.0000     0.0000     0.0000     0.0000     0.0000     0.0000     0.0000 </r>
        <r>   -16.8019     0.0000     0.0000     0.0000     0.0000     0.0000     0.0000     0.0000     0.0000     0.0000 </r>
        <r>   -16.6920     0.0000     0.0000     0.0000     0.0000     0.0000     0.0000     0.0000     0.0000     0.0000 </r>
        <r>   -16.5820     0.0000     0.0000     0.0000     0.0000     0.0000     0.0000     0.0000     0.0000     0.0000 </r>
        <r>   -16.4721     0.0000     0.0000     0.0000     0.0000     0.0000     0.0000     0.0000     0.0000     0.0000 </r>
        <r>   -16.3621     0.0000     0.0000     0.0000     0.0000     0.0000     0.0000     0.0000     0.0000     0.0000 </r>
        <r>   -16.2522     0.0000     0.0000     0.0000     0.0000     0.0000     0.0000     0.0000     0.0000     0.0000 </r>
        <r>   -16.1422     0.0027     0.0000     0.0000     0.0000     0.0000     0.0000     0.0000     0.0000     0.0000 </r>
        <r>   -16.0322     0.1127     0.0000     0.0020     0.0000     0.0000     0.0000     0.0000     0.0000     0.0000 </r>
        <r>   -15.9223     0.2010     0.0001     0.0035     0.0001     0.0000     0.0000     0.0000     0.0000     0.0000 </r>
        <r>   -15.8123     0.2195     0.0002     0.0037     0.0003     0.0000     0.0000     0.0000     0.0000     0.0000 </r>
        <r>   -15.7024     0.2548     0.0004     0.0040     0.0004     0.0000     0.0000     0.0000     0.0000     0.0000 </r>
        <r>   -15.5924     0.1889     0.0003     0.0028     0.0004     0.0000     0.0000     0.0000     0.0000     0.0000 </r>
        <r>   -15.4825     0.2971     0.0007     0.0043     0.0006     0.0000     0.0000     0.0000     0.0000     0.0000 </r>
        <r>   -15.3725     0.2294     0.0005     0.0030     0.0006     0.0000     0.0000     0.0000     0.0000     0.0000 </r>
        <r>   -15.2625     0.3261     0.0008     0.0041     0.0008     0.0000     0.0000     0.0000     0.0000     0.0000 </r>
        <r>   -15.1526     0.2608     0.0006     0.0030     0.0006     0.0000     0.0000     0.0000     0.0000     0.0000 </r>
        <r>   -15.0426     0.3845     0.0010     0.0042     0.0009     0.0000     0.0001     0.0000     0.0001     0.0000 </r>
        <r>   -14.9327     0.3111     0.0007     0.0030     0.0007     0.0000     0.0000     0.0000     0.0000     0.0000 </r>
        <r>   -14.8227     0.5502     0.0011     0.0047     0.0009     0.0000     0.0001     0.0000     0.0001     0.0000 </r>
        <r>   -14.7128     0.8343     0.0008     0.0046     0.0007     0.0000     0.0001     0.0001     0.0000     0.0000 </r>
        <r>   -14.6028     1.2187     0.0011     0.0066     0.0007     0.0001     0.0001     0.0001     0.0001     0.0000 </r>
        <r>   -14.4928     1.1523     0.0010     0.0051     0.0006     0.0001     0.0001     0.0001     0.0000     0.0000 </r>
        <r>   -14.3829     0.9922     0.0007     0.0031     0.0006     0.0000     0.0000     0.0000     0.0000     0.0000 </r>
        <r>   -14.2729     1.6506     0.0007     0.0042     0.0012     0.0001     0.0000     0.0000     0.0001     0.0000 </r>
        <r>   -14.1630     2.7396     0.0006     0.0077     0.0023     0.0002     0.0001     0.0000     0.0003     0.0001 </r>
        <r>   -14.0530     0.1298     0.0000     0.0004     0.0001     0.0000     0.0000     0.0000     0.0000     0.0000 </r>
        <r>   -13.9431     0.0000     0.0000     0.0000     0.0000     0.0000     0.0000     0.0000     0.0000     0.0000 </r>
        <r>   -13.8331     0.0000     0.0000     0.0000     0.0000     0.0000     0.0000     0.0000     0.0000     0.0000 </r>
        <r>   -13.7232     0.0000     0.0000     0.0000     0.0000     0.0000     0.0000     0.0000     0.0000     0.0000 </r>
        <r>   -13.6132     0.0000     0.0000     0.0000     0.0000     0.0000     0.0000     0.0000     0.0000     0.0000 </r>
        <r>   -13.5032     0.0000     0.0000     0.0000     0.0000     0.0000     0.0000     0.0000     0.0000     0.0000 </r>
        <r>   -13.3933     0.0000     0.0000     0.0000     0.0000     0.0000     0.0000     0.0000     0.0000     0.0000 </r>
        <r>   -13.2833     0.0000     0.0000     0.0000     0.0000     0.0000     0.0000     0.0000     0.0000     0.0000 </r>
        <r>   -13.1734     0.0000     0.0000     0.0000     0.0000     0.0000     0.0000     0.0000     0.0000     0.0000 </r>
        <r>   -13.0634     0.0000     0.0000     0.0000     0.0000     0.0000     0.0000     0.0000     0.0000     0.0000 </r>
        <r>   -12.9535     0.0000     0.0000     0.0000     0.0000     0.0000     0.0000     0.0000     0.0000     0.0000 </r>
        <r>   -12.8435     0.0000     0.0000     0.0000     0.0000     0.0000     0.0000     0.0000     0.0000     0.0000 </r>
        <r>   -12.7335     0.0000     0.0000     0.0000     0.0000     0.0000     0.0000     0.0000     0.0000     0.0000 </r>
        <r>   -12.6236     0.0000     0.0000     0.0000     0.0000     0.0000     0.0000     0.0000     0.0000     0.0000 </r>
        <r>   -12.5136     0.0000     0.0000     0.0000     0.0000     0.0000     0.0000     0.0000     0.0000     0.0000 </r>
        <r>   -12.4037     0.0000     0.0000     0.0000     0.0000     0.0000     0.0000     0.0000     0.0000     0.0000 </r>
        <r>   -12.2937     0.0000     0.0000     0.0000     0.0000     0.0000     0.0000     0.0000     0.0000     0.0000 </r>
        <r>   -12.1838     0.0000     0.0000     0.0000     0.0000     0.0000     0.0000     0.0000     0.0000     0.0000 </r>
        <r>   -12.0738     0.0000     0.0000     0.0000     0.0000     0.0000     0.0000     0.0000     0.0000     0.0000 </r>
        <r>   -11.9638     0.0000     0.0000     0.0000     0.0000     0.0000     0.0000     0.0000     0.0000     0.0000 </r>
        <r>   -11.8539     0.0000     0.0000     0.0000     0.0000     0.0000     0.0000     0.0000     0.0000     0.0000 </r>
        <r>   -11.7439     0.0000     0.0000     0.0000     0.0000     0.0000     0.0000     0.0000     0.0000     0.0000 </r>
        <r>   -11.6340     0.0000     0.0000     0.0000     0.0000     0.0000     0.0000     0.0000     0.0000     0.0000 </r>
        <r>   -11.5240     0.0000     0.0000     0.0000     0.0000     0.0000     0.0000     0.0000     0.0000     0.0000 </r>
        <r>   -11.4141     0.0000     0.0000     0.0000     0.0000     0.0000     0.0000     0.0000     0.0000     0.0000 </r>
        <r>   -11.3041     0.0000     0.0000     0.0000     0.0000     0.0000     0.0000     0.0000     0.0000     0.0000 </r>
        <r>   -11.1941     0.0000     0.0000     0.0000     0.0000     0.0000     0.0000     0.0000     0.0000     0.0000 </r>
        <r>   -11.0842     0.0000     0.0000     0.0000     0.0000     0.0000     0.0000     0.0000     0.0000     0.0000 </r>
        <r>   -10.9742     0.0000     0.0000     0.0000     0.0000     0.0000     0.0000     0.0000     0.0000     0.0000 </r>
        <r>   -10.8643     0.0000     0.0000     0.0000     0.0000     0.0000     0.0000     0.0000     0.0000     0.0000 </r>
        <r>   -10.7543     0.0000     0.0000     0.0000     0.0000     0.0000     0.0000     0.0000     0.0000     0.0000 </r>
        <r>   -10.6444     0.0000     0.0000     0.0000     0.0000     0.0000     0.0000     0.0000     0.0000     0.0000 </r>
        <r>   -10.5344     0.0000     0.0000     0.0000     0.0000     0.0000     0.0000     0.0000     0.0000     0.0000 </r>
        <r>   -10.4244     0.0000     0.0000     0.0000     0.0000     0.0000     0.0000     0.0000     0.0000     0.0000 </r>
        <r>   -10.3145     0.0000     0.0000     0.0000     0.0000     0.0000     0.0000     0.0000     0.0000     0.0000 </r>
        <r>   -10.2045     0.0000     0.0000     0.0000     0.0000     0.0000     0.0000     0.0000     0.0000     0.0000 </r>
        <r>   -10.0946     0.0000     0.0000     0.0000     0.0000     0.0000     0.0000     0.0000     0.0000     0.0000 </r>
        <r>    -9.9846     0.0000     0.0000     0.0000     0.0000     0.0000     0.0000     0.0000     0.0000     0.0000 </r>
        <r>    -9.8747     0.0000     0.0000     0.0000     0.0000     0.0000     0.0000     0.0000     0.0000     0.0000 </r>
        <r>    -9.7647     0.0001     0.0010     0.0000     0.0010     0.0000     0.0000     0.0000     0.0000     0.0000 </r>
        <r>    -9.6547     0.0130     0.0349     0.0021     0.0470     0.0010     0.0017     0.0000     0.0022     0.0008 </r>
        <r>    -9.5448     0.0645     0.0677     0.0109     0.1206     0.0019     0.0031     0.0000     0.0052     0.0014 </r>
        <r>    -9.4348     0.0608     0.0458     0.0101     0.0728     0.0011     0.0021     0.0000     0.0032     0.0009 </r>
        <r>    -9.3249     0.0449     0.0231     0.0080     0.0411     0.0006     0.0010     0.0000     0.0018     0.0004 </r>
        <r>    -9.2149     0.0607     0.0318     0.0113     0.0385     0.0006     0.0015     0.0000     0.0017     0.0006 </r>
        <r>    -9.1050     0.0394     0.0136     0.0083     0.0234     0.0003     0.0006     0.0000     0.0010     0.0003 </r>
        <r>    -8.9950     0.0768     0.0258     0.0175     0.0325     0.0005     0.0012     0.0000     0.0015     0.0005 </r>
        <r>    -8.8850     0.0475     0.0115     0.0124     0.0178     0.0003     0.0006     0.0000     0.0008     0.0002 </r>
        <r>    -8.7751     0.0784     0.0182     0.0231     0.0199     0.0003     0.0009     0.0000     0.0010     0.0003 </r>
        <r>    -8.6651     0.0569     0.0098     0.0188     0.0132     0.0002     0.0005     0.0000     0.0007     0.0002 </r>
        <r>    -8.5552     0.0987     0.0139     0.0380     0.0152     0.0002     0.0008     0.0001     0.0008     0.0003 </r>
        <r>    -8.4452     0.1010     0.0085     0.0470     0.0104     0.0002     0.0005     0.0001     0.0006     0.0002 </r>
        <r>    -8.3353     0.1520     0.0066     0.0867     0.0071     0.0001     0.0005     0.0002     0.0005     0.0001 </r>
        <r>    -8.2253     0.0804     0.0012     0.0522     0.0014     0.0000     0.0001     0.0001     0.0001     0.0000 </r>
        <r>    -8.1153     0.0005     0.0000     0.0004     0.0000     0.0000     0.0000     0.0000     0.0000     0.0000 </r>
        <r>    -8.0054     0.0000     0.0000     0.0000     0.0000     0.0000     0.0000     0.0000     0.0000     0.0000 </r>
        <r>    -7.8954     0.0000     0.0000     0.0000     0.0000     0.0000     0.0000     0.0000     0.0000     0.0000 </r>
        <r>    -7.7855     0.0000     0.0000     0.0000     0.0000     0.0000     0.0000     0.0000     0.0000     0.0000 </r>
        <r>    -7.6755     0.0000     0.0000     0.0000     0.0000     0.0000     0.0000     0.0000     0.0000     0.0000 </r>
        <r>    -7.5656     0.0000     0.0000     0.0000     0.0000     0.0000     0.0000     0.0000     0.0000     0.0000 </r>
        <r>    -7.4556     0.0000     0.0000     0.0000     0.0000     0.0000     0.0000     0.0000     0.0000     0.0000 </r>
        <r>    -7.3457     0.0000     0.0000     0.0000     0.0000     0.0000     0.0000     0.0000     0.0000     0.0000 </r>
        <r>    -7.2357     0.0000     0.0000     0.0000     0.0000     0.0000     0.0000     0.0000     0.0000     0.0000 </r>
        <r>    -7.1257     0.0000     0.0000     0.0000     0.0000     0.0000     0.0000     0.0000     0.0000     0.0000 </r>
        <r>    -7.0158     0.0006     0.0020     0.0017     0.0058     0.0000     0.0000     0.0000     0.0001     0.0000 </r>
        <r>    -6.9058     0.0107     0.0330     0.0280     0.0951     0.0001     0.0003     0.0004     0.0010     0.0001 </r>
        <r>    -6.7959     0.0159     0.0523     0.0423     0.1307     0.0001     0.0006     0.0007     0.0013     0.0002 </r>
        <r>    -6.6859     0.0145     0.0508     0.0404     0.1170     0.0001     0.0005     0.0006     0.0012     0.0002 </r>
        <r>    -6.5760     0.0187     0.0860     0.0573     0.1535     0.0001     0.0009     0.0009     0.0016     0.0004 </r>
        <r>    -6.4660     0.0124     0.1069     0.0458     0.1227     0.0002     0.0011     0.0009     0.0013     0.0003 </r>
        <r>    -6.3560     0.0154     0.1309     0.0595     0.1421     0.0003     0.0014     0.0011     0.0016     0.0004 </r>
        <r>    -6.2461     0.0074     0.0647     0.0287     0.0603     0.0001     0.0007     0.0006     0.0007     0.0001 </r>
        <r>    -6.1361     0.0173     0.0912     0.0669     0.1038     0.0003     0.0011     0.0010     0.0014     0.0002 </r>
        <r>    -6.0262     0.0084     0.0543     0.0322     0.0524     0.0001     0.0006     0.0005     0.0007     0.0002 </r>
        <r>    -5.9162     0.0187     0.1171     0.0908     0.1126     0.0006     0.0016     0.0011     0.0016     0.0005 </r>
        <r>    -5.8063     0.0092     0.0390     0.0434     0.0449     0.0003     0.0005     0.0004     0.0007     0.0004 </r>
        <r>    -5.6963     0.0109     0.1091     0.0624     0.1000     0.0006     0.0012     0.0009     0.0013     0.0006 </r>
        <r>    -5.5863     0.0172     0.1856     0.1129     0.0973     0.0010     0.0023     0.0010     0.0015     0.0012 </r>
        <r>    -5.4764     0.0074     0.0486     0.0623     0.0276     0.0003     0.0006     0.0005     0.0005     0.0006 </r>
        <r>    -5.3664     0.0127     0.1077     0.0933     0.1525     0.0012     0.0009     0.0010     0.0016     0.0012 </r>
        <r>    -5.2565     0.0154     0.2501     0.1278     0.0876     0.0010     0.0031     0.0009     0.0015     0.0013 </r>
        <r>    -5.1465     0.0137     0.1230     0.1159     0.0646     0.0008     0.0012     0.0008     0.0006     0.0010 </r>
        <r>    -5.0366     0.0270     0.1819     0.2207     0.1921     0.0016     0.0017     0.0011     0.0014     0.0019 </r>
        <r>    -4.9266     0.0430     0.2531     0.3897     0.1806     0.0017     0.0028     0.0013     0.0009     0.0016 </r>
        <r>    -4.8166     0.0140     0.1413     0.1499     0.2351     0.0011     0.0027     0.0006     0.0012     0.0011 </r>
        <r>    -4.7067     0.0133     0.2401     0.1135     0.2272     0.0011     0.0029     0.0011     0.0015     0.0017 </r>
        <r>    -4.5967     0.0048     0.0692     0.0478     0.1317     0.0004     0.0013     0.0002     0.0006     0.0006 </r>
        <r>    -4.4868     0.0037     0.0854     0.0369     0.1143     0.0005     0.0013     0.0003     0.0008     0.0007 </r>
        <r>    -4.3768     0.0099     0.1591     0.0808     0.2105     0.0009     0.0019     0.0008     0.0013     0.0015 </r>
        <r>    -4.2669     0.0041     0.0553     0.0309     0.0943     0.0003     0.0008     0.0002     0.0005     0.0005 </r>
        <r>    -4.1569     0.0035     0.0243     0.0368     0.1089     0.0003     0.0005     0.0001     0.0006     0.0006 </r>
        <r>    -4.0469     0.0072     0.1913     0.0504     0.1360     0.0007     0.0019     0.0006     0.0010     0.0013 </r>
        <r>    -3.9370     0.0040     0.0360     0.0443     0.0574     0.0002     0.0003     0.0002     0.0003     0.0003 </r>
        <r>    -3.8270     0.0084     0.1651     0.2089     0.1935     0.0006     0.0007     0.0005     0.0009     0.0010 </r>
        <r>    -3.7171     0.0089     0.3482     0.5804     0.1689     0.0007     0.0008     0.0005     0.0010     0.0010 </r>
        <r>    -3.6071     0.0048     0.2637     0.3120     0.1270     0.0006     0.0004     0.0005     0.0006     0.0004 </r>
        <r>    -3.4972     0.0062     0.3873     0.4828     0.1603     0.0008     0.0009     0.0004     0.0009     0.0009 </r>
        <r>    -3.3872     0.0120     0.3079     1.1320     0.2835     0.0008     0.0010     0.0007     0.0013     0.0008 </r>
        <r>    -3.2772     0.0082     0.1799     0.6344     0.2756     0.0004     0.0006     0.0006     0.0008     0.0005 </r>
        <r>    -3.1673     0.0045     0.2186     0.5714     0.3887     0.0006     0.0007     0.0003     0.0008     0.0008 </r>
        <r>    -3.0573     0.0023     0.5274     0.5082     0.3994     0.0009     0.0007     0.0002     0.0009     0.0007 </r>
        <r>    -2.9474     0.0019     0.4494     0.0399     0.2296     0.0003     0.0005     0.0002     0.0006     0.0004 </r>
        <r>    -2.8374     0.0020     0.4339     0.0142     0.2155     0.0002     0.0005     0.0002     0.0008     0.0003 </r>
        <r>    -2.7275     0.0009     0.3241     0.0036     0.1731     0.0001     0.0007     0.0000     0.0006     0.0001 </r>
        <r>    -2.6175     0.0000     0.1540     0.0000     0.0528     0.0000     0.0004     0.0000     0.0001     0.0000 </r>
        <r>    -2.5075     0.0000     0.0012     0.0000     0.0004     0.0000     0.0000     0.0000     0.0000     0.0000 </r>
        <r>    -2.3976     0.0000     0.0000     0.0000     0.0000     0.0000     0.0000     0.0000     0.0000     0.0000 </r>
        <r>    -2.2876     0.0000     0.0000     0.0000     0.0000     0.0000     0.0000     0.0000     0.0000     0.0000 </r>
        <r>    -2.1777     0.0000     0.0000     0.0000     0.0000     0.0000     0.0000     0.0000     0.0000     0.0000 </r>
        <r>    -2.0677     0.0000     0.0000     0.0000     0.0000     0.0000     0.0000     0.0000     0.0000     0.0000 </r>
        <r>    -1.9578     0.0002     0.0011     0.0017     0.0034     0.0002     0.0000     0.0000     0.0001     0.0001 </r>
        <r>    -1.8478     0.0016     0.0112     0.0150     0.0332     0.0016     0.0003     0.0002     0.0009     0.0005 </r>
        <r>    -1.7378     0.0027     0.0237     0.0270     0.0604     0.0026     0.0006     0.0003     0.0017     0.0009 </r>
        <r>    -1.6279     0.0038     0.0279     0.0300     0.0819     0.0034     0.0007     0.0004     0.0021     0.0011 </r>
        <r>    -1.5179     0.0006     0.0073     0.0061     0.0157     0.0006     0.0002     0.0001     0.0004     0.0002 </r>
        <r>    -1.4080     0.0057     0.0642     0.0504     0.1420     0.0050     0.0013     0.0006     0.0038     0.0016 </r>
        <r>    -1.2980     0.0019     0.0222     0.0169     0.0501     0.0017     0.0005     0.0002     0.0013     0.0005 </r>
        <r>    -1.1881     0.0028     0.0420     0.0264     0.0751     0.0019     0.0008     0.0002     0.0020     0.0006 </r>
        <r>    -1.0781     0.0063     0.0808     0.0532     0.1487     0.0041     0.0015     0.0005     0.0037     0.0014 </r>
        <r>    -0.9682     0.0100     0.1164     0.0671     0.1788     0.0034     0.0024     0.0004     0.0046     0.0012 </r>
        <r>    -0.8582     0.0082     0.1948     0.0619     0.2355     0.0017     0.0050     0.0002     0.0061     0.0010 </r>
        <r>    -0.7482     0.0054     0.1218     0.0707     0.1864     0.0039     0.0026     0.0004     0.0032     0.0019 </r>
        <r>    -0.6383     0.0150     0.1087     0.0980     0.1458     0.0027     0.0017     0.0004     0.0019     0.0016 </r>
        <r>    -0.5283     0.0130     0.0921     0.0977     0.1178     0.0024     0.0010     0.0003     0.0009     0.0019 </r>
        <r>    -0.4184     0.0165     0.1069     0.1156     0.1121     0.0025     0.0007     0.0004     0.0007     0.0019 </r>
        <r>    -0.3084     0.0011     0.0113     0.0090     0.0060     0.0001     0.0001     0.0000     0.0000     0.0002 </r>
        <r>    -0.1985     0.0000     0.0000     0.0000     0.0000     0.0000     0.0000     0.0000     0.0000     0.0000 </r>
        <r>    -0.0885     0.0000     0.0000     0.0000     0.0000     0.0000     0.0000     0.0000     0.0000     0.0000 </r>
        <r>     0.0215     0.0000     0.0000     0.0000     0.0000     0.0000     0.0000     0.0000     0.0000     0.0000 </r>
        <r>     0.1314     0.0000     0.0000     0.0000     0.0000     0.0000     0.0000     0.0000     0.0000     0.0000 </r>
        <r>     0.2414     0.0000     0.0000     0.0000     0.0000     0.0000     0.0000     0.0000     0.0000     0.0000 </r>
        <r>     0.3513     0.0008     0.0000     0.0001     0.0000     0.0000     0.0000     0.0002     0.0000     0.0000 </r>
        <r>     0.4613     0.0028     0.0000     0.0003     0.0000     0.0000     0.0000     0.0006     0.0000     0.0000 </r>
        <r>     0.5712     0.0035     0.0003     0.0004     0.0008     0.0000     0.0000     0.0008     0.0000     0.0000 </r>
        <r>     0.6812     0.0160     0.0013     0.0016     0.0039     0.0001     0.0000     0.0038     0.0000     0.0000 </r>
        <r>     0.7912     0.0003     0.0000     0.0000     0.0001     0.0000     0.0000     0.0001     0.0000     0.0000 </r>
        <r>     0.9011     0.0023     0.0011     0.0002     0.0006     0.0000     0.0000     0.0006     0.0000     0.0000 </r>
        <r>     1.0111     0.0260     0.0093     0.0032     0.0090     0.0011     0.0001     0.0060     0.0002     0.0004 </r>
        <r>     1.1210     0.0107     0.0011     0.0036     0.0027     0.0012     0.0001     0.0016     0.0003     0.0004 </r>
        <r>     1.2310     0.0212     0.0050     0.0079     0.0047     0.0033     0.0002     0.0028     0.0008     0.0007 </r>
        <r>     1.3409     0.0460     0.0115     0.0289     0.0076     0.0084     0.0003     0.0042     0.0017     0.0017 </r>
        <r>     1.4509     0.0624     0.0079     0.0789     0.0053     0.0196     0.0003     0.0014     0.0014     0.0059 </r>
        <r>     1.5609     0.0752     0.0229     0.1079     0.0052     0.0259     0.0005     0.0009     0.0016     0.0076 </r>
        <r>     1.6708     0.0629     0.0290     0.0806     0.0157     0.0215     0.0014     0.0021     0.0020     0.0089 </r>
        <r>     1.7808     0.0496     0.0308     0.0241     0.0497     0.0114     0.0034     0.0039     0.0048     0.0089 </r>
        <r>     1.8907     0.0475     0.0383     0.0495     0.0305     0.0141     0.0035     0.0017     0.0046     0.0060 </r>
        <r>     2.0007     0.0714     0.0792     0.1120     0.0374     0.0265     0.0118     0.0008     0.0086     0.0117 </r>
        <r>     2.1106     0.0269     0.0503     0.0315     0.0319     0.0069     0.0219     0.0013     0.0110     0.0028 </r>
        <r>     2.2206     0.0446     0.0640     0.0483     0.0873     0.0077     0.0220     0.0059     0.0096     0.0117 </r>
        <r>     2.3306     0.0391     0.0469     0.0679     0.0489     0.0040     0.0191     0.0047     0.0079     0.0044 </r>
        <r>     2.4405     0.0271     0.0884     0.0643     0.0402     0.0078     0.0213     0.0043     0.0109     0.0077 </r>
        <r>     2.5505     0.0446     0.1710     0.0825     0.0406     0.0091     0.0446     0.0062     0.0130     0.0114 </r>
        <r>     2.6604     0.0610     0.2717     0.1553     0.1213     0.0181     0.0662     0.0276     0.0471     0.0169 </r>
        <r>     2.7704     0.0414     0.1975     0.1338     0.1167     0.0094     0.0403     0.0283     0.0424     0.0094 </r>
        <r>     2.8803     0.0244     0.1159     0.0626     0.1327     0.0093     0.0204     0.0216     0.0314     0.0060 </r>
        <r>     2.9903     0.0175     0.1567     0.0304     0.1946     0.0204     0.0408     0.0176     0.0520     0.0060 </r>
        <r>     3.1003     0.0099     0.0883     0.0520     0.1091     0.0233     0.0187     0.0206     0.0341     0.0103 </r>
        <r>     3.2102     0.0091     0.0221     0.0449     0.0612     0.0129     0.0026     0.0130     0.0172     0.0062 </r>
        <r>     3.3202     0.0053     0.0154     0.0458     0.0254     0.0177     0.0047     0.0160     0.0120     0.0088 </r>
        <r>     3.4301     0.0105     0.0612     0.0491     0.0760     0.0303     0.0075     0.0168     0.0198     0.0160 </r>
        <r>     3.5401     0.0051     0.0220     0.0331     0.0336     0.0177     0.0031     0.0116     0.0082     0.0090 </r>
        <r>     3.6500     0.0084     0.0242     0.0587     0.0437     0.0296     0.0054     0.0215     0.0095     0.0171 </r>
        <r>     3.7600     0.0047     0.0412     0.0328     0.0556     0.0352     0.0093     0.0205     0.0119     0.0201 </r>
        <r>     3.8700     0.0032     0.0168     0.0332     0.0300     0.0245     0.0063     0.0148     0.0069     0.0161 </r>
        <r>     3.9799     0.0013     0.0037     0.0225     0.0123     0.0124     0.0028     0.0077     0.0024     0.0100 </r>
        <r>     4.0899     0.0016     0.0026     0.0391     0.0138     0.0166     0.0027     0.0108     0.0028     0.0125 </r>
        <r>     4.1998     0.0025     0.0035     0.0614     0.0062     0.0049     0.0017     0.0036     0.0050     0.0041 </r>
        <r>     4.3098     0.0035     0.0105     0.0305     0.0133     0.0211     0.0037     0.0122     0.0065     0.0091 </r>
        <r>     4.4197     0.0029     0.0211     0.0501     0.0187     0.0308     0.0079     0.0203     0.0115     0.0211 </r>
        <r>     4.5297     0.0059     0.0252     0.0414     0.0271     0.0271     0.0054     0.0172     0.0097     0.0211 </r>
        <r>     4.6397     0.0027     0.0107     0.0159     0.0127     0.0056     0.0037     0.0040     0.0023     0.0128 </r>
        <r>     4.7496     0.0029     0.0072     0.0170     0.0101     0.0011     0.0017     0.0015     0.0038     0.0030 </r>
        <r>     4.8596     0.0041     0.0186     0.0211     0.0110     0.0029     0.0008     0.0027     0.0066     0.0025 </r>
        <r>     4.9695     0.0038     0.0123     0.0116     0.0139     0.0052     0.0037     0.0040     0.0059     0.0064 </r>
        <r>     5.0795     0.0029     0.0186     0.0106     0.0219     0.0139     0.0091     0.0069     0.0118     0.0178 </r>
        <r>     5.1894     0.0029     0.0094     0.0129     0.0128     0.0021     0.0009     0.0036     0.0042     0.0043 </r>
        <r>     5.2994     0.0031     0.0118     0.0138     0.0146     0.0043     0.0010     0.0063     0.0043     0.0074 </r>
        <r>     5.4093     0.0022     0.0100     0.0113     0.0128     0.0022     0.0034     0.0049     0.0080     0.0115 </r>
        <r>     5.5193     0.0023     0.0071     0.0116     0.0105     0.0013     0.0010     0.0019     0.0018     0.0019 </r>
        <r>     5.6293     0.0039     0.0107     0.0058     0.0216     0.0016     0.0023     0.0059     0.0055     0.0063 </r>
        <r>     5.7392     0.0022     0.0109     0.0170     0.0145     0.0012     0.0011     0.0025     0.0033     0.0028 </r>
        <r>     5.8492     0.0021     0.0117     0.0152     0.0375     0.0036     0.0043     0.0082     0.0092     0.0178 </r>
        <r>     5.9591     0.0036     0.0235     0.0124     0.0238     0.0082     0.0097     0.0076     0.0060     0.0093 </r>
        <r>     6.0691     0.0019     0.0186     0.0115     0.0238     0.0072     0.0070     0.0051     0.0041     0.0050 </r>
        <r>     6.1790     0.0002     0.0116     0.0114     0.0111     0.0032     0.0046     0.0019     0.0021     0.0012 </r>
        <r>     6.2890     0.0000     0.0003     0.0003     0.0002     0.0001     0.0001     0.0000     0.0000     0.0000 </r>
        <r>     6.3990     0.0000     0.0000     0.0000     0.0000     0.0000     0.0000     0.0000     0.0000     0.0000 </r>
        <r>     6.5089     0.0000     0.0000     0.0000     0.0000     0.0000     0.0000     0.0000     0.0000     0.0000 </r>
        <r>     6.6189     0.0000     0.0000     0.0000     0.0000     0.0000     0.0000     0.0000     0.0000     0.0000 </r>
        <r>     6.7288     0.0000     0.0000     0.0000     0.0000     0.0000     0.0000     0.0000     0.0000     0.0000 </r>
        <r>     6.8388     0.0000     0.0000     0.0000     0.0000     0.0000     0.0000     0.0000     0.0000     0.0000 </r>
        <r>     6.9487     0.0000     0.0000     0.0000     0.0000     0.0000     0.0000     0.0000     0.0000     0.0000 </r>
        <r>     7.0587     0.0000     0.0000     0.0000     0.0000     0.0000     0.0000     0.0000     0.0000     0.0000 </r>
        <r>     7.1687     0.0000     0.0000     0.0000     0.0000     0.0000     0.0000     0.0000     0.0000     0.0000 </r>
        <r>     7.2786     0.0000     0.0000     0.0000     0.0000     0.0000     0.0000     0.0000     0.0000     0.0000 </r>
        <r>     7.3886     0.0000     0.0000     0.0000     0.0000     0.0000     0.0000     0.0000     0.0000     0.0000 </r>
        <r>     7.4985     0.0000     0.0000     0.0000     0.0000     0.0000     0.0000     0.0000     0.0000     0.0000 </r>
        <r>     7.6085     0.0000     0.0000     0.0000     0.0000     0.0000     0.0000     0.0000     0.0000     0.0000 </r>
       </set>
      </set>
     </set>
    </array>
   </partial>
  </dos>
  <projected>
   <eigenvalues>
    <array>
     <dimension dim="1">band</dimension>
     <dimension dim="2">kpoint</dimension>
     <dimension dim="3">spin</dimension>
     <field>eigene</field>
     <field>occ</field>
     <set>
      <set comment="spin 1">
       <set comment="kpoint 1">
        <r>  -23.8356    1.0000 </r>
        <r>  -23.8356    1.0000 </r>
        <r>  -23.7998    1.0000 </r>
        <r>  -23.7908    1.0000 </r>
        <r>  -23.7908    1.0000 </r>
        <r>  -16.0948    1.0000 </r>
        <r>  -14.8202    1.0000 </r>
        <r>   -8.3022    1.0000 </r>
        <r>   -3.8080    1.0000 </r>
        <r>   -3.1564    1.0000 </r>
        <r>   -3.1564    1.0000 </r>
        <r>   -2.7754    1.0000 </r>
        <r>   -2.7754    1.0000 </r>
        <r>   -1.1689    0.0000 </r>
        <r>    0.3794    0.0000 </r>
        <r>    1.8886    0.0000 </r>
        <r>    1.8886    0.0000 </r>
        <r>    2.8615    0.0000 </r>
        <r>    3.0131    0.0000 </r>
        <r>    3.9908    0.0000 </r>
       </set>
       <set comment="kpoint 2">
        <r>  -23.8367    1.0000 </r>
        <r>  -23.8345    1.0000 </r>
        <r>  -23.7990    1.0000 </r>
        <r>  -23.7916    1.0000 </r>
        <r>  -23.7908    1.0000 </r>
        <r>  -16.0661    1.0000 </r>
        <r>  -14.8002    1.0000 </r>
        <r>   -8.3085    1.0000 </r>
        <r>   -3.7946    1.0000 </r>
        <r>   -3.4728    1.0000 </r>
        <r>   -3.2712    1.0000 </r>
        <r>   -2.9417    1.0000 </r>
        <r>   -2.7354    1.0000 </r>
        <r>   -0.9673    0.0000 </r>
        <r>    0.6044    0.0000 </r>
        <r>    1.7873    0.0000 </r>
        <r>    1.9611    0.0000 </r>
        <r>    2.9465    0.0000 </r>
        <r>    3.0388    0.0000 </r>
        <r>    4.0565    0.0000 </r>
       </set>
       <set comment="kpoint 3">
        <r>  -23.8397    1.0000 </r>
        <r>  -23.8313    1.0000 </r>
        <r>  -23.7970    1.0000 </r>
        <r>  -23.7936    1.0000 </r>
        <r>  -23.7907    1.0000 </r>
        <r>  -15.9809    1.0000 </r>
        <r>  -14.7420    1.0000 </r>
        <r>   -8.3343    1.0000 </r>
        <r>   -4.1211    1.0000 </r>
        <r>   -3.7557    1.0000 </r>
        <r>   -3.5161    1.0000 </r>
        <r>   -3.3593    1.0000 </r>
        <r>   -2.6981    1.0000 </r>
        <r>   -0.6293    0.0000 </r>
        <r>    0.9893    0.0000 </r>
        <r>    1.7579    0.0000 </r>
        <r>    2.1563    0.0000 </r>
        <r>    3.0985    0.0000 </r>
        <r>    3.1600    0.0000 </r>
        <r>    4.2333    0.0000 </r>
       </set>
       <set comment="kpoint 4">
        <r>  -23.8449    1.0000 </r>
        <r>  -23.8268    1.0000 </r>
        <r>  -23.7978    1.0000 </r>
        <r>  -23.7923    1.0000 </r>
        <r>  -23.7902    1.0000 </r>
        <r>  -15.8422    1.0000 </r>
        <r>  -14.6521    1.0000 </r>
        <r>   -8.4003    1.0000 </r>
        <r>   -4.8146    1.0000 </r>
        <r>   -3.9240    1.0000 </r>
        <r>   -3.8020    1.0000 </r>
        <r>   -3.6254    1.0000 </r>
        <r>   -2.7103    1.0000 </r>
        <r>   -0.5180    0.0000 </r>
        <r>    1.1296    0.0000 </r>
        <r>    2.1933    0.0000 </r>
        <r>    2.4158    0.0000 </r>
        <r>    3.1984    0.0000 </r>
        <r>    3.4423    0.0000 </r>
        <r>    4.4496    0.0000 </r>
       </set>
       <set comment="kpoint 5">
        <r>  -23.8518    1.0000 </r>
        <r>  -23.8219    1.0000 </r>
        <r>  -23.8014    1.0000 </r>
        <r>  -23.7888    1.0000 </r>
        <r>  -23.7875    1.0000 </r>
        <r>  -15.6557    1.0000 </r>
        <r>  -14.5413    1.0000 </r>
        <r>   -8.5356    1.0000 </r>
        <r>   -5.4507    1.0000 </r>
        <r>   -4.3616    1.0000 </r>
        <r>   -4.0877    1.0000 </r>
        <r>   -3.5625    1.0000 </r>
        <r>   -2.7631    1.0000 </r>
        <r>   -0.7252    0.0000 </r>
        <r>    1.2799    0.0000 </r>
        <r>    2.6430    0.0000 </r>
        <r>    2.6663    0.0000 </r>
        <r>    3.3339    0.0000 </r>
        <r>    3.7986    0.0000 </r>
        <r>    4.3037    0.0000 </r>
       </set>
       <set comment="kpoint 6">
        <r>  -23.8596    1.0000 </r>
        <r>  -23.8179    1.0000 </r>
        <r>  -23.8049    1.0000 </r>
        <r>  -23.7862    1.0000 </r>
        <r>  -23.7823    1.0000 </r>
        <r>  -15.4310    1.0000 </r>
        <r>  -14.4260    1.0000 </r>
        <r>   -8.7584    1.0000 </r>
        <r>   -5.9828    1.0000 </r>
        <r>   -4.7044    1.0000 </r>
        <r>   -4.3474    1.0000 </r>
        <r>   -3.4827    1.0000 </r>
        <r>   -2.8364    1.0000 </r>
        <r>   -1.0742    0.0000 </r>
        <r>    1.4086    0.0000 </r>
        <r>    2.7645    0.0000 </r>
        <r>    2.8515    0.0000 </r>
        <r>    3.5618    0.0000 </r>
        <r>    4.0591    0.0000 </r>
        <r>    4.2750    0.0000 </r>
       </set>
       <set comment="kpoint 7">
        <r>  -23.8672    1.0000 </r>
        <r>  -23.8153    1.0000 </r>
        <r>  -23.8081    1.0000 </r>
        <r>  -23.7825    1.0000 </r>
        <r>  -23.7772    1.0000 </r>
        <r>  -15.1836    1.0000 </r>
        <r>  -14.3269    1.0000 </r>
        <r>   -9.0463    1.0000 </r>
        <r>   -6.4051    1.0000 </r>
        <r>   -4.9037    1.0000 </r>
        <r>   -4.5639    1.0000 </r>
        <r>   -3.4212    1.0000 </r>
        <r>   -2.9117    1.0000 </r>
        <r>   -1.4235    0.0000 </r>
        <r>    1.4480    0.0000 </r>
        <r>    2.6880    0.0000 </r>
        <r>    2.9557    0.0000 </r>
        <r>    3.5933    0.0000 </r>
        <r>    4.1889    0.0000 </r>
        <r>    4.6943    0.0000 </r>
       </set>
       <set comment="kpoint 8">
        <r>  -23.8735    1.0000 </r>
        <r>  -23.8140    1.0000 </r>
        <r>  -23.8105    1.0000 </r>
        <r>  -23.7786    1.0000 </r>
        <r>  -23.7731    1.0000 </r>
        <r>  -14.9377    1.0000 </r>
        <r>  -14.2670    1.0000 </r>
        <r>   -9.3335    1.0000 </r>
        <r>   -6.7215    1.0000 </r>
        <r>   -4.9747    1.0000 </r>
        <r>   -4.7257    1.0000 </r>
        <r>   -3.3952    1.0000 </r>
        <r>   -2.9748    1.0000 </r>
        <r>   -1.7024    0.0000 </r>
        <r>    1.4250    0.0000 </r>
        <r>    2.6143    0.0000 </r>
        <r>    2.9989    0.0000 </r>
        <r>    3.3501    0.0000 </r>
        <r>    4.6305    0.0000 </r>
        <r>    5.1718    0.0000 </r>
       </set>
       <set comment="kpoint 9">
        <r>  -23.8777    1.0000 </r>
        <r>  -23.8135    1.0000 </r>
        <r>  -23.8120    1.0000 </r>
        <r>  -23.7758    1.0000 </r>
        <r>  -23.7704    1.0000 </r>
        <r>  -14.7333    1.0000 </r>
        <r>  -14.2584    1.0000 </r>
        <r>   -9.5438    1.0000 </r>
        <r>   -6.9225    1.0000 </r>
        <r>   -4.9738    1.0000 </r>
        <r>   -4.8255    1.0000 </r>
        <r>   -3.4010    1.0000 </r>
        <r>   -3.0163    1.0000 </r>
        <r>   -1.8751    0.0000 </r>
        <r>    1.3877    0.0000 </r>
        <r>    2.6213    0.0000 </r>
        <r>    3.0107    0.0000 </r>
        <r>    3.0913    0.0000 </r>
        <r>    5.1930    0.0000 </r>
        <r>    5.6795    0.0000 </r>
       </set>
       <set comment="kpoint 10">
        <r>  -23.8792    1.0000 </r>
        <r>  -23.8134    1.0000 </r>
        <r>  -23.8125    1.0000 </r>
        <r>  -23.7748    1.0000 </r>
        <r>  -23.7694    1.0000 </r>
        <r>  -14.6437    1.0000 </r>
        <r>  -14.2713    1.0000 </r>
        <r>   -9.6208    1.0000 </r>
        <r>   -6.9920    1.0000 </r>
        <r>   -4.9641    1.0000 </r>
        <r>   -4.8592    1.0000 </r>
        <r>   -3.4096    1.0000 </r>
        <r>   -3.0307    1.0000 </r>
        <r>   -1.9321    0.0000 </r>
        <r>    1.3710    0.0000 </r>
        <r>    2.6654    0.0000 </r>
        <r>    2.9561    0.0000 </r>
        <r>    3.0121    0.0000 </r>
        <r>    5.7994    0.0000 </r>
        <r>    5.8601    0.0000 </r>
       </set>
       <set comment="kpoint 11">
        <r>  -23.8386    1.0000 </r>
        <r>  -23.8325    1.0000 </r>
        <r>  -23.7976    1.0000 </r>
        <r>  -23.7931    1.0000 </r>
        <r>  -23.7907    1.0000 </r>
        <r>  -16.0091    1.0000 </r>
        <r>  -14.7610    1.0000 </r>
        <r>   -8.3245    1.0000 </r>
        <r>   -3.8557    1.0000 </r>
        <r>   -3.7744    1.0000 </r>
        <r>   -3.6499    1.0000 </r>
        <r>   -2.9995    1.0000 </r>
        <r>   -2.8111    1.0000 </r>
        <r>   -0.7073    0.0000 </r>
        <r>    0.9415    0.0000 </r>
        <r>    1.6608    0.0000 </r>
        <r>    2.1234    0.0000 </r>
        <r>    3.0846    0.0000 </r>
        <r>    3.0899    0.0000 </r>
        <r>    4.1778    0.0000 </r>
       </set>
       <set comment="kpoint 12">
        <r>  -23.8424    1.0000 </r>
        <r>  -23.8290    1.0000 </r>
        <r>  -23.7962    1.0000 </r>
        <r>  -23.7944    1.0000 </r>
        <r>  -23.7902    1.0000 </r>
        <r>  -15.8971    1.0000 </r>
        <r>  -14.6869    1.0000 </r>
        <r>   -8.3701    1.0000 </r>
        <r>   -4.4709    1.0000 </r>
        <r>   -4.0888    1.0000 </r>
        <r>   -3.7444    1.0000 </r>
        <r>   -3.2579    1.0000 </r>
        <r>   -2.8348    1.0000 </r>
        <r>   -0.4911    0.0000 </r>
        <r>    1.2398    0.0000 </r>
        <r>    1.7627    0.0000 </r>
        <r>    2.4023    0.0000 </r>
        <r>    3.1891    0.0000 </r>
        <r>    3.3175    0.0000 </r>
        <r>    4.3907    0.0000 </r>
       </set>
       <set comment="kpoint 13">
        <r>  -23.8482    1.0000 </r>
        <r>  -23.8246    1.0000 </r>
        <r>  -23.7994    1.0000 </r>
        <r>  -23.7916    1.0000 </r>
        <r>  -23.7879    1.0000 </r>
        <r>  -15.7343    1.0000 </r>
        <r>  -14.5863    1.0000 </r>
        <r>   -8.4702    1.0000 </r>
        <r>   -5.1311    1.0000 </r>
        <r>   -4.4562    1.0000 </r>
        <r>   -3.8438    1.0000 </r>
        <r>   -3.4859    1.0000 </r>
        <r>   -2.8601    1.0000 </r>
        <r>   -0.5373    0.0000 </r>
        <r>    1.3431    0.0000 </r>
        <r>    2.2242    0.0000 </r>
        <r>    2.6578    0.0000 </r>
        <r>    3.3385    0.0000 </r>
        <r>    3.6319    0.0000 </r>
        <r>    4.4443    0.0000 </r>
       </set>
       <set comment="kpoint 14">
        <r>  -23.8553    1.0000 </r>
        <r>  -23.8205    1.0000 </r>
        <r>  -23.8028    1.0000 </r>
        <r>  -23.7891    1.0000 </r>
        <r>  -23.7834    1.0000 </r>
        <r>  -15.5283    1.0000 </r>
        <r>  -14.4727    1.0000 </r>
        <r>   -8.6502    1.0000 </r>
        <r>   -5.7158    1.0000 </r>
        <r>   -4.7536    1.0000 </r>
        <r>   -4.1530    1.0000 </r>
        <r>   -3.4840    1.0000 </r>
        <r>   -2.9145    1.0000 </r>
        <r>   -0.8033    0.0000 </r>
        <r>    1.4820    0.0000 </r>
        <r>    2.6066    0.0000 </r>
        <r>    2.7712    0.0000 </r>
        <r>    3.5326    0.0000 </r>
        <r>    3.9912    0.0000 </r>
        <r>    4.2746    0.0000 </r>
       </set>
       <set comment="kpoint 15">
        <r>  -23.8628    1.0000 </r>
        <r>  -23.8175    1.0000 </r>
        <r>  -23.8061    1.0000 </r>
        <r>  -23.7858    1.0000 </r>
        <r>  -23.7784    1.0000 </r>
        <r>  -15.2911    1.0000 </r>
        <r>  -14.3644    1.0000 </r>
        <r>   -8.9096    1.0000 </r>
        <r>   -6.1926    1.0000 </r>
        <r>   -4.9479    1.0000 </r>
        <r>   -4.4603    1.0000 </r>
        <r>   -3.4411    1.0000 </r>
        <r>   -2.9762    1.0000 </r>
        <r>   -1.1382    0.0000 </r>
        <r>    1.5714    0.0000 </r>
        <r>    2.6950    0.0000 </r>
        <r>    2.8634    0.0000 </r>
        <r>    3.6694    0.0000 </r>
        <r>    4.1328    0.0000 </r>
        <r>    4.5109    0.0000 </r>
       </set>
       <set comment="kpoint 16">
        <r>  -23.8696    1.0000 </r>
        <r>  -23.8158    1.0000 </r>
        <r>  -23.8087    1.0000 </r>
        <r>  -23.7818    1.0000 </r>
        <r>  -23.7741    1.0000 </r>
        <r>  -15.0423    1.0000 </r>
        <r>  -14.2839    1.0000 </r>
        <r>   -9.2028    1.0000 </r>
        <r>   -6.5599    1.0000 </r>
        <r>   -5.0321    1.0000 </r>
        <r>   -4.7039    1.0000 </r>
        <r>   -3.4139    1.0000 </r>
        <r>   -3.0324    1.0000 </r>
        <r>   -1.4448    0.0000 </r>
        <r>    1.5861    0.0000 </r>
        <r>    2.6350    0.0000 </r>
        <r>    2.9280    0.0000 </r>
        <r>    3.5293    0.0000 </r>
        <r>    4.4401    0.0000 </r>
        <r>    4.9632    0.0000 </r>
       </set>
       <set comment="kpoint 17">
        <r>  -23.8747    1.0000 </r>
        <r>  -23.8150    1.0000 </r>
        <r>  -23.8107    1.0000 </r>
        <r>  -23.7780    1.0000 </r>
        <r>  -23.7712    1.0000 </r>
        <r>  -14.8122    1.0000 </r>
        <r>  -14.2508    1.0000 </r>
        <r>   -9.4567    1.0000 </r>
        <r>   -6.8160    1.0000 </r>
        <r>   -5.0374    1.0000 </r>
        <r>   -4.8715    1.0000 </r>
        <r>   -3.4040    1.0000 </r>
        <r>   -3.0841    1.0000 </r>
        <r>   -1.6680    0.0000 </r>
        <r>    1.5612    0.0000 </r>
        <r>    2.6218    0.0000 </r>
        <r>    2.9326    0.0000 </r>
        <r>    3.2780    0.0000 </r>
        <r>    4.9392    0.0000 </r>
        <r>    5.4618    0.0000 </r>
       </set>
       <set comment="kpoint 18">
        <r>  -23.8775    1.0000 </r>
        <r>  -23.8147    1.0000 </r>
        <r>  -23.8116    1.0000 </r>
        <r>  -23.7758    1.0000 </r>
        <r>  -23.7697    1.0000 </r>
        <r>  -14.6542    1.0000 </r>
        <r>  -14.2613    1.0000 </r>
        <r>   -9.6034    1.0000 </r>
        <r>   -6.9494    1.0000 </r>
        <r>   -5.0118    1.0000 </r>
        <r>   -4.9637    1.0000 </r>
        <r>   -3.4000    1.0000 </r>
        <r>   -3.1228    1.0000 </r>
        <r>   -1.7816    0.0000 </r>
        <r>    1.5369    0.0000 </r>
        <r>    2.6734    0.0000 </r>
        <r>    2.9223    0.0000 </r>
        <r>    3.0705    0.0000 </r>
        <r>    5.5351    0.0000 </r>
        <r>    5.9707    0.0000 </r>
       </set>
       <set comment="kpoint 19">
        <r>  -23.8464    1.0000 </r>
        <r>  -23.8262    1.0000 </r>
        <r>  -23.7981    1.0000 </r>
        <r>  -23.7933    1.0000 </r>
        <r>  -23.7878    1.0000 </r>
        <r>  -15.7609    1.0000 </r>
        <r>  -14.6020    1.0000 </r>
        <r>   -8.4492    1.0000 </r>
        <r>   -4.8048    1.0000 </r>
        <r>   -4.7524    1.0000 </r>
        <r>   -3.7692    1.0000 </r>
        <r>   -3.1856    1.0000 </r>
        <r>   -3.1301    1.0000 </r>
        <r>   -0.4345    0.0000 </r>
        <r>    1.6274    0.0000 </r>
        <r>    1.7703    0.0000 </r>
        <r>    2.6588    0.0000 </r>
        <r>    3.3850    0.0000 </r>
        <r>    3.5482    0.0000 </r>
        <r>    4.5740    0.0000 </r>
       </set>
       <set comment="kpoint 20">
        <r>  -23.8517    1.0000 </r>
        <r>  -23.8234    1.0000 </r>
        <r>  -23.8008    1.0000 </r>
        <r>  -23.7920    1.0000 </r>
        <r>  -23.7834    1.0000 </r>
        <r>  -15.5780    1.0000 </r>
        <r>  -14.4978    1.0000 </r>
        <r>   -8.5942    1.0000 </r>
        <r>   -5.4001    1.0000 </r>
        <r>   -5.0376    1.0000 </r>
        <r>   -3.9345    1.0000 </r>
        <r>   -3.4072    1.0000 </r>
        <r>   -3.1362    1.0000 </r>
        <r>   -0.5305    0.0000 </r>
        <r>    1.7307    0.0000 </r>
        <r>    2.1722    0.0000 </r>
        <r>    2.7739    0.0000 </r>
        <r>    3.6210    0.0000 </r>
        <r>    3.8576    0.0000 </r>
        <r>    4.4365    0.0000 </r>
       </set>
       <set comment="kpoint 21">
        <r>  -23.8579    1.0000 </r>
        <r>  -23.8210    1.0000 </r>
        <r>  -23.8035    1.0000 </r>
        <r>  -23.7898    1.0000 </r>
        <r>  -23.7786    1.0000 </r>
        <r>  -15.3582    1.0000 </r>
        <r>  -14.3898    1.0000 </r>
        <r>   -8.8152    1.0000 </r>
        <r>   -5.9320    1.0000 </r>
        <r>   -5.2009    1.0000 </r>
        <r>   -4.2680    1.0000 </r>
        <r>   -3.5080    1.0000 </r>
        <r>   -3.1241    1.0000 </r>
        <r>   -0.7560    0.0000 </r>
        <r>    1.8254    0.0000 </r>
        <r>    2.4622    0.0000 </r>
        <r>    2.8623    0.0000 </r>
        <r>    3.7760    0.0000 </r>
        <r>    4.1573    0.0000 </r>
        <r>    4.4720    0.0000 </r>
       </set>
       <set comment="kpoint 22">
        <r>  -23.8641    1.0000 </r>
        <r>  -23.8194    1.0000 </r>
        <r>  -23.8059    1.0000 </r>
        <r>  -23.7864    1.0000 </r>
        <r>  -23.7744    1.0000 </r>
        <r>  -15.1168    1.0000 </r>
        <r>  -14.2980    1.0000 </r>
        <r>   -9.0893    1.0000 </r>
        <r>   -6.3485    1.0000 </r>
        <r>   -5.2798    1.0000 </r>
        <r>   -4.6081    1.0000 </r>
        <r>   -3.5429    1.0000 </r>
        <r>   -3.1263    1.0000 </r>
        <r>   -1.0291    0.0000 </r>
        <r>    1.8995    0.0000 </r>
        <r>    2.5146    0.0000 </r>
        <r>    2.9652    0.0000 </r>
        <r>    3.7493    0.0000 </r>
        <r>    4.3838    0.0000 </r>
        <r>    4.8286    0.0000 </r>
       </set>
       <set comment="kpoint 23">
        <r>  -23.8694    1.0000 </r>
        <r>  -23.8187    1.0000 </r>
        <r>  -23.8079    1.0000 </r>
        <r>  -23.7823    1.0000 </r>
        <r>  -23.7715    1.0000 </r>
        <r>  -14.8775    1.0000 </r>
        <r>  -14.2436    1.0000 </r>
        <r>   -9.3596    1.0000 </r>
        <r>   -6.6473    1.0000 </r>
        <r>   -5.3056    1.0000 </r>
        <r>   -4.8665    1.0000 </r>
        <r>   -3.5335    1.0000 </r>
        <r>   -3.1641    1.0000 </r>
        <r>   -1.2723    0.0000 </r>
        <r>    1.9344    0.0000 </r>
        <r>    2.5273    0.0000 </r>
        <r>    2.9610    0.0000 </r>
        <r>    3.5622    0.0000 </r>
        <r>    4.7834    0.0000 </r>
        <r>    5.3025    0.0000 </r>
       </set>
       <set comment="kpoint 24">
        <r>  -23.8729    1.0000 </r>
        <r>  -23.8184    1.0000 </r>
        <r>  -23.8092    1.0000 </r>
        <r>  -23.7789    1.0000 </r>
        <r>  -23.7702    1.0000 </r>
        <r>  -14.6785    1.0000 </r>
        <r>  -14.2383    1.0000 </r>
        <r>   -9.5576    1.0000 </r>
        <r>   -6.8290    1.0000 </r>
        <r>   -5.3200    1.0000 </r>
        <r>   -5.0090    1.0000 </r>
        <r>   -3.4727    1.0000 </r>
        <r>   -3.2498    1.0000 </r>
        <r>   -1.4329    0.0000 </r>
        <r>    1.9389    0.0000 </r>
        <r>    2.6047    0.0000 </r>
        <r>    2.8794    0.0000 </r>
        <r>    3.3596    0.0000 </r>
        <r>    5.3196    0.0000 </r>
        <r>    5.8170    0.0000 </r>
       </set>
       <set comment="kpoint 25">
        <r>  -23.8741    1.0000 </r>
        <r>  -23.8184    1.0000 </r>
        <r>  -23.8096    1.0000 </r>
        <r>  -23.7774    1.0000 </r>
        <r>  -23.7699    1.0000 </r>
        <r>  -14.5906    1.0000 </r>
        <r>  -14.2526    1.0000 </r>
        <r>   -9.6302    1.0000 </r>
        <r>   -6.8903    1.0000 </r>
        <r>   -5.3304    1.0000 </r>
        <r>   -5.0479    1.0000 </r>
        <r>   -3.3828    1.0000 </r>
        <r>   -3.3506    1.0000 </r>
        <r>   -1.4878    0.0000 </r>
        <r>    1.9361    0.0000 </r>
        <r>    2.7153    0.0000 </r>
        <r>    2.7754    0.0000 </r>
        <r>    3.2709    0.0000 </r>
        <r>    5.8954    0.0000 </r>
        <r>    5.9594    0.0000 </r>
       </set>
       <set comment="kpoint 26">
        <r>  -23.8556    1.0000 </r>
        <r>  -23.8229    1.0000 </r>
        <r>  -23.8020    1.0000 </r>
        <r>  -23.7917    1.0000 </r>
        <r>  -23.7785    1.0000 </r>
        <r>  -15.3809    1.0000 </r>
        <r>  -14.3987    1.0000 </r>
        <r>   -8.7813    1.0000 </r>
        <r>   -5.7246    1.0000 </r>
        <r>   -5.4253    1.0000 </r>
        <r>   -4.1300    1.0000 </r>
        <r>   -3.6043    1.0000 </r>
        <r>   -3.1774    1.0000 </r>
        <r>   -0.5700    0.0000 </r>
        <r>    1.9597    0.0000 </r>
        <r>    2.3191    0.0000 </r>
        <r>    2.8608    0.0000 </r>
        <r>    3.8791    0.0000 </r>
        <r>    4.1205    0.0000 </r>
        <r>    4.5828    0.0000 </r>
       </set>
       <set comment="kpoint 27">
        <r>  -23.8597    1.0000 </r>
        <r>  -23.8228    1.0000 </r>
        <r>  -23.8033    1.0000 </r>
        <r>  -23.7901    1.0000 </r>
        <r>  -23.7744    1.0000 </r>
        <r>  -15.1554    1.0000 </r>
        <r>  -14.3059    1.0000 </r>
        <r>   -9.0221    1.0000 </r>
        <r>   -6.1295    1.0000 </r>
        <r>   -5.5626    1.0000 </r>
        <r>   -4.4582    1.0000 </r>
        <r>   -3.7525    1.0000 </r>
        <r>   -3.1475    1.0000 </r>
        <r>   -0.7051    0.0000 </r>
        <r>    2.0001    0.0000 </r>
        <r>    2.5374    0.0000 </r>
        <r>    3.0170    0.0000 </r>
        <r>    4.0279    0.0000 </r>
        <r>    4.3934    0.0000 </r>
        <r>    4.7994    0.0000 </r>
       </set>
       <set comment="kpoint 28">
        <r>  -23.8636    1.0000 </r>
        <r>  -23.8232    1.0000 </r>
        <r>  -23.8045    1.0000 </r>
        <r>  -23.7871    1.0000 </r>
        <r>  -23.7716    1.0000 </r>
        <r>  -14.9201    1.0000 </r>
        <r>  -14.2390    1.0000 </r>
        <r>   -9.2807    1.0000 </r>
        <r>   -6.4484    1.0000 </r>
        <r>   -5.6233    1.0000 </r>
        <r>   -4.8011    1.0000 </r>
        <r>   -3.7721    1.0000 </r>
        <r>   -3.1597    1.0000 </r>
        <r>   -0.8975    0.0000 </r>
        <r>    2.0752    0.0000 </r>
        <r>    2.5832    0.0000 </r>
        <r>    3.1387    0.0000 </r>
        <r>    3.9614    0.0000 </r>
        <r>    4.7076    0.0000 </r>
        <r>    5.1812    0.0000 </r>
       </set>
       <set comment="kpoint 29">
        <r>  -23.8665    1.0000 </r>
        <r>  -23.8237    1.0000 </r>
        <r>  -23.8055    1.0000 </r>
        <r>  -23.7835    1.0000 </r>
        <r>  -23.7704    1.0000 </r>
        <r>  -14.7033    1.0000 </r>
        <r>  -14.2151    1.0000 </r>
        <r>   -9.5020    1.0000 </r>
        <r>   -6.6544    1.0000 </r>
        <r>   -5.6620    1.0000 </r>
        <r>   -5.0560    1.0000 </r>
        <r>   -3.7019    1.0000 </r>
        <r>   -3.2321    1.0000 </r>
        <r>   -1.0723    0.0000 </r>
        <r>    2.1998    0.0000 </r>
        <r>    2.5595    0.0000 </r>
        <r>    3.1069    0.0000 </r>
        <r>    3.8079    0.0000 </r>
        <r>    5.1709    0.0000 </r>
        <r>    5.6655    0.0000 </r>
       </set>
       <set comment="kpoint 30">
        <r>  -23.8681    1.0000 </r>
        <r>  -23.8240    1.0000 </r>
        <r>  -23.8061    1.0000 </r>
        <r>  -23.7809    1.0000 </r>
        <r>  -23.7704    1.0000 </r>
        <r>  -14.5527    1.0000 </r>
        <r>  -14.2309    1.0000 </r>
        <r>   -9.6302    1.0000 </r>
        <r>   -6.7535    1.0000 </r>
        <r>   -5.6891    1.0000 </r>
        <r>   -5.1837    1.0000 </r>
        <r>   -3.5853    1.0000 </r>
        <r>   -3.3454    1.0000 </r>
        <r>   -1.1720    0.0000 </r>
        <r>    2.3270    0.0000 </r>
        <r>    2.5252    0.0000 </r>
        <r>    3.0150    0.0000 </r>
        <r>    3.7030    0.0000 </r>
        <r>    5.7316    0.0000 </r>
        <r>    6.1091    0.0000 </r>
       </set>
       <set comment="kpoint 31">
        <r>  -23.8608    1.0000 </r>
        <r>  -23.8255    1.0000 </r>
        <r>  -23.8026    1.0000 </r>
        <r>  -23.7895    1.0000 </r>
        <r>  -23.7716    1.0000 </r>
        <r>  -14.9349    1.0000 </r>
        <r>  -14.2374    1.0000 </r>
        <r>   -9.2500    1.0000 </r>
        <r>   -6.3255    1.0000 </r>
        <r>   -5.7931    1.0000 </r>
        <r>   -4.7564    1.0000 </r>
        <r>   -3.8914    1.0000 </r>
        <r>   -3.1514    1.0000 </r>
        <r>   -0.7403    0.0000 </r>
        <r>    2.0040    0.0000 </r>
        <r>    2.7429    0.0000 </r>
        <r>    3.2236    0.0000 </r>
        <r>    4.3906    0.0000 </r>
        <r>    4.6113    0.0000 </r>
        <r>    4.9859    0.0000 </r>
       </set>
       <set comment="kpoint 32">
        <r>  -23.8612    1.0000 </r>
        <r>  -23.8283    1.0000 </r>
        <r>  -23.8020    1.0000 </r>
        <r>  -23.7877    1.0000 </r>
        <r>  -23.7705    1.0000 </r>
        <r>  -14.7182    1.0000 </r>
        <r>  -14.2013    1.0000 </r>
        <r>   -9.4634    1.0000 </r>
        <r>   -6.4835    1.0000 </r>
        <r>   -5.9183    1.0000 </r>
        <r>   -5.0916    1.0000 </r>
        <r>   -3.8602    1.0000 </r>
        <r>   -3.2044    1.0000 </r>
        <r>   -0.8482    0.0000 </r>
        <r>    2.0903    0.0000 </r>
        <r>    2.7688    0.0000 </r>
        <r>    3.3880    0.0000 </r>
        <r>    4.4268    0.0000 </r>
        <r>    5.0208    0.0000 </r>
        <r>    5.3492    0.0000 </r>
       </set>
       <set comment="kpoint 33">
        <r>  -23.8614    1.0000 </r>
        <r>  -23.8304    1.0000 </r>
        <r>  -23.8017    1.0000 </r>
        <r>  -23.7854    1.0000 </r>
        <r>  -23.7707    1.0000 </r>
        <r>  -14.5368    1.0000 </r>
        <r>  -14.2076    1.0000 </r>
        <r>   -9.6181    1.0000 </r>
        <r>   -6.5718    1.0000 </r>
        <r>   -5.9781    1.0000 </r>
        <r>   -5.3479    1.0000 </r>
        <r>   -3.7386    1.0000 </r>
        <r>   -3.3085    1.0000 </r>
        <r>   -0.9545    0.0000 </r>
        <r>    2.2605    0.0000 </r>
        <r>    2.6731    0.0000 </r>
        <r>    3.4151    0.0000 </r>
        <r>    4.3285    0.0000 </r>
        <r>    5.5630    0.0000 </r>
        <r>    5.8554    0.0000 </r>
       </set>
       <set comment="kpoint 34">
        <r>  -23.8614    1.0000 </r>
        <r>  -23.8312    1.0000 </r>
        <r>  -23.8017    1.0000 </r>
        <r>  -23.7842    1.0000 </r>
        <r>  -23.7711    1.0000 </r>
        <r>  -14.4525    1.0000 </r>
        <r>  -14.2290    1.0000 </r>
        <r>   -9.6750    1.0000 </r>
        <r>   -6.5975    1.0000 </r>
        <r>   -5.9945    1.0000 </r>
        <r>   -5.4451    1.0000 </r>
        <r>   -3.6456    1.0000 </r>
        <r>   -3.3913    1.0000 </r>
        <r>   -0.9972    0.0000 </r>
        <r>    2.4131    0.0000 </r>
        <r>    2.5501    0.0000 </r>
        <r>    3.4029    0.0000 </r>
        <r>    4.2901    0.0000 </r>
        <r>    6.0443    0.0000 </r>
        <r>    6.0555    0.0000 </r>
       </set>
       <set comment="kpoint 35">
        <r>  -23.8577    1.0000 </r>
        <r>  -23.8338    1.0000 </r>
        <r>  -23.7991    1.0000 </r>
        <r>  -23.7881    1.0000 </r>
        <r>  -23.7708    1.0000 </r>
        <r>  -14.5330    1.0000 </r>
        <r>  -14.1977    1.0000 </r>
        <r>   -9.6115    1.0000 </r>
        <r>   -6.4534    1.0000 </r>
        <r>   -6.1179    1.0000 </r>
        <r>   -5.4287    1.0000 </r>
        <r>   -3.7897    1.0000 </r>
        <r>   -3.2927    1.0000 </r>
        <r>   -0.8800    0.0000 </r>
        <r>    2.1997    0.0000 </r>
        <r>    2.7519    0.0000 </r>
        <r>    3.6305    0.0000 </r>
        <r>    4.9737    0.0000 </r>
        <r>    5.2148    0.0000 </r>
        <r>    5.5707    0.0000 </r>
       </set>
       <set comment="kpoint 36">
        <r>  -23.8544    1.0000 </r>
        <r>  -23.8382    1.0000 </r>
        <r>  -23.7971    1.0000 </r>
        <r>  -23.7882    1.0000 </r>
        <r>  -23.7716    1.0000 </r>
        <r>  -14.3954    1.0000 </r>
        <r>  -14.2305    1.0000 </r>
        <r>   -9.6958    1.0000 </r>
        <r>   -6.4064    1.0000 </r>
        <r>   -6.1875    1.0000 </r>
        <r>   -5.6853    1.0000 </r>
        <r>   -3.6585    1.0000 </r>
        <r>   -3.4101    1.0000 </r>
        <r>   -0.9237    0.0000 </r>
        <r>    2.3731    0.0000 </r>
        <r>    2.6289    0.0000 </r>
        <r>    3.7256    0.0000 </r>
        <r>    5.0010    0.0000 </r>
        <r>    5.8079    0.0000 </r>
        <r>    5.9276    0.0000 </r>
       </set>
       <set comment="kpoint 37">
        <r>  -23.8465    1.0000 </r>
        <r>  -23.8465    1.0000 </r>
        <r>  -23.7923    1.0000 </r>
        <r>  -23.7923    1.0000 </r>
        <r>  -23.7720    1.0000 </r>
        <r>  -14.2918    1.0000 </r>
        <r>  -14.2918    1.0000 </r>
        <r>   -9.7233    1.0000 </r>
        <r>   -6.2614    1.0000 </r>
        <r>   -6.2614    1.0000 </r>
        <r>   -5.8943    1.0000 </r>
        <r>   -3.5333    1.0000 </r>
        <r>   -3.5333    1.0000 </r>
        <r>   -0.9237    0.0000 </r>
        <r>    2.5150    0.0000 </r>
        <r>    2.5150    0.0000 </r>
        <r>    3.8328    0.0000 </r>
        <r>    5.3920    0.0000 </r>
        <r>    5.9878    0.0000 </r>
        <r>    6.0254    0.0000 </r>
       </set>
      </set>
     </set>
    </array>
   </eigenvalues>
   <array>
    <dimension dim="1">ion</dimension>
    <dimension dim="2">band</dimension>
    <dimension dim="3">kpoint</dimension>
    <dimension dim="4">spin</dimension>
    <field>    s</field>
    <field>   py</field>
    <field>   pz</field>
    <field>   px</field>
    <field>  dxy</field>
    <field>  dyz</field>
    <field>  dz2</field>
    <field>  dxz</field>
    <field>x2-y2</field>
    <set>
     <set comment="spin1">
      <set comment="kpoint 1">
       <set comment="band 1">
        <r>  0.0000  0.0000  0.0000  0.0000  0.6189  0.0407  0.0000  0.1222  0.2063 </r>
        <r>  0.0000  0.0001  0.0000  0.0003  0.0000  0.0000  0.0000  0.0001  0.0000 </r>
        <r>  0.0000  0.0001  0.0000  0.0003  0.0000  0.0000  0.0000  0.0001  0.0000 </r>
       </set>
       <set comment="band 2">
        <r>  0.0000  0.0000  0.0000  0.0000  0.2063  0.1222  0.0000  0.0407  0.6189 </r>
        <r>  0.0000  0.0003  0.0000  0.0001  0.0000  0.0001  0.0000  0.0000  0.0000 </r>
        <r>  0.0000  0.0003  0.0000  0.0001  0.0000  0.0001  0.0000  0.0000  0.0000 </r>
       </set>
       <set comment="band 3">
        <r>  0.0000  0.0000  0.0000  0.0000  0.0000  0.0000  0.9892  0.0000  0.0000 </r>
        <r>  0.0000  0.0000  0.0001  0.0000  0.0000  0.0000  0.0000  0.0000  0.0000 </r>
        <r>  0.0000  0.0000  0.0001  0.0000  0.0000  0.0000  0.0000  0.0000  0.0000 </r>
       </set>
       <set comment="band 4">
        <r>  0.0000  0.0000  0.0000  0.0000  0.1227  0.2067  0.0000  0.6206  0.0409 </r>
        <r>  0.0000  0.0000  0.0000  0.0000  0.0001  0.0000  0.0000  0.0000  0.0000 </r>
        <r>  0.0000  0.0000  0.0000  0.0000  0.0001  0.0000  0.0000  0.0000  0.0000 </r>
       </set>
       <set comment="band 5">
        <r>  0.0000  0.0000  0.0000  0.0000  0.0409  0.6206  0.0000  0.2067  0.1227 </r>
        <r>  0.0000  0.0000  0.0000  0.0000  0.0000  0.0000  0.0000  0.0000  0.0001 </r>
        <r>  0.0000  0.0000  0.0000  0.0000  0.0000  0.0000  0.0000  0.0000  0.0001 </r>
       </set>
       <set comment="band 6">
        <r>  0.1386  0.0000  0.0000  0.0000  0.0000  0.0000  0.0002  0.0000  0.0000 </r>
        <r>  0.2579  0.0000  0.0047  0.0000  0.0000  0.0000  0.0000  0.0000  0.0000 </r>
        <r>  0.2579  0.0000  0.0047  0.0000  0.0000  0.0000  0.0000  0.0000  0.0000 </r>
       </set>
       <set comment="band 7">
        <r>  0.0000  0.0000  0.0325  0.0000  0.0000  0.0000  0.0000  0.0000  0.0000 </r>
        <r>  0.3407  0.0000  0.0007  0.0000  0.0000  0.0000  0.0001  0.0000  0.0000 </r>
        <r>  0.3407  0.0000  0.0007  0.0000  0.0000  0.0000  0.0001  0.0000  0.0000 </r>
       </set>
       <set comment="band 8">
        <r>  0.3332  0.0000  0.0000  0.0000  0.0000  0.0000  0.0049  0.0000  0.0000 </r>
        <r>  0.1001  0.0000  0.0706  0.0000  0.0000  0.0000  0.0002  0.0000  0.0000 </r>
        <r>  0.1001  0.0000  0.0706  0.0000  0.0000  0.0000  0.0002  0.0000  0.0000 </r>
       </set>
       <set comment="band 9">
        <r>  0.0000  0.0000  0.0624  0.0000  0.0000  0.0000  0.0000  0.0000  0.0000 </r>
        <r>  0.0018  0.0000  0.2380  0.0000  0.0000  0.0000  0.0000  0.0000  0.0000 </r>
        <r>  0.0018  0.0000  0.2380  0.0000  0.0000  0.0000  0.0000  0.0000  0.0000 </r>
       </set>
       <set comment="band 10">
        <r>  0.0000  0.0317  0.0000  0.0950  0.0000  0.0000  0.0000  0.0000  0.0000 </r>
        <r>  0.0000  0.0641  0.0000  0.1925  0.0010  0.0004  0.0000  0.0012  0.0003 </r>
        <r>  0.0000  0.0641  0.0000  0.1925  0.0010  0.0004  0.0000  0.0012  0.0003 </r>
       </set>
       <set comment="band 11">
        <r>  0.0000  0.0950  0.0000  0.0317  0.0000  0.0000  0.0000  0.0000  0.0000 </r>
        <r>  0.0000  0.1925  0.0000  0.0641  0.0003  0.0012  0.0000  0.0004  0.0010 </r>
        <r>  0.0000  0.1925  0.0000  0.0641  0.0003  0.0012  0.0000  0.0004  0.0010 </r>
       </set>
       <set comment="band 12">
        <r>  0.0000  0.0000  0.0000  0.0000  0.0244  0.0038  0.0000  0.0114  0.0081 </r>
        <r>  0.0000  0.0727  0.0000  0.2182  0.0000  0.0003  0.0000  0.0009  0.0000 </r>
        <r>  0.0000  0.0727  0.0000  0.2182  0.0000  0.0003  0.0000  0.0009  0.0000 </r>
       </set>
       <set comment="band 13">
        <r>  0.0000  0.0000  0.0000  0.0000  0.0081  0.0114  0.0000  0.0038  0.0244 </r>
        <r>  0.0000  0.2182  0.0000  0.0727  0.0000  0.0009  0.0000  0.0003  0.0000 </r>
        <r>  0.0000  0.2182  0.0000  0.0727  0.0000  0.0009  0.0000  0.0003  0.0000 </r>
       </set>
       <set comment="band 14">
        <r>  0.2395  0.0000  0.0000  0.0000  0.0000  0.0000  0.0138  0.0000  0.0000 </r>
        <r>  0.0455  0.0000  0.1370  0.0000  0.0000  0.0000  0.0011  0.0000  0.0000 </r>
        <r>  0.0455  0.0000  0.1370  0.0000  0.0000  0.0000  0.0011  0.0000  0.0000 </r>
       </set>
       <set comment="band 15">
        <r>  0.0000  0.0000  0.2962  0.0000  0.0000  0.0000  0.0000  0.0000  0.0000 </r>
        <r>  0.0640  0.0000  0.0062  0.0000  0.0000  0.0000  0.0145  0.0000  0.0000 </r>
        <r>  0.0640  0.0000  0.0062  0.0000  0.0000  0.0000  0.0145  0.0000  0.0000 </r>
       </set>
       <set comment="band 16">
        <r>  0.0000  0.1101  0.0000  0.3303  0.0000  0.0000  0.0000  0.0000  0.0000 </r>
        <r>  0.0000  0.0135  0.0000  0.0406  0.0165  0.0013  0.0000  0.0039  0.0055 </r>
        <r>  0.0000  0.0135  0.0000  0.0406  0.0165  0.0013  0.0000  0.0039  0.0055 </r>
       </set>
       <set comment="band 17">
        <r>  0.0000  0.3303  0.0000  0.1101  0.0000  0.0000  0.0000  0.0000  0.0000 </r>
        <r>  0.0000  0.0406  0.0000  0.0135  0.0055  0.0039  0.0000  0.0013  0.0165 </r>
        <r>  0.0000  0.0406  0.0000  0.0135  0.0055  0.0039  0.0000  0.0013  0.0165 </r>
       </set>
       <set comment="band 18">
        <r>  0.0130  0.0000  0.0000  0.0000  0.0000  0.0000  0.0107  0.0000  0.0000 </r>
        <r>  0.0005  0.0000  0.0122  0.0000  0.0000  0.0000  0.0043  0.0000  0.0000 </r>
        <r>  0.0005  0.0000  0.0122  0.0000  0.0000  0.0000  0.0043  0.0000  0.0000 </r>
       </set>
       <set comment="band 19">
        <r>  0.0000  0.0000  0.0001  0.0000  0.0000  0.0000  0.0000  0.0000  0.0000 </r>
        <r>  0.0020  0.0000  0.0215  0.0000  0.0000  0.0000  0.0032  0.0000  0.0000 </r>
        <r>  0.0020  0.0000  0.0215  0.0000  0.0000  0.0000  0.0032  0.0000  0.0000 </r>
       </set>
       <set comment="band 20">
        <r>  0.0090  0.0000  0.0000  0.0000  0.0000  0.0000  0.0143  0.0000  0.0000 </r>
        <r>  0.0013  0.0000  0.0050  0.0000  0.0000  0.0000  0.0059  0.0000  0.0000 </r>
        <r>  0.0013  0.0000  0.0050  0.0000  0.0000  0.0000  0.0059  0.0000  0.0000 </r>
       </set>
      </set>
      <set comment="kpoint 2">
       <set comment="band 1">
        <r>  0.0000  0.0000  0.0000  0.0000  0.6101  0.0436  0.0002  0.1308  0.2033 </r>
        <r>  0.0001  0.0001  0.0000  0.0003  0.0000  0.0000  0.0000  0.0001  0.0000 </r>
        <r>  0.0001  0.0001  0.0000  0.0003  0.0000  0.0000  0.0000  0.0001  0.0000 </r>
       </set>
       <set comment="band 2">
        <r>  0.0000  0.0000  0.0000  0.0000  0.2038  0.1295  0.0000  0.0431  0.6118 </r>
        <r>  0.0000  0.0003  0.0000  0.0001  0.0000  0.0001  0.0000  0.0000  0.0000 </r>
        <r>  0.0000  0.0003  0.0000  0.0001  0.0000  0.0001  0.0000  0.0000  0.0000 </r>
       </set>
       <set comment="band 3">
        <r>  0.0000  0.0000  0.0000  0.0000  0.0000  0.0002  0.9884  0.0007  0.0000 </r>
        <r>  0.0000  0.0000  0.0001  0.0000  0.0000  0.0000  0.0000  0.0000  0.0000 </r>
        <r>  0.0000  0.0000  0.0001  0.0000  0.0000  0.0000  0.0000  0.0000  0.0000 </r>
       </set>
       <set comment="band 4">
        <r>  0.0000  0.0000  0.0000  0.0000  0.1315  0.2036  0.0007  0.6112  0.0438 </r>
        <r>  0.0000  0.0000  0.0000  0.0000  0.0000  0.0000  0.0000  0.0000  0.0000 </r>
        <r>  0.0000  0.0000  0.0000  0.0000  0.0000  0.0000  0.0000  0.0000  0.0000 </r>
       </set>
       <set comment="band 5">
        <r>  0.0000  0.0000  0.0000  0.0000  0.0433  0.6133  0.0000  0.2043  0.1300 </r>
        <r>  0.0000  0.0000  0.0000  0.0000  0.0000  0.0000  0.0000  0.0000  0.0001 </r>
        <r>  0.0000  0.0000  0.0000  0.0000  0.0000  0.0000  0.0000  0.0000  0.0001 </r>
       </set>
       <set comment="band 6">
        <r>  0.1368  0.0002  0.0000  0.0005  0.0000  0.0000  0.0002  0.0000  0.0000 </r>
        <r>  0.2589  0.0000  0.0047  0.0001  0.0000  0.0000  0.0000  0.0000  0.0000 </r>
        <r>  0.2589  0.0000  0.0047  0.0001  0.0000  0.0000  0.0000  0.0000  0.0000 </r>
       </set>
       <set comment="band 7">
        <r>  0.0000  0.0000  0.0319  0.0000  0.0001  0.0001  0.0000  0.0003  0.0000 </r>
        <r>  0.3413  0.0000  0.0007  0.0000  0.0000  0.0000  0.0001  0.0000  0.0000 </r>
        <r>  0.3413  0.0000  0.0007  0.0000  0.0000  0.0000  0.0001  0.0000  0.0000 </r>
       </set>
       <set comment="band 8">
        <r>  0.3375  0.0000  0.0000  0.0000  0.0000  0.0000  0.0046  0.0000  0.0000 </r>
        <r>  0.1002  0.0002  0.0688  0.0007  0.0000  0.0000  0.0002  0.0001  0.0000 </r>
        <r>  0.1002  0.0002  0.0688  0.0007  0.0000  0.0000  0.0002  0.0001  0.0000 </r>
       </set>
       <set comment="band 9">
        <r>  0.0000  0.0001  0.0622  0.0003  0.0003  0.0000  0.0000  0.0001  0.0001 </r>
        <r>  0.0019  0.0001  0.2379  0.0004  0.0000  0.0000  0.0000  0.0000  0.0000 </r>
        <r>  0.0019  0.0001  0.2379  0.0004  0.0000  0.0000  0.0000  0.0000  0.0000 </r>
       </set>
       <set comment="band 10">
        <r>  0.0124  0.0293  0.0028  0.0880  0.0035  0.0001  0.0021  0.0004  0.0012 </r>
        <r>  0.0023  0.0554  0.0139  0.1663  0.0010  0.0004  0.0003  0.0012  0.0003 </r>
        <r>  0.0023  0.0554  0.0139  0.1663  0.0010  0.0004  0.0003  0.0012  0.0003 </r>
       </set>
       <set comment="band 11">
        <r>  0.0000  0.0925  0.0000  0.0308  0.0014  0.0005  0.0000  0.0002  0.0041 </r>
        <r>  0.0000  0.1882  0.0000  0.0627  0.0003  0.0013  0.0000  0.0004  0.0010 </r>
        <r>  0.0000  0.1882  0.0000  0.0627  0.0003  0.0013  0.0000  0.0004  0.0010 </r>
       </set>
       <set comment="band 12">
        <r>  0.0024  0.0012  0.0139  0.0037  0.0189  0.0035  0.0004  0.0104  0.0063 </r>
        <r>  0.0040  0.0673  0.0039  0.2018  0.0000  0.0002  0.0005  0.0007  0.0000 </r>
        <r>  0.0040  0.0673  0.0039  0.2018  0.0000  0.0002  0.0005  0.0007  0.0000 </r>
       </set>
       <set comment="band 13">
        <r>  0.0000  0.0046  0.0000  0.0015  0.0064  0.0116  0.0000  0.0039  0.0191 </r>
        <r>  0.0000  0.2200  0.0000  0.0733  0.0000  0.0007  0.0000  0.0002  0.0000 </r>
        <r>  0.0000  0.2200  0.0000  0.0733  0.0000  0.0007  0.0000  0.0002  0.0000 </r>
       </set>
       <set comment="band 14">
        <r>  0.2278  0.0004  0.0000  0.0013  0.0000  0.0000  0.0110  0.0001  0.0000 </r>
        <r>  0.0393  0.0095  0.1224  0.0284  0.0000  0.0000  0.0008  0.0000  0.0000 </r>
        <r>  0.0393  0.0095  0.1224  0.0284  0.0000  0.0000  0.0008  0.0000  0.0000 </r>
       </set>
       <set comment="band 15">
        <r>  0.0000  0.0008  0.2822  0.0024  0.0007  0.0002  0.0000  0.0007  0.0002 </r>
        <r>  0.0587  0.0048  0.0059  0.0144  0.0002  0.0000  0.0138  0.0000  0.0001 </r>
        <r>  0.0587  0.0048  0.0059  0.0144  0.0002  0.0000  0.0138  0.0000  0.0001 </r>
       </set>
       <set comment="band 16">
        <r>  0.0033  0.1004  0.0017  0.3013  0.0004  0.0000  0.0004  0.0000  0.0001 </r>
        <r>  0.0051  0.0120  0.0002  0.0359  0.0146  0.0013  0.0002  0.0038  0.0049 </r>
        <r>  0.0051  0.0120  0.0002  0.0359  0.0146  0.0013  0.0002  0.0038  0.0049 </r>
       </set>
       <set comment="band 17">
        <r>  0.0000  0.3297  0.0000  0.1099  0.0001  0.0000  0.0000  0.0000  0.0003 </r>
        <r>  0.0000  0.0431  0.0000  0.0144  0.0053  0.0042  0.0000  0.0014  0.0159 </r>
        <r>  0.0000  0.0431  0.0000  0.0144  0.0053  0.0042  0.0000  0.0014  0.0159 </r>
       </set>
       <set comment="band 18">
        <r>  0.0097  0.0044  0.0000  0.0133  0.0000  0.0000  0.0091  0.0000  0.0000 </r>
        <r>  0.0001  0.0003  0.0127  0.0008  0.0007  0.0000  0.0040  0.0001  0.0002 </r>
        <r>  0.0001  0.0003  0.0127  0.0008  0.0007  0.0000  0.0040  0.0001  0.0002 </r>
       </set>
       <set comment="band 19">
        <r>  0.0000  0.0000  0.0001  0.0001  0.0006  0.0000  0.0000  0.0000  0.0002 </r>
        <r>  0.0021  0.0000  0.0213  0.0000  0.0000  0.0000  0.0033  0.0001  0.0000 </r>
        <r>  0.0021  0.0000  0.0213  0.0000  0.0000  0.0000  0.0033  0.0001  0.0000 </r>
       </set>
       <set comment="band 20">
        <r>  0.0078  0.0014  0.0000  0.0041  0.0000  0.0000  0.0141  0.0000  0.0000 </r>
        <r>  0.0008  0.0001  0.0058  0.0002  0.0002  0.0000  0.0062  0.0000  0.0001 </r>
        <r>  0.0008  0.0001  0.0058  0.0002  0.0002  0.0000  0.0062  0.0000  0.0001 </r>
       </set>
      </set>
      <set comment="kpoint 3">
       <set comment="band 1">
        <r>  0.0000  0.0000  0.0000  0.0000  0.5833  0.0518  0.0024  0.1555  0.1944 </r>
        <r>  0.0002  0.0001  0.0001  0.0003  0.0000  0.0000  0.0000  0.0001  0.0000 </r>
        <r>  0.0002  0.0001  0.0001  0.0003  0.0000  0.0000  0.0000  0.0001  0.0000 </r>
       </set>
       <set comment="band 2">
        <r>  0.0000  0.0000  0.0000  0.0000  0.1959  0.1537  0.0000  0.0512  0.5877 </r>
        <r>  0.0000  0.0003  0.0000  0.0001  0.0000  0.0001  0.0000  0.0000  0.0000 </r>
        <r>  0.0000  0.0003  0.0000  0.0001  0.0000  0.0001  0.0000  0.0000  0.0000 </r>
       </set>
       <set comment="band 3">
        <r>  0.0000  0.0000  0.0000  0.0000  0.0044  0.0157  0.9209  0.0471  0.0015 </r>
        <r>  0.0000  0.0000  0.0001  0.0000  0.0000  0.0000  0.0000  0.0000  0.0000 </r>
        <r>  0.0000  0.0000  0.0001  0.0000  0.0000  0.0000  0.0000  0.0000  0.0000 </r>
       </set>
       <set comment="band 4">
        <r>  0.0000  0.0000  0.0000  0.0000  0.1537  0.1798  0.0662  0.5396  0.0512 </r>
        <r>  0.0001  0.0000  0.0000  0.0000  0.0000  0.0000  0.0000  0.0000  0.0000 </r>
        <r>  0.0001  0.0000  0.0000  0.0000  0.0000  0.0000  0.0000  0.0000  0.0000 </r>
       </set>
       <set comment="band 5">
        <r>  0.0000  0.0000  0.0000  0.0000  0.0514  0.5890  0.0000  0.1963  0.1543 </r>
        <r>  0.0000  0.0000  0.0000  0.0000  0.0000  0.0000  0.0000  0.0000  0.0000 </r>
        <r>  0.0000  0.0000  0.0000  0.0000  0.0000  0.0000  0.0000  0.0000  0.0000 </r>
       </set>
       <set comment="band 6">
        <r>  0.1314  0.0007  0.0000  0.0021  0.0000  0.0000  0.0002  0.0000  0.0000 </r>
        <r>  0.2618  0.0001  0.0046  0.0002  0.0000  0.0000  0.0000  0.0000  0.0000 </r>
        <r>  0.2618  0.0001  0.0046  0.0002  0.0000  0.0000  0.0000  0.0000  0.0000 </r>
       </set>
       <set comment="band 7">
        <r>  0.0000  0.0000  0.0301  0.0000  0.0005  0.0004  0.0000  0.0011  0.0002 </r>
        <r>  0.3431  0.0000  0.0007  0.0001  0.0000  0.0000  0.0001  0.0000  0.0000 </r>
        <r>  0.3431  0.0000  0.0007  0.0001  0.0000  0.0000  0.0001  0.0000  0.0000 </r>
       </set>
       <set comment="band 8">
        <r>  0.3504  0.0000  0.0000  0.0000  0.0000  0.0000  0.0037  0.0000  0.0000 </r>
        <r>  0.1002  0.0011  0.0632  0.0032  0.0001  0.0001  0.0002  0.0002  0.0000 </r>
        <r>  0.1002  0.0011  0.0632  0.0032  0.0001  0.0001  0.0002  0.0002  0.0000 </r>
       </set>
       <set comment="band 9">
        <r>  0.0192  0.0286  0.0037  0.0858  0.0065  0.0002  0.0041  0.0005  0.0022 </r>
        <r>  0.0028  0.0437  0.0343  0.1310  0.0010  0.0004  0.0006  0.0011  0.0003 </r>
        <r>  0.0028  0.0437  0.0343  0.1310  0.0010  0.0004  0.0006  0.0011  0.0003 </r>
       </set>
       <set comment="band 10">
        <r>  0.0001  0.0001  0.0787  0.0003  0.0000  0.0000  0.0000  0.0000  0.0000 </r>
        <r>  0.0037  0.0029  0.2248  0.0088  0.0001  0.0000  0.0001  0.0001  0.0000 </r>
        <r>  0.0037  0.0029  0.2248  0.0088  0.0001  0.0000  0.0001  0.0001  0.0000 </r>
       </set>
       <set comment="band 11">
        <r>  0.0000  0.0976  0.0000  0.0325  0.0023  0.0006  0.0000  0.0002  0.0070 </r>
        <r>  0.0000  0.1793  0.0000  0.0598  0.0003  0.0015  0.0000  0.0005  0.0010 </r>
        <r>  0.0000  0.1793  0.0000  0.0598  0.0003  0.0015  0.0000  0.0005  0.0010 </r>
       </set>
       <set comment="band 12">
        <r>  0.0074  0.0018  0.0219  0.0053  0.0135  0.0033  0.0018  0.0098  0.0045 </r>
        <r>  0.0082  0.0557  0.0239  0.1670  0.0001  0.0002  0.0009  0.0005  0.0000 </r>
        <r>  0.0082  0.0557  0.0239  0.1670  0.0001  0.0002  0.0009  0.0005  0.0000 </r>
       </set>
       <set comment="band 13">
        <r>  0.0000  0.0051  0.0000  0.0017  0.0044  0.0134  0.0000  0.0045  0.0133 </r>
        <r>  0.0000  0.2223  0.0000  0.0741  0.0000  0.0006  0.0000  0.0002  0.0001 </r>
        <r>  0.0000  0.2223  0.0000  0.0741  0.0000  0.0006  0.0000  0.0002  0.0001 </r>
       </set>
       <set comment="band 14">
        <r>  0.2249  0.0000  0.0000  0.0000  0.0002  0.0002  0.0068  0.0007  0.0001 </r>
        <r>  0.0261  0.0235  0.1006  0.0705  0.0005  0.0000  0.0004  0.0000  0.0002 </r>
        <r>  0.0261  0.0235  0.1006  0.0705  0.0005  0.0000  0.0004  0.0000  0.0002 </r>
       </set>
       <set comment="band 15">
        <r>  0.0001  0.0206  0.2165  0.0619  0.0004  0.0003  0.0000  0.0010  0.0001 </r>
        <r>  0.0468  0.0073  0.0067  0.0219  0.0034  0.0002  0.0101  0.0007  0.0011 </r>
        <r>  0.0468  0.0073  0.0067  0.0219  0.0034  0.0002  0.0101  0.0007  0.0011 </r>
       </set>
       <set comment="band 16">
        <r>  0.0029  0.0666  0.0553  0.1997  0.0013  0.0002  0.0005  0.0007  0.0004 </r>
        <r>  0.0197  0.0131  0.0032  0.0393  0.0086  0.0010  0.0031  0.0031  0.0029 </r>
        <r>  0.0197  0.0131  0.0032  0.0393  0.0086  0.0010  0.0031  0.0031  0.0029 </r>
       </set>
       <set comment="band 17">
        <r>  0.0000  0.3279  0.0000  0.1093  0.0003  0.0000  0.0000  0.0000  0.0008 </r>
        <r>  0.0000  0.0497  0.0000  0.0166  0.0048  0.0052  0.0000  0.0017  0.0144 </r>
        <r>  0.0000  0.0497  0.0000  0.0166  0.0048  0.0052  0.0000  0.0017  0.0144 </r>
       </set>
       <set comment="band 18">
        <r>  0.0016  0.0011  0.0003  0.0033  0.0021  0.0000  0.0020  0.0001  0.0007 </r>
        <r>  0.0019  0.0002  0.0190  0.0007  0.0002  0.0002  0.0039  0.0007  0.0001 </r>
        <r>  0.0019  0.0002  0.0190  0.0007  0.0002  0.0002  0.0039  0.0007  0.0001 </r>
       </set>
       <set comment="band 19">
        <r>  0.0044  0.0074  0.0002  0.0223  0.0006  0.0000  0.0045  0.0000  0.0002 </r>
        <r>  0.0010  0.0003  0.0159  0.0010  0.0012  0.0000  0.0028  0.0001  0.0004 </r>
        <r>  0.0010  0.0003  0.0159  0.0010  0.0012  0.0000  0.0028  0.0001  0.0004 </r>
       </set>
       <set comment="band 20">
        <r>  0.0055  0.0037  0.0000  0.0111  0.0001  0.0000  0.0130  0.0001  0.0000 </r>
        <r>  0.0002  0.0002  0.0078  0.0007  0.0005  0.0001  0.0065  0.0002  0.0002 </r>
        <r>  0.0002  0.0002  0.0078  0.0007  0.0005  0.0001  0.0065  0.0002  0.0002 </r>
       </set>
      </set>
      <set comment="kpoint 4">
       <set comment="band 1">
        <r>  0.0000  0.0000  0.0000  0.0000  0.5424  0.0640  0.0070  0.1921  0.1808 </r>
        <r>  0.0005  0.0001  0.0001  0.0003  0.0000  0.0000  0.0000  0.0001  0.0000 </r>
        <r>  0.0005  0.0001  0.0001  0.0003  0.0000  0.0000  0.0000  0.0001  0.0000 </r>
       </set>
       <set comment="band 2">
        <r>  0.0000  0.0000  0.0000  0.0000  0.1799  0.2020  0.0000  0.0673  0.5396 </r>
        <r>  0.0000  0.0003  0.0000  0.0001  0.0000  0.0001  0.0000  0.0000  0.0000 </r>
        <r>  0.0000  0.0003  0.0000  0.0001  0.0000  0.0001  0.0000  0.0000  0.0000 </r>
       </set>
       <set comment="band 3">
        <r>  0.0000  0.0000  0.0000  0.0000  0.1429  0.1594  0.1617  0.4783  0.0476 </r>
        <r>  0.0001  0.0000  0.0000  0.0000  0.0000  0.0000  0.0000  0.0000  0.0000 </r>
        <r>  0.0001  0.0000  0.0000  0.0000  0.0000  0.0000  0.0000  0.0000  0.0000 </r>
       </set>
       <set comment="band 4">
        <r>  0.0000  0.0000  0.0000  0.0000  0.0557  0.0237  0.8210  0.0710  0.0186 </r>
        <r>  0.0000  0.0000  0.0000  0.0000  0.0000  0.0000  0.0000  0.0000  0.0000 </r>
        <r>  0.0000  0.0000  0.0000  0.0000  0.0000  0.0000  0.0000  0.0000  0.0000 </r>
       </set>
       <set comment="band 5">
        <r>  0.0000  0.0000  0.0000  0.0000  0.0676  0.5406  0.0000  0.1802  0.2027 </r>
        <r>  0.0000  0.0000  0.0000  0.0000  0.0000  0.0000  0.0000  0.0000  0.0000 </r>
        <r>  0.0000  0.0000  0.0000  0.0000  0.0000  0.0000  0.0000  0.0000  0.0000 </r>
       </set>
       <set comment="band 6">
        <r>  0.1222  0.0015  0.0000  0.0045  0.0000  0.0000  0.0001  0.0000  0.0000 </r>
        <r>  0.2670  0.0002  0.0044  0.0005  0.0000  0.0000  0.0000  0.0000  0.0000 </r>
        <r>  0.2670  0.0002  0.0044  0.0005  0.0000  0.0000  0.0000  0.0000  0.0000 </r>
       </set>
       <set comment="band 7">
        <r>  0.0000  0.0000  0.0271  0.0001  0.0010  0.0008  0.0000  0.0024  0.0003 </r>
        <r>  0.3460  0.0001  0.0007  0.0002  0.0000  0.0000  0.0001  0.0000  0.0000 </r>
        <r>  0.3460  0.0001  0.0007  0.0002  0.0000  0.0000  0.0001  0.0000  0.0000 </r>
       </set>
       <set comment="band 8">
        <r>  0.3715  0.0000  0.0000  0.0000  0.0001  0.0000  0.0024  0.0001  0.0000 </r>
        <r>  0.0985  0.0027  0.0534  0.0081  0.0001  0.0002  0.0001  0.0005  0.0000 </r>
        <r>  0.0985  0.0027  0.0534  0.0081  0.0001  0.0002  0.0001  0.0005  0.0000 </r>
       </set>
       <set comment="band 9">
        <r>  0.0157  0.0291  0.0137  0.0873  0.0072  0.0001  0.0048  0.0004  0.0024 </r>
        <r>  0.0028  0.0368  0.0413  0.1104  0.0008  0.0004  0.0008  0.0011  0.0003 </r>
        <r>  0.0028  0.0368  0.0413  0.1104  0.0008  0.0004  0.0008  0.0011  0.0003 </r>
       </set>
       <set comment="band 10">
        <r>  0.0049  0.0018  0.0930  0.0053  0.0041  0.0016  0.0022  0.0048  0.0014 </r>
        <r>  0.0121  0.0411  0.0550  0.1232  0.0002  0.0001  0.0009  0.0004  0.0001 </r>
        <r>  0.0121  0.0411  0.0550  0.1232  0.0002  0.0001  0.0009  0.0004  0.0001 </r>
       </set>
       <set comment="band 11">
        <r>  0.0000  0.1067  0.0000  0.0356  0.0024  0.0005  0.0000  0.0002  0.0072 </r>
        <r>  0.0000  0.1701  0.0000  0.0567  0.0003  0.0018  0.0000  0.0006  0.0010 </r>
        <r>  0.0000  0.1701  0.0000  0.0567  0.0003  0.0018  0.0000  0.0006  0.0010 </r>
       </set>
       <set comment="band 12">
        <r>  0.0032  0.0005  0.0159  0.0016  0.0065  0.0017  0.0012  0.0050  0.0022 </r>
        <r>  0.0009  0.0089  0.2127  0.0267  0.0001  0.0000  0.0002  0.0000  0.0000 </r>
        <r>  0.0009  0.0089  0.2127  0.0267  0.0001  0.0000  0.0002  0.0000  0.0000 </r>
       </set>
       <set comment="band 13">
        <r>  0.0000  0.0034  0.0000  0.0011  0.0031  0.0163  0.0000  0.0054  0.0094 </r>
        <r>  0.0000  0.2226  0.0000  0.0742  0.0000  0.0004  0.0000  0.0001  0.0001 </r>
        <r>  0.0000  0.2226  0.0000  0.0742  0.0000  0.0004  0.0000  0.0001  0.0001 </r>
       </set>
       <set comment="band 14">
        <r>  0.2286  0.0034  0.0011  0.0102  0.0012  0.0006  0.0036  0.0017  0.0004 </r>
        <r>  0.0113  0.0321  0.0736  0.0963  0.0022  0.0002  0.0004  0.0005  0.0007 </r>
        <r>  0.0113  0.0321  0.0736  0.0963  0.0022  0.0002  0.0004  0.0005  0.0007 </r>
       </set>
       <set comment="band 15">
        <r>  0.0026  0.0454  0.1150  0.1362  0.0001  0.0000  0.0000  0.0000  0.0000 </r>
        <r>  0.0447  0.0016  0.0214  0.0047  0.0066  0.0005  0.0041  0.0016  0.0022 </r>
        <r>  0.0447  0.0016  0.0214  0.0047  0.0066  0.0005  0.0041  0.0016  0.0022 </r>
       </set>
       <set comment="band 16">
        <r>  0.0008  0.0249  0.1596  0.0748  0.0006  0.0006  0.0004  0.0017  0.0002 </r>
        <r>  0.0247  0.0205  0.0062  0.0616  0.0023  0.0008  0.0086  0.0024  0.0008 </r>
        <r>  0.0247  0.0205  0.0062  0.0616  0.0023  0.0008  0.0086  0.0024  0.0008 </r>
       </set>
       <set comment="band 17">
        <r>  0.0000  0.3244  0.0000  0.1081  0.0003  0.0001  0.0000  0.0000  0.0009 </r>
        <r>  0.0000  0.0587  0.0000  0.0196  0.0039  0.0070  0.0000  0.0023  0.0117 </r>
        <r>  0.0000  0.0587  0.0000  0.0196  0.0039  0.0070  0.0000  0.0023  0.0117 </r>
       </set>
       <set comment="band 18">
        <r>  0.0007  0.0001  0.0000  0.0003  0.0075  0.0001  0.0020  0.0003  0.0025 </r>
        <r>  0.0034  0.0002  0.0160  0.0005  0.0007  0.0005  0.0042  0.0016  0.0002 </r>
        <r>  0.0034  0.0002  0.0160  0.0005  0.0007  0.0005  0.0042  0.0016  0.0002 </r>
       </set>
       <set comment="band 19">
        <r>  0.0031  0.0099  0.0028  0.0296  0.0005  0.0000  0.0024  0.0001  0.0002 </r>
        <r>  0.0021  0.0012  0.0181  0.0036  0.0015  0.0001  0.0015  0.0002  0.0005 </r>
        <r>  0.0021  0.0012  0.0181  0.0036  0.0015  0.0001  0.0015  0.0002  0.0005 </r>
       </set>
       <set comment="band 20">
        <r>  0.0011  0.0030  0.0013  0.0090  0.0076  0.0020  0.0140  0.0059  0.0025 </r>
        <r>  0.0001  0.0011  0.0041  0.0033  0.0044  0.0006  0.0077  0.0018  0.0015 </r>
        <r>  0.0001  0.0011  0.0041  0.0033  0.0044  0.0006  0.0077  0.0018  0.0015 </r>
       </set>
      </set>
      <set comment="kpoint 5">
       <set comment="band 1">
        <r>  0.0000  0.0000  0.0000  0.0000  0.4965  0.0778  0.0119  0.2334  0.1655 </r>
        <r>  0.0009  0.0001  0.0002  0.0002  0.0000  0.0000  0.0000  0.0001  0.0000 </r>
        <r>  0.0009  0.0001  0.0002  0.0002  0.0000  0.0000  0.0000  0.0001  0.0000 </r>
       </set>
       <set comment="band 2">
        <r>  0.0000  0.0000  0.0000  0.0000  0.1531  0.2823  0.0000  0.0941  0.4595 </r>
        <r>  0.0000  0.0003  0.0000  0.0001  0.0000  0.0001  0.0000  0.0000  0.0000 </r>
        <r>  0.0000  0.0003  0.0000  0.0001  0.0000  0.0001  0.0000  0.0000  0.0000 </r>
       </set>
       <set comment="band 3">
        <r>  0.0000  0.0000  0.0000  0.0000  0.1970  0.1609  0.0835  0.4827  0.0657 </r>
        <r>  0.0001  0.0000  0.0000  0.0000  0.0000  0.0000  0.0000  0.0000  0.0000 </r>
        <r>  0.0001  0.0000  0.0000  0.0000  0.0000  0.0000  0.0000  0.0000  0.0000 </r>
       </set>
       <set comment="band 4">
        <r>  0.0000  0.0000  0.0000  0.0000  0.0944  0.4601  0.0000  0.1534  0.2833 </r>
        <r>  0.0000  0.0000  0.0000  0.0000  0.0000  0.0000  0.0000  0.0000  0.0000 </r>
        <r>  0.0000  0.0000  0.0000  0.0000  0.0000  0.0000  0.0000  0.0000  0.0000 </r>
       </set>
       <set comment="band 5">
        <r>  0.0000  0.0000  0.0000  0.0000  0.0473  0.0082  0.8947  0.0245  0.0158 </r>
        <r>  0.0000  0.0000  0.0000  0.0000  0.0000  0.0000  0.0000  0.0000  0.0000 </r>
        <r>  0.0000  0.0000  0.0000  0.0000  0.0000  0.0000  0.0000  0.0000  0.0000 </r>
       </set>
       <set comment="band 6">
        <r>  0.1092  0.0026  0.0000  0.0078  0.0001  0.0000  0.0001  0.0001  0.0000 </r>
        <r>  0.2746  0.0003  0.0042  0.0008  0.0000  0.0000  0.0000  0.0000  0.0000 </r>
        <r>  0.2746  0.0003  0.0042  0.0008  0.0000  0.0000  0.0000  0.0000  0.0000 </r>
       </set>
       <set comment="band 7">
        <r>  0.0003  0.0001  0.0230  0.0004  0.0017  0.0013  0.0000  0.0039  0.0006 </r>
        <r>  0.3498  0.0001  0.0007  0.0003  0.0000  0.0000  0.0000  0.0000  0.0000 </r>
        <r>  0.3498  0.0001  0.0007  0.0003  0.0000  0.0000  0.0000  0.0000  0.0000 </r>
       </set>
       <set comment="band 8">
        <r>  0.3979  0.0001  0.0000  0.0002  0.0002  0.0001  0.0011  0.0003  0.0001 </r>
        <r>  0.0924  0.0053  0.0398  0.0160  0.0003  0.0003  0.0001  0.0009  0.0001 </r>
        <r>  0.0924  0.0053  0.0398  0.0160  0.0003  0.0003  0.0001  0.0009  0.0001 </r>
       </set>
       <set comment="band 9">
        <r>  0.0079  0.0290  0.0254  0.0869  0.0068  0.0001  0.0043  0.0004  0.0023 </r>
        <r>  0.0042  0.0319  0.0462  0.0956  0.0006  0.0003  0.0009  0.0010  0.0002 </r>
        <r>  0.0042  0.0319  0.0462  0.0956  0.0006  0.0003  0.0009  0.0010  0.0002 </r>
       </set>
       <set comment="band 10">
        <r>  0.0041  0.0037  0.0784  0.0110  0.0033  0.0019  0.0040  0.0057  0.0011 </r>
        <r>  0.0098  0.0401  0.0499  0.1202  0.0004  0.0001  0.0008  0.0002  0.0001 </r>
        <r>  0.0098  0.0401  0.0499  0.1202  0.0004  0.0001  0.0008  0.0002  0.0001 </r>
       </set>
       <set comment="band 11">
        <r>  0.0000  0.1158  0.0000  0.0386  0.0020  0.0003  0.0000  0.0001  0.0061 </r>
        <r>  0.0000  0.1622  0.0000  0.0541  0.0003  0.0020  0.0000  0.0007  0.0008 </r>
        <r>  0.0000  0.1622  0.0000  0.0541  0.0003  0.0020  0.0000  0.0007  0.0008 </r>
       </set>
       <set comment="band 12">
        <r>  0.0013  0.0000  0.0308  0.0001  0.0060  0.0014  0.0010  0.0043  0.0020 </r>
        <r>  0.0012  0.0028  0.2394  0.0084  0.0001  0.0000  0.0001  0.0000  0.0000 </r>
        <r>  0.0012  0.0028  0.2394  0.0084  0.0001  0.0000  0.0001  0.0000  0.0000 </r>
       </set>
       <set comment="band 13">
        <r>  0.0000  0.0019  0.0000  0.0006  0.0022  0.0195  0.0000  0.0065  0.0067 </r>
        <r>  0.0000  0.2212  0.0000  0.0737  0.0000  0.0004  0.0000  0.0001  0.0001 </r>
        <r>  0.0000  0.2212  0.0000  0.0737  0.0000  0.0004  0.0000  0.0001  0.0001 </r>
       </set>
       <set comment="band 14">
        <r>  0.2240  0.0090  0.0029  0.0269  0.0027  0.0008  0.0014  0.0024  0.0009 </r>
        <r>  0.0051  0.0328  0.0482  0.0984  0.0037  0.0004  0.0005  0.0012  0.0012 </r>
        <r>  0.0051  0.0328  0.0482  0.0984  0.0037  0.0004  0.0005  0.0012  0.0012 </r>
       </set>
       <set comment="band 15">
        <r>  0.0122  0.0400  0.0920  0.1199  0.0003  0.0001  0.0000  0.0004  0.0001 </r>
        <r>  0.0460  0.0012  0.0414  0.0035  0.0071  0.0004  0.0017  0.0013  0.0024 </r>
        <r>  0.0460  0.0012  0.0414  0.0035  0.0071  0.0004  0.0017  0.0013  0.0024 </r>
       </set>
       <set comment="band 16">
        <r>  0.0001  0.0130  0.1847  0.0390  0.0009  0.0005  0.0000  0.0016  0.0003 </r>
        <r>  0.0132  0.0214  0.0091  0.0642  0.0010  0.0017  0.0108  0.0051  0.0003 </r>
        <r>  0.0132  0.0214  0.0091  0.0642  0.0010  0.0017  0.0108  0.0051  0.0003 </r>
       </set>
       <set comment="band 17">
        <r>  0.0000  0.3174  0.0000  0.1058  0.0002  0.0001  0.0000  0.0000  0.0006 </r>
        <r>  0.0000  0.0676  0.0000  0.0225  0.0028  0.0098  0.0000  0.0033  0.0084 </r>
        <r>  0.0000  0.0676  0.0000  0.0225  0.0028  0.0098  0.0000  0.0033  0.0084 </r>
       </set>
       <set comment="band 18">
        <r>  0.0003  0.0002  0.0067  0.0006  0.0149  0.0003  0.0056  0.0008  0.0050 </r>
        <r>  0.0065  0.0009  0.0066  0.0028  0.0031  0.0007  0.0044  0.0020  0.0010 </r>
        <r>  0.0065  0.0009  0.0066  0.0028  0.0031  0.0007  0.0044  0.0020  0.0010 </r>
       </set>
       <set comment="band 19">
        <r>  0.0019  0.0105  0.0120  0.0316  0.0007  0.0000  0.0003  0.0001  0.0002 </r>
        <r>  0.0034  0.0029  0.0224  0.0088  0.0015  0.0001  0.0002  0.0003  0.0005 </r>
        <r>  0.0034  0.0029  0.0224  0.0088  0.0015  0.0001  0.0002  0.0003  0.0005 </r>
       </set>
       <set comment="band 20">
        <r>  0.0049  0.0002  0.0145  0.0006  0.0219  0.0091  0.0161  0.0272  0.0073 </r>
        <r>  0.0003  0.0022  0.0201  0.0065  0.0199  0.0009  0.0079  0.0028  0.0066 </r>
        <r>  0.0003  0.0022  0.0201  0.0065  0.0199  0.0009  0.0079  0.0028  0.0066 </r>
       </set>
      </set>
      <set comment="kpoint 6">
       <set comment="band 1">
        <r>  0.0000  0.0000  0.0000  0.0000  0.4546  0.0905  0.0155  0.2716  0.1515 </r>
        <r>  0.0013  0.0001  0.0003  0.0002  0.0000  0.0000  0.0000  0.0000  0.0000 </r>
        <r>  0.0013  0.0001  0.0003  0.0002  0.0000  0.0000  0.0000  0.0000  0.0000 </r>
       </set>
       <set comment="band 2">
        <r>  0.0000  0.0000  0.0000  0.0000  0.1181  0.3875  0.0000  0.1292  0.3544 </r>
        <r>  0.0000  0.0003  0.0000  0.0001  0.0000  0.0001  0.0000  0.0000  0.0000 </r>
        <r>  0.0000  0.0003  0.0000  0.0001  0.0000  0.0001  0.0000  0.0000  0.0000 </r>
       </set>
       <set comment="band 3">
        <r>  0.0000  0.0000  0.0000  0.0000  0.2335  0.1508  0.0749  0.4524  0.0778 </r>
        <r>  0.0002  0.0000  0.0000  0.0000  0.0000  0.0000  0.0000  0.0000  0.0000 </r>
        <r>  0.0002  0.0000  0.0000  0.0000  0.0000  0.0000  0.0000  0.0000  0.0000 </r>
       </set>
       <set comment="band 4">
        <r>  0.0000  0.0000  0.0000  0.0000  0.1296  0.3549  0.0000  0.1183  0.3887 </r>
        <r>  0.0000  0.0000  0.0000  0.0000  0.0000  0.0000  0.0000  0.0000  0.0000 </r>
        <r>  0.0000  0.0000  0.0000  0.0000  0.0000  0.0000  0.0000  0.0000  0.0000 </r>
       </set>
       <set comment="band 5">
        <r>  0.0000  0.0000  0.0000  0.0000  0.0522  0.0053  0.9001  0.0158  0.0174 </r>
        <r>  0.0000  0.0000  0.0000  0.0000  0.0000  0.0000  0.0000  0.0000  0.0000 </r>
        <r>  0.0000  0.0000  0.0000  0.0000  0.0000  0.0000  0.0000  0.0000  0.0000 </r>
       </set>
       <set comment="band 6">
        <r>  0.0921  0.0038  0.0001  0.0115  0.0003  0.0001  0.0000  0.0002  0.0001 </r>
        <r>  0.2850  0.0003  0.0038  0.0010  0.0000  0.0000  0.0000  0.0001  0.0000 </r>
        <r>  0.2850  0.0003  0.0038  0.0010  0.0000  0.0000  0.0000  0.0001  0.0000 </r>
       </set>
       <set comment="band 7">
        <r>  0.0011  0.0003  0.0180  0.0009  0.0026  0.0018  0.0000  0.0055  0.0009 </r>
        <r>  0.3540  0.0001  0.0007  0.0003  0.0000  0.0000  0.0000  0.0000  0.0000 </r>
        <r>  0.3540  0.0001  0.0007  0.0003  0.0000  0.0000  0.0000  0.0000  0.0000 </r>
       </set>
       <set comment="band 8">
        <r>  0.4231  0.0003  0.0000  0.0008  0.0004  0.0002  0.0003  0.0007  0.0001 </r>
        <r>  0.0796  0.0086  0.0255  0.0258  0.0004  0.0004  0.0000  0.0013  0.0001 </r>
        <r>  0.0796  0.0086  0.0255  0.0258  0.0004  0.0004  0.0000  0.0013  0.0001 </r>
       </set>
       <set comment="band 9">
        <r>  0.0019  0.0277  0.0402  0.0831  0.0055  0.0001  0.0030  0.0004  0.0018 </r>
        <r>  0.0081  0.0293  0.0454  0.0878  0.0004  0.0003  0.0009  0.0010  0.0001 </r>
        <r>  0.0081  0.0293  0.0454  0.0878  0.0004  0.0003  0.0009  0.0010  0.0001 </r>
       </set>
       <set comment="band 10">
        <r>  0.0013  0.0063  0.0742  0.0190  0.0017  0.0016  0.0047  0.0047  0.0006 </r>
        <r>  0.0075  0.0328  0.0725  0.0985  0.0004  0.0000  0.0006  0.0001  0.0001 </r>
        <r>  0.0075  0.0328  0.0725  0.0985  0.0004  0.0000  0.0006  0.0001  0.0001 </r>
       </set>
       <set comment="band 11">
        <r>  0.0000  0.1236  0.0000  0.0412  0.0015  0.0002  0.0000  0.0001  0.0044 </r>
        <r>  0.0000  0.1560  0.0000  0.0520  0.0002  0.0021  0.0000  0.0007  0.0007 </r>
        <r>  0.0000  0.1560  0.0000  0.0520  0.0002  0.0021  0.0000  0.0007  0.0007 </r>
       </set>
       <set comment="band 12">
        <r>  0.0005  0.0000  0.0281  0.0000  0.0076  0.0019  0.0014  0.0056  0.0025 </r>
        <r>  0.0016  0.0029  0.2428  0.0087  0.0001  0.0000  0.0001  0.0000  0.0000 </r>
        <r>  0.0016  0.0029  0.2428  0.0087  0.0001  0.0000  0.0001  0.0000  0.0000 </r>
       </set>
       <set comment="band 13">
        <r>  0.0000  0.0010  0.0000  0.0003  0.0016  0.0225  0.0000  0.0075  0.0049 </r>
        <r>  0.0000  0.2190  0.0000  0.0730  0.0000  0.0003  0.0000  0.0001  0.0001 </r>
        <r>  0.0000  0.2190  0.0000  0.0730  0.0000  0.0003  0.0000  0.0001  0.0001 </r>
       </set>
       <set comment="band 14">
        <r>  0.2247  0.0099  0.0028  0.0297  0.0044  0.0009  0.0004  0.0026  0.0015 </r>
        <r>  0.0046  0.0314  0.0344  0.0941  0.0042  0.0006  0.0006  0.0017  0.0014 </r>
        <r>  0.0046  0.0314  0.0344  0.0941  0.0042  0.0006  0.0006  0.0017  0.0014 </r>
       </set>
       <set comment="band 15">
        <r>  0.0144  0.0322  0.0956  0.0967  0.0007  0.0005  0.0000  0.0014  0.0002 </r>
        <r>  0.0425  0.0015  0.0521  0.0046  0.0091  0.0003  0.0007  0.0009  0.0030 </r>
        <r>  0.0425  0.0015  0.0521  0.0046  0.0091  0.0003  0.0007  0.0009  0.0030 </r>
       </set>
       <set comment="band 16">
        <r>  0.0001  0.0091  0.1600  0.0274  0.0086  0.0006  0.0016  0.0018  0.0029 </r>
        <r>  0.0038  0.0157  0.0079  0.0470  0.0019  0.0035  0.0103  0.0104  0.0006 </r>
        <r>  0.0038  0.0157  0.0079  0.0470  0.0019  0.0035  0.0103  0.0104  0.0006 </r>
       </set>
       <set comment="band 17">
        <r>  0.0000  0.3057  0.0000  0.1019  0.0001  0.0001  0.0000  0.0000  0.0002 </r>
        <r>  0.0000  0.0738  0.0000  0.0246  0.0017  0.0132  0.0000  0.0044  0.0052 </r>
        <r>  0.0000  0.0738  0.0000  0.0246  0.0017  0.0132  0.0000  0.0044  0.0052 </r>
       </set>
       <set comment="band 18">
        <r>  0.0006  0.0028  0.0406  0.0085  0.0192  0.0014  0.0138  0.0043  0.0064 </r>
        <r>  0.0065  0.0046  0.0031  0.0137  0.0095  0.0003  0.0080  0.0008  0.0032 </r>
        <r>  0.0065  0.0046  0.0031  0.0137  0.0095  0.0003  0.0080  0.0008  0.0032 </r>
       </set>
       <set comment="band 19">
        <r>  0.0069  0.0063  0.0198  0.0189  0.0063  0.0042  0.0080  0.0125  0.0021 </r>
        <r>  0.0006  0.0009  0.0496  0.0026  0.0099  0.0011  0.0025  0.0033  0.0033 </r>
        <r>  0.0006  0.0009  0.0496  0.0026  0.0099  0.0011  0.0025  0.0033  0.0033 </r>
       </set>
       <set comment="band 20">
        <r>  0.0013  0.0035  0.0026  0.0106  0.0024  0.0034  0.0058  0.0101  0.0008 </r>
        <r>  0.0049  0.0044  0.0123  0.0133  0.0032  0.0006  0.0019  0.0018  0.0011 </r>
        <r>  0.0049  0.0044  0.0123  0.0133  0.0032  0.0006  0.0019  0.0018  0.0011 </r>
       </set>
      </set>
      <set comment="kpoint 7">
       <set comment="band 1">
        <r>  0.0000  0.0000  0.0000  0.0000  0.4217  0.1006  0.0176  0.3019  0.1406 </r>
        <r>  0.0017  0.0000  0.0004  0.0001  0.0000  0.0000  0.0000  0.0000  0.0000 </r>
        <r>  0.0017  0.0000  0.0004  0.0001  0.0000  0.0000  0.0000  0.0000  0.0000 </r>
       </set>
       <set comment="band 2">
        <r>  0.0000  0.0000  0.0000  0.0000  0.0853  0.4861  0.0000  0.1620  0.2559 </r>
        <r>  0.0000  0.0003  0.0000  0.0001  0.0000  0.0001  0.0000  0.0000  0.0000 </r>
        <r>  0.0000  0.0003  0.0000  0.0001  0.0000  0.0001  0.0000  0.0000  0.0000 </r>
       </set>
       <set comment="band 3">
        <r>  0.0000  0.0000  0.0000  0.0000  0.2609  0.1415  0.0751  0.4247  0.0870 </r>
        <r>  0.0001  0.0000  0.0000  0.0000  0.0000  0.0000  0.0000  0.0000  0.0000 </r>
        <r>  0.0001  0.0000  0.0000  0.0000  0.0000  0.0000  0.0000  0.0000  0.0000 </r>
       </set>
       <set comment="band 4">
        <r>  0.0000  0.0000  0.0000  0.0000  0.1626  0.2562  0.0000  0.0854  0.4877 </r>
        <r>  0.0000  0.0000  0.0000  0.0000  0.0000  0.0000  0.0000  0.0000  0.0000 </r>
        <r>  0.0000  0.0000  0.0000  0.0000  0.0000  0.0000  0.0000  0.0000  0.0000 </r>
       </set>
       <set comment="band 5">
        <r>  0.0000  0.0000  0.0000  0.0000  0.0573  0.0041  0.8982  0.0124  0.0191 </r>
        <r>  0.0000  0.0000  0.0000  0.0000  0.0000  0.0000  0.0000  0.0000  0.0000 </r>
        <r>  0.0000  0.0000  0.0000  0.0000  0.0000  0.0000  0.0000  0.0000  0.0000 </r>
       </set>
       <set comment="band 6">
        <r>  0.0708  0.0052  0.0003  0.0155  0.0005  0.0001  0.0000  0.0004  0.0002 </r>
        <r>  0.2986  0.0004  0.0034  0.0011  0.0000  0.0000  0.0000  0.0001  0.0000 </r>
        <r>  0.2986  0.0004  0.0034  0.0011  0.0000  0.0000  0.0000  0.0001  0.0000 </r>
       </set>
       <set comment="band 7">
        <r>  0.0037  0.0005  0.0126  0.0016  0.0035  0.0023  0.0000  0.0069  0.0012 </r>
        <r>  0.3573  0.0001  0.0008  0.0003  0.0000  0.0000  0.0000  0.0000  0.0000 </r>
        <r>  0.3573  0.0001  0.0008  0.0003  0.0000  0.0000  0.0000  0.0000  0.0000 </r>
       </set>
       <set comment="band 8">
        <r>  0.4428  0.0005  0.0000  0.0015  0.0005  0.0004  0.0000  0.0013  0.0002 </r>
        <r>  0.0616  0.0116  0.0146  0.0347  0.0005  0.0005  0.0000  0.0016  0.0002 </r>
        <r>  0.0616  0.0116  0.0146  0.0347  0.0005  0.0005  0.0000  0.0016  0.0002 </r>
       </set>
       <set comment="band 9">
        <r>  0.0001  0.0255  0.0565  0.0766  0.0036  0.0001  0.0016  0.0004  0.0012 </r>
        <r>  0.0115  0.0288  0.0392  0.0864  0.0002  0.0003  0.0007  0.0009  0.0001 </r>
        <r>  0.0115  0.0288  0.0392  0.0864  0.0002  0.0003  0.0007  0.0009  0.0001 </r>
       </set>
       <set comment="band 10">
        <r>  0.0000  0.0099  0.0700  0.0298  0.0007  0.0011  0.0042  0.0033  0.0002 </r>
        <r>  0.0082  0.0248  0.0988  0.0745  0.0005  0.0000  0.0005  0.0000  0.0002 </r>
        <r>  0.0082  0.0248  0.0988  0.0745  0.0005  0.0000  0.0005  0.0000  0.0002 </r>
       </set>
       <set comment="band 11">
        <r>  0.0000  0.1296  0.0000  0.0432  0.0009  0.0001  0.0000  0.0000  0.0027 </r>
        <r>  0.0000  0.1514  0.0000  0.0505  0.0001  0.0023  0.0000  0.0008  0.0004 </r>
        <r>  0.0000  0.1514  0.0000  0.0505  0.0001  0.0023  0.0000  0.0008  0.0004 </r>
       </set>
       <set comment="band 12">
        <r>  0.0000  0.0001  0.0209  0.0004  0.0093  0.0025  0.0022  0.0075  0.0031 </r>
        <r>  0.0018  0.0043  0.2409  0.0128  0.0001  0.0000  0.0001  0.0000  0.0000 </r>
        <r>  0.0018  0.0043  0.2409  0.0128  0.0001  0.0000  0.0001  0.0000  0.0000 </r>
       </set>
       <set comment="band 13">
        <r>  0.0000  0.0004  0.0000  0.0001  0.0012  0.0250  0.0000  0.0083  0.0037 </r>
        <r>  0.0000  0.2168  0.0000  0.0723  0.0000  0.0003  0.0000  0.0001  0.0001 </r>
        <r>  0.0000  0.2168  0.0000  0.0723  0.0000  0.0003  0.0000  0.0001  0.0001 </r>
       </set>
       <set comment="band 14">
        <r>  0.2312  0.0075  0.0016  0.0225  0.0066  0.0008  0.0000  0.0025  0.0022 </r>
        <r>  0.0049  0.0301  0.0288  0.0902  0.0042  0.0007  0.0006  0.0021  0.0014 </r>
        <r>  0.0049  0.0301  0.0288  0.0902  0.0042  0.0007  0.0006  0.0021  0.0014 </r>
       </set>
       <set comment="band 15">
        <r>  0.0099  0.0261  0.1087  0.0784  0.0008  0.0006  0.0000  0.0019  0.0003 </r>
        <r>  0.0378  0.0013  0.0559  0.0039  0.0121  0.0002  0.0002  0.0006  0.0040 </r>
        <r>  0.0378  0.0013  0.0559  0.0039  0.0121  0.0002  0.0002  0.0006  0.0040 </r>
       </set>
       <set comment="band 16">
        <r>  0.0002  0.0090  0.1413  0.0271  0.0138  0.0008  0.0045  0.0024  0.0046 </r>
        <r>  0.0016  0.0114  0.0042  0.0341  0.0034  0.0046  0.0088  0.0139  0.0011 </r>
        <r>  0.0016  0.0114  0.0042  0.0341  0.0034  0.0046  0.0088  0.0139  0.0011 </r>
       </set>
       <set comment="band 17">
        <r>  0.0000  0.2917  0.0000  0.0972  0.0000  0.0001  0.0000  0.0000  0.0000 </r>
        <r>  0.0000  0.0770  0.0000  0.0257  0.0009  0.0163  0.0000  0.0054  0.0028 </r>
        <r>  0.0000  0.0770  0.0000  0.0257  0.0009  0.0163  0.0000  0.0054  0.0028 </r>
       </set>
       <set comment="band 18">
        <r>  0.0057  0.0075  0.0553  0.0225  0.0211  0.0059  0.0284  0.0178  0.0070 </r>
        <r>  0.0017  0.0049  0.0367  0.0148  0.0173  0.0015  0.0128  0.0045  0.0058 </r>
        <r>  0.0017  0.0049  0.0367  0.0148  0.0173  0.0015  0.0128  0.0045  0.0058 </r>
       </set>
       <set comment="band 19">
        <r>  0.0010  0.0001  0.0005  0.0003  0.0002  0.0013  0.0003  0.0038  0.0001 </r>
        <r>  0.0045  0.0011  0.0187  0.0032  0.0012  0.0011  0.0006  0.0033  0.0004 </r>
        <r>  0.0045  0.0011  0.0187  0.0032  0.0012  0.0011  0.0006  0.0033  0.0004 </r>
       </set>
       <set comment="band 20">
        <r>  0.0009  0.0051  0.0089  0.0154  0.0002  0.0009  0.0015  0.0028  0.0001 </r>
        <r>  0.0037  0.0043  0.0156  0.0129  0.0005  0.0004  0.0001  0.0011  0.0002 </r>
        <r>  0.0037  0.0043  0.0156  0.0129  0.0005  0.0004  0.0001  0.0011  0.0002 </r>
       </set>
      </set>
      <set comment="kpoint 8">
       <set comment="band 1">
        <r>  0.0000  0.0000  0.0000  0.0000  0.3989  0.1077  0.0186  0.3230  0.1330 </r>
        <r>  0.0021  0.0000  0.0004  0.0001  0.0000  0.0000  0.0000  0.0000  0.0000 </r>
        <r>  0.0021  0.0000  0.0004  0.0001  0.0000  0.0000  0.0000  0.0000  0.0000 </r>
       </set>
       <set comment="band 2">
        <r>  0.0000  0.0000  0.0000  0.0000  0.0630  0.5528  0.0000  0.1843  0.1891 </r>
        <r>  0.0000  0.0004  0.0000  0.0001  0.0000  0.0001  0.0000  0.0000  0.0000 </r>
        <r>  0.0000  0.0004  0.0000  0.0001  0.0000  0.0001  0.0000  0.0000  0.0000 </r>
       </set>
       <set comment="band 3">
        <r>  0.0000  0.0000  0.0000  0.0000  0.2797  0.1348  0.0769  0.4044  0.0932 </r>
        <r>  0.0001  0.0000  0.0000  0.0000  0.0000  0.0000  0.0000  0.0000  0.0000 </r>
        <r>  0.0001  0.0000  0.0000  0.0000  0.0000  0.0000  0.0000  0.0000  0.0000 </r>
       </set>
       <set comment="band 4">
        <r>  0.0000  0.0000  0.0000  0.0000  0.1849  0.1893  0.0000  0.0631  0.5548 </r>
        <r>  0.0000  0.0000  0.0000  0.0000  0.0000  0.0000  0.0000  0.0000  0.0000 </r>
        <r>  0.0000  0.0000  0.0000  0.0000  0.0000  0.0000  0.0000  0.0000  0.0000 </r>
       </set>
       <set comment="band 5">
        <r>  0.0000  0.0000  0.0000  0.0000  0.0611  0.0036  0.8956  0.0109  0.0204 </r>
        <r>  0.0000  0.0000  0.0000  0.0000  0.0000  0.0000  0.0000  0.0000  0.0000 </r>
        <r>  0.0000  0.0000  0.0000  0.0000  0.0000  0.0000  0.0000  0.0000  0.0000 </r>
       </set>
       <set comment="band 6">
        <r>  0.0455  0.0065  0.0009  0.0195  0.0006  0.0002  0.0000  0.0006  0.0002 </r>
        <r>  0.3151  0.0003  0.0030  0.0009  0.0000  0.0000  0.0000  0.0001  0.0000 </r>
        <r>  0.3151  0.0003  0.0030  0.0009  0.0000  0.0000  0.0000  0.0001  0.0000 </r>
       </set>
       <set comment="band 7">
        <r>  0.0103  0.0007  0.0072  0.0022  0.0043  0.0026  0.0000  0.0079  0.0014 </r>
        <r>  0.3575  0.0001  0.0009  0.0003  0.0000  0.0000  0.0000  0.0000  0.0000 </r>
        <r>  0.3575  0.0001  0.0009  0.0003  0.0000  0.0000  0.0000  0.0000  0.0000 </r>
       </set>
       <set comment="band 8">
        <r>  0.4576  0.0004  0.0001  0.0013  0.0006  0.0007  0.0001  0.0020  0.0002 </r>
        <r>  0.0436  0.0136  0.0084  0.0407  0.0005  0.0006  0.0000  0.0017  0.0002 </r>
        <r>  0.0436  0.0136  0.0084  0.0407  0.0005  0.0006  0.0000  0.0017  0.0002 </r>
       </set>
       <set comment="band 9">
        <r>  0.0001  0.0235  0.0708  0.0705  0.0018  0.0001  0.0006  0.0003  0.0006 </r>
        <r>  0.0120  0.0294  0.0321  0.0883  0.0001  0.0003  0.0005  0.0009  0.0000 </r>
        <r>  0.0120  0.0294  0.0321  0.0883  0.0001  0.0003  0.0005  0.0009  0.0000 </r>
       </set>
       <set comment="band 10">
        <r>  0.0002  0.0137  0.0673  0.0411  0.0002  0.0006  0.0026  0.0018  0.0001 </r>
        <r>  0.0118  0.0177  0.1223  0.0532  0.0005  0.0000  0.0003  0.0000  0.0002 </r>
        <r>  0.0118  0.0177  0.1223  0.0532  0.0005  0.0000  0.0003  0.0000  0.0002 </r>
       </set>
       <set comment="band 11">
        <r>  0.0000  0.1338  0.0000  0.0446  0.0004  0.0000  0.0000  0.0000  0.0013 </r>
        <r>  0.0000  0.1483  0.0000  0.0494  0.0001  0.0023  0.0000  0.0008  0.0003 </r>
        <r>  0.0000  0.1483  0.0000  0.0494  0.0001  0.0023  0.0000  0.0008  0.0003 </r>
       </set>
       <set comment="band 12">
        <r>  0.0012  0.0003  0.0118  0.0008  0.0102  0.0032  0.0034  0.0097  0.0034 </r>
        <r>  0.0019  0.0067  0.2327  0.0201  0.0001  0.0000  0.0001  0.0001  0.0000 </r>
        <r>  0.0019  0.0067  0.2327  0.0201  0.0001  0.0000  0.0001  0.0001  0.0000 </r>
       </set>
       <set comment="band 13">
        <r>  0.0000  0.0002  0.0000  0.0001  0.0010  0.0269  0.0000  0.0090  0.0031 </r>
        <r>  0.0000  0.2150  0.0000  0.0717  0.0000  0.0002  0.0000  0.0001  0.0001 </r>
        <r>  0.0000  0.2150  0.0000  0.0717  0.0000  0.0002  0.0000  0.0001  0.0001 </r>
       </set>
       <set comment="band 14">
        <r>  0.2385  0.0040  0.0006  0.0120  0.0091  0.0007  0.0000  0.0021  0.0030 </r>
        <r>  0.0047  0.0287  0.0300  0.0862  0.0040  0.0007  0.0005  0.0022  0.0013 </r>
        <r>  0.0047  0.0287  0.0300  0.0862  0.0040  0.0007  0.0005  0.0022  0.0013 </r>
       </set>
       <set comment="band 15">
        <r>  0.0045  0.0216  0.1254  0.0648  0.0005  0.0004  0.0000  0.0013  0.0002 </r>
        <r>  0.0339  0.0011  0.0561  0.0033  0.0147  0.0001  0.0001  0.0003  0.0049 </r>
        <r>  0.0339  0.0011  0.0561  0.0033  0.0147  0.0001  0.0001  0.0003  0.0049 </r>
       </set>
       <set comment="band 16">
        <r>  0.0003  0.0110  0.1316  0.0331  0.0133  0.0011  0.0062  0.0033  0.0044 </r>
        <r>  0.0015  0.0090  0.0066  0.0271  0.0043  0.0053  0.0077  0.0158  0.0014 </r>
        <r>  0.0015  0.0090  0.0066  0.0271  0.0043  0.0053  0.0077  0.0158  0.0014 </r>
       </set>
       <set comment="band 17">
        <r>  0.0000  0.2793  0.0000  0.0931  0.0000  0.0001  0.0000  0.0000  0.0000 </r>
        <r>  0.0000  0.0780  0.0000  0.0260  0.0005  0.0187  0.0000  0.0062  0.0014 </r>
        <r>  0.0000  0.0780  0.0000  0.0260  0.0005  0.0187  0.0000  0.0062  0.0014 </r>
       </set>
       <set comment="band 18">
        <r>  0.0041  0.0070  0.0428  0.0209  0.0190  0.0068  0.0295  0.0204  0.0063 </r>
        <r>  0.0010  0.0034  0.0420  0.0102  0.0148  0.0029  0.0116  0.0088  0.0049 </r>
        <r>  0.0010  0.0034  0.0420  0.0102  0.0148  0.0029  0.0116  0.0088  0.0049 </r>
       </set>
       <set comment="band 19">
        <r>  0.0000  0.0004  0.0036  0.0011  0.0019  0.0003  0.0004  0.0008  0.0006 </r>
        <r>  0.0046  0.0028  0.0052  0.0083  0.0011  0.0007  0.0032  0.0020  0.0004 </r>
        <r>  0.0046  0.0028  0.0052  0.0083  0.0011  0.0007  0.0032  0.0020  0.0004 </r>
       </set>
       <set comment="band 20">
        <r>  0.0028  0.0041  0.0062  0.0124  0.0000  0.0005  0.0015  0.0016  0.0000 </r>
        <r>  0.0029  0.0037  0.0175  0.0112  0.0007  0.0002  0.0000  0.0007  0.0002 </r>
        <r>  0.0029  0.0037  0.0175  0.0112  0.0007  0.0002  0.0000  0.0007  0.0002 </r>
       </set>
      </set>
      <set comment="kpoint 9">
       <set comment="band 1">
        <r>  0.0000  0.0000  0.0000  0.0000  0.3857  0.1118  0.0191  0.3353  0.1286 </r>
        <r>  0.0023  0.0000  0.0005  0.0000  0.0000  0.0000  0.0000  0.0000  0.0000 </r>
        <r>  0.0023  0.0000  0.0005  0.0000  0.0000  0.0000  0.0000  0.0000  0.0000 </r>
       </set>
       <set comment="band 2">
        <r>  0.0000  0.0000  0.0000  0.0000  0.0514  0.5876  0.0000  0.1959  0.1543 </r>
        <r>  0.0000  0.0004  0.0000  0.0001  0.0000  0.0001  0.0000  0.0000  0.0000 </r>
        <r>  0.0000  0.0004  0.0000  0.0001  0.0000  0.0001  0.0000  0.0000  0.0000 </r>
       </set>
       <set comment="band 3">
        <r>  0.0000  0.0000  0.0000  0.0000  0.2904  0.1308  0.0784  0.3925  0.0968 </r>
        <r>  0.0001  0.0000  0.0000  0.0000  0.0000  0.0000  0.0000  0.0000  0.0000 </r>
        <r>  0.0001  0.0000  0.0000  0.0000  0.0000  0.0000  0.0000  0.0000  0.0000 </r>
       </set>
       <set comment="band 4">
        <r>  0.0000  0.0000  0.0000  0.0000  0.1966  0.1545  0.0000  0.0515  0.5899 </r>
        <r>  0.0000  0.0000  0.0000  0.0000  0.0000  0.0000  0.0000  0.0000  0.0000 </r>
        <r>  0.0000  0.0000  0.0000  0.0000  0.0000  0.0000  0.0000  0.0000  0.0000 </r>
       </set>
       <set comment="band 5">
        <r>  0.0000  0.0000  0.0000  0.0000  0.0633  0.0034  0.8938  0.0101  0.0211 </r>
        <r>  0.0000  0.0000  0.0000  0.0000  0.0000  0.0000  0.0000  0.0000  0.0000 </r>
        <r>  0.0000  0.0000  0.0000  0.0000  0.0000  0.0000  0.0000  0.0000  0.0000 </r>
       </set>
       <set comment="band 6">
        <r>  0.0175  0.0079  0.0021  0.0238  0.0004  0.0001  0.0000  0.0004  0.0001 </r>
        <r>  0.3327  0.0001  0.0026  0.0004  0.0000  0.0000  0.0000  0.0000  0.0000 </r>
        <r>  0.3327  0.0001  0.0026  0.0004  0.0000  0.0000  0.0000  0.0000  0.0000 </r>
       </set>
       <set comment="band 7">
        <r>  0.0238  0.0005  0.0024  0.0016  0.0053  0.0030  0.0000  0.0089  0.0018 </r>
        <r>  0.3525  0.0002  0.0010  0.0005  0.0001  0.0000  0.0000  0.0001  0.0000 </r>
        <r>  0.3525  0.0002  0.0010  0.0005  0.0001  0.0000  0.0000  0.0001  0.0000 </r>
       </set>
       <set comment="band 8">
        <r>  0.4682  0.0002  0.0000  0.0005  0.0005  0.0009  0.0002  0.0027  0.0002 </r>
        <r>  0.0306  0.0146  0.0057  0.0438  0.0005  0.0006  0.0000  0.0018  0.0002 </r>
        <r>  0.0306  0.0146  0.0057  0.0438  0.0005  0.0006  0.0000  0.0018  0.0002 </r>
       </set>
       <set comment="band 9">
        <r>  0.0001  0.0223  0.0802  0.0668  0.0005  0.0000  0.0001  0.0001  0.0002 </r>
        <r>  0.0106  0.0301  0.0273  0.0903  0.0001  0.0003  0.0004  0.0009  0.0000 </r>
        <r>  0.0106  0.0301  0.0273  0.0903  0.0001  0.0003  0.0004  0.0009  0.0000 </r>
       </set>
       <set comment="band 10">
        <r>  0.0002  0.0167  0.0671  0.0501  0.0001  0.0002  0.0008  0.0005  0.0000 </r>
        <r>  0.0158  0.0127  0.1387  0.0382  0.0005  0.0000  0.0003  0.0000  0.0002 </r>
        <r>  0.0158  0.0127  0.1387  0.0382  0.0005  0.0000  0.0003  0.0000  0.0002 </r>
       </set>
       <set comment="band 11">
        <r>  0.0000  0.1364  0.0000  0.0455  0.0001  0.0000  0.0000  0.0000  0.0003 </r>
        <r>  0.0000  0.1465  0.0000  0.0488  0.0001  0.0024  0.0000  0.0008  0.0002 </r>
        <r>  0.0000  0.1465  0.0000  0.0488  0.0001  0.0024  0.0000  0.0008  0.0002 </r>
       </set>
       <set comment="band 12">
        <r>  0.0048  0.0002  0.0035  0.0005  0.0103  0.0039  0.0047  0.0116  0.0034 </r>
        <r>  0.0015  0.0096  0.2204  0.0287  0.0001  0.0001  0.0001  0.0002  0.0000 </r>
        <r>  0.0015  0.0096  0.2204  0.0287  0.0001  0.0001  0.0001  0.0002  0.0000 </r>
       </set>
       <set comment="band 13">
        <r>  0.0000  0.0000  0.0000  0.0000  0.0009  0.0280  0.0000  0.0093  0.0027 </r>
        <r>  0.0000  0.2139  0.0000  0.0713  0.0000  0.0002  0.0000  0.0001  0.0000 </r>
        <r>  0.0000  0.2139  0.0000  0.0713  0.0000  0.0002  0.0000  0.0001  0.0000 </r>
       </set>
       <set comment="band 14">
        <r>  0.2423  0.0011  0.0001  0.0033  0.0116  0.0005  0.0001  0.0016  0.0039 </r>
        <r>  0.0041  0.0273  0.0357  0.0820  0.0040  0.0007  0.0005  0.0022  0.0013 </r>
        <r>  0.0041  0.0273  0.0357  0.0820  0.0040  0.0007  0.0005  0.0022  0.0013 </r>
       </set>
       <set comment="band 15">
        <r>  0.0011  0.0187  0.1395  0.0562  0.0001  0.0001  0.0000  0.0004  0.0000 </r>
        <r>  0.0315  0.0010  0.0547  0.0031  0.0163  0.0000  0.0000  0.0001  0.0054 </r>
        <r>  0.0315  0.0010  0.0547  0.0031  0.0163  0.0000  0.0000  0.0001  0.0054 </r>
       </set>
       <set comment="band 16">
        <r>  0.0001  0.0149  0.1346  0.0446  0.0080  0.0010  0.0049  0.0030  0.0027 </r>
        <r>  0.0020  0.0082  0.0170  0.0245  0.0039  0.0056  0.0067  0.0168  0.0013 </r>
        <r>  0.0020  0.0082  0.0170  0.0245  0.0039  0.0056  0.0067  0.0168  0.0013 </r>
       </set>
       <set comment="band 17">
        <r>  0.0000  0.2712  0.0000  0.0904  0.0000  0.0000  0.0000  0.0000  0.0000 </r>
        <r>  0.0000  0.0781  0.0000  0.0260  0.0002  0.0200  0.0000  0.0067  0.0007 </r>
        <r>  0.0000  0.0781  0.0000  0.0260  0.0002  0.0200  0.0000  0.0067  0.0007 </r>
       </set>
       <set comment="band 18">
        <r>  0.0018  0.0043  0.0262  0.0129  0.0229  0.0073  0.0311  0.0218  0.0076 </r>
        <r>  0.0008  0.0023  0.0303  0.0070  0.0137  0.0036  0.0112  0.0107  0.0046 </r>
        <r>  0.0008  0.0023  0.0303  0.0070  0.0137  0.0036  0.0112  0.0107  0.0046 </r>
       </set>
       <set comment="band 19">
        <r>  0.0003  0.0010  0.0032  0.0029  0.0026  0.0001  0.0008  0.0003  0.0009 </r>
        <r>  0.0040  0.0038  0.0022  0.0113  0.0012  0.0006  0.0055  0.0017  0.0004 </r>
        <r>  0.0040  0.0038  0.0022  0.0113  0.0012  0.0006  0.0055  0.0017  0.0004 </r>
       </set>
       <set comment="band 20">
        <r>  0.0077  0.0028  0.0028  0.0085  0.0000  0.0003  0.0021  0.0009  0.0000 </r>
        <r>  0.0026  0.0037  0.0177  0.0111  0.0015  0.0001  0.0000  0.0003  0.0005 </r>
        <r>  0.0026  0.0037  0.0177  0.0111  0.0015  0.0001  0.0000  0.0003  0.0005 </r>
       </set>
      </set>
      <set comment="kpoint 10">
       <set comment="band 1">
        <r>  0.0000  0.0000  0.0000  0.0000  0.3816  0.1130  0.0192  0.3392  0.1272 </r>
        <r>  0.0023  0.0000  0.0005  0.0000  0.0000  0.0000  0.0000  0.0000  0.0000 </r>
        <r>  0.0023  0.0000  0.0005  0.0000  0.0000  0.0000  0.0000  0.0000  0.0000 </r>
       </set>
       <set comment="band 2">
        <r>  0.0000  0.0000  0.0000  0.0000  0.0479  0.5982  0.0000  0.1994  0.1437 </r>
        <r>  0.0000  0.0004  0.0000  0.0001  0.0000  0.0001  0.0000  0.0000  0.0000 </r>
        <r>  0.0000  0.0004  0.0000  0.0001  0.0000  0.0001  0.0000  0.0000  0.0000 </r>
       </set>
       <set comment="band 3">
        <r>  0.0000  0.0000  0.0000  0.0000  0.2938  0.1296  0.0789  0.3887  0.0979 </r>
        <r>  0.0001  0.0000  0.0000  0.0000  0.0000  0.0000  0.0000  0.0000  0.0000 </r>
        <r>  0.0001  0.0000  0.0000  0.0000  0.0000  0.0000  0.0000  0.0000  0.0000 </r>
       </set>
       <set comment="band 4">
        <r>  0.0000  0.0000  0.0000  0.0000  0.2002  0.1439  0.0000  0.0480  0.6005 </r>
        <r>  0.0000  0.0000  0.0000  0.0000  0.0000  0.0000  0.0000  0.0000  0.0000 </r>
        <r>  0.0000  0.0000  0.0000  0.0000  0.0000  0.0000  0.0000  0.0000  0.0000 </r>
       </set>
       <set comment="band 5">
        <r>  0.0000  0.0000  0.0000  0.0000  0.0640  0.0033  0.8932  0.0099  0.0213 </r>
        <r>  0.0000  0.0000  0.0000  0.0000  0.0000  0.0000  0.0000  0.0000  0.0000 </r>
        <r>  0.0000  0.0000  0.0000  0.0000  0.0000  0.0000  0.0000  0.0000  0.0000 </r>
       </set>
       <set comment="band 6">
        <r>  0.0000  0.0089  0.0033  0.0268  0.0000  0.0000  0.0000  0.0000  0.0000 </r>
        <r>  0.3429  0.0000  0.0025  0.0001  0.0000  0.0000  0.0000  0.0000  0.0000 </r>
        <r>  0.3429  0.0000  0.0025  0.0001  0.0000  0.0000  0.0000  0.0000  0.0000 </r>
       </set>
       <set comment="band 7">
        <r>  0.0357  0.0000  0.0000  0.0000  0.0059  0.0032  0.0000  0.0095  0.0020 </r>
        <r>  0.3471  0.0002  0.0011  0.0007  0.0001  0.0000  0.0000  0.0001  0.0000 </r>
        <r>  0.3471  0.0002  0.0011  0.0007  0.0001  0.0000  0.0000  0.0001  0.0000 </r>
       </set>
       <set comment="band 8">
        <r>  0.4723  0.0000  0.0000  0.0000  0.0005  0.0010  0.0002  0.0029  0.0002 </r>
        <r>  0.0258  0.0149  0.0049  0.0447  0.0005  0.0006  0.0000  0.0018  0.0002 </r>
        <r>  0.0258  0.0149  0.0049  0.0447  0.0005  0.0006  0.0000  0.0018  0.0002 </r>
       </set>
       <set comment="band 9">
        <r>  0.0000  0.0218  0.0834  0.0655  0.0000  0.0000  0.0000  0.0000  0.0000 </r>
        <r>  0.0098  0.0304  0.0256  0.0911  0.0001  0.0003  0.0004  0.0009  0.0000 </r>
        <r>  0.0098  0.0304  0.0256  0.0911  0.0001  0.0003  0.0004  0.0009  0.0000 </r>
       </set>
       <set comment="band 10">
        <r>  0.0000  0.0179  0.0676  0.0538  0.0000  0.0000  0.0000  0.0000  0.0000 </r>
        <r>  0.0176  0.0109  0.1448  0.0327  0.0005  0.0000  0.0002  0.0000  0.0002 </r>
        <r>  0.0176  0.0109  0.1448  0.0327  0.0005  0.0000  0.0002  0.0000  0.0002 </r>
       </set>
       <set comment="band 11">
        <r>  0.0000  0.1372  0.0000  0.0457  0.0000  0.0000  0.0000  0.0000  0.0000 </r>
        <r>  0.0000  0.1459  0.0000  0.0486  0.0000  0.0024  0.0000  0.0008  0.0001 </r>
        <r>  0.0000  0.1459  0.0000  0.0486  0.0000  0.0024  0.0000  0.0008  0.0001 </r>
       </set>
       <set comment="band 12">
        <r>  0.0072  0.0000  0.0000  0.0000  0.0102  0.0041  0.0053  0.0123  0.0034 </r>
        <r>  0.0013  0.0110  0.2141  0.0329  0.0000  0.0001  0.0001  0.0003  0.0000 </r>
        <r>  0.0013  0.0110  0.2141  0.0329  0.0000  0.0001  0.0001  0.0003  0.0000 </r>
       </set>
       <set comment="band 13">
        <r>  0.0000  0.0000  0.0000  0.0000  0.0009  0.0284  0.0000  0.0095  0.0026 </r>
        <r>  0.0000  0.2135  0.0000  0.0712  0.0000  0.0002  0.0000  0.0001  0.0000 </r>
        <r>  0.0000  0.2135  0.0000  0.0712  0.0000  0.0002  0.0000  0.0001  0.0000 </r>
       </set>
       <set comment="band 14">
        <r>  0.2431  0.0000  0.0000  0.0000  0.0126  0.0005  0.0001  0.0014  0.0042 </r>
        <r>  0.0039  0.0267  0.0390  0.0800  0.0039  0.0007  0.0006  0.0022  0.0013 </r>
        <r>  0.0039  0.0267  0.0390  0.0800  0.0039  0.0007  0.0006  0.0022  0.0013 </r>
       </set>
       <set comment="band 15">
        <r>  0.0000  0.0178  0.1449  0.0533  0.0000  0.0000  0.0000  0.0000  0.0000 </r>
        <r>  0.0307  0.0010  0.0538  0.0031  0.0169  0.0000  0.0000  0.0000  0.0056 </r>
        <r>  0.0307  0.0010  0.0538  0.0031  0.0169  0.0000  0.0000  0.0000  0.0056 </r>
       </set>
       <set comment="band 16">
        <r>  0.0000  0.0196  0.1561  0.0589  0.0000  0.0000  0.0000  0.0000  0.0000 </r>
        <r>  0.0027  0.0088  0.0290  0.0264  0.0024  0.0059  0.0056  0.0178  0.0008 </r>
        <r>  0.0027  0.0088  0.0290  0.0264  0.0024  0.0059  0.0056  0.0178  0.0008 </r>
       </set>
       <set comment="band 17">
        <r>  0.0009  0.0000  0.0000  0.0000  0.0303  0.0084  0.0360  0.0251  0.0101 </r>
        <r>  0.0003  0.0011  0.0175  0.0034  0.0148  0.0035  0.0120  0.0106  0.0049 </r>
        <r>  0.0003  0.0011  0.0175  0.0034  0.0148  0.0035  0.0120  0.0106  0.0049 </r>
       </set>
       <set comment="band 18">
        <r>  0.0000  0.2685  0.0000  0.0895  0.0000  0.0000  0.0000  0.0000  0.0000 </r>
        <r>  0.0000  0.0780  0.0000  0.0260  0.0002  0.0204  0.0000  0.0068  0.0005 </r>
        <r>  0.0000  0.0780  0.0000  0.0260  0.0002  0.0204  0.0000  0.0068  0.0005 </r>
       </set>
       <set comment="band 19">
        <r>  0.0000  0.0027  0.0043  0.0081  0.0000  0.0000  0.0000  0.0000  0.0000 </r>
        <r>  0.0019  0.0062  0.0001  0.0185  0.0020  0.0009  0.0093  0.0026  0.0007 </r>
        <r>  0.0019  0.0062  0.0001  0.0185  0.0020  0.0009  0.0093  0.0026  0.0007 </r>
       </set>
       <set comment="band 20">
        <r>  0.0007  0.0000  0.0000  0.0000  0.0062  0.0001  0.0012  0.0002  0.0021 </r>
        <r>  0.0051  0.0034  0.0033  0.0101  0.0000  0.0003  0.0065  0.0009  0.0000 </r>
        <r>  0.0051  0.0034  0.0033  0.0101  0.0000  0.0003  0.0065  0.0009  0.0000 </r>
       </set>
      </set>
      <set comment="kpoint 11">
       <set comment="band 1">
        <r>  0.0000  0.0000  0.0000  0.0000  0.1976  0.1479  0.0000  0.0493  0.5928 </r>
        <r>  0.0002  0.0003  0.0000  0.0001  0.0000  0.0001  0.0000  0.0000  0.0000 </r>
        <r>  0.0002  0.0003  0.0000  0.0001  0.0000  0.0001  0.0000  0.0000  0.0000 </r>
       </set>
       <set comment="band 2">
        <r>  0.0000  0.0000  0.0000  0.0000  0.5952  0.0482  0.0020  0.1446  0.1984 </r>
        <r>  0.0000  0.0001  0.0000  0.0003  0.0000  0.0000  0.0000  0.0001  0.0000 </r>
        <r>  0.0000  0.0001  0.0000  0.0003  0.0000  0.0000  0.0000  0.0001  0.0000 </r>
       </set>
       <set comment="band 3">
        <r>  0.0000  0.0000  0.0000  0.0000  0.0000  0.0024  0.9799  0.0072  0.0000 </r>
        <r>  0.0000  0.0000  0.0001  0.0000  0.0000  0.0000  0.0000  0.0000  0.0000 </r>
        <r>  0.0000  0.0000  0.0001  0.0000  0.0000  0.0000  0.0000  0.0000  0.0000 </r>
       </set>
       <set comment="band 4">
        <r>  0.0000  0.0000  0.0000  0.0000  0.0496  0.5943  0.0000  0.1981  0.1487 </r>
        <r>  0.0001  0.0000  0.0000  0.0000  0.0000  0.0000  0.0000  0.0000  0.0000 </r>
        <r>  0.0001  0.0000  0.0000  0.0000  0.0000  0.0000  0.0000  0.0000  0.0000 </r>
       </set>
       <set comment="band 5">
        <r>  0.0000  0.0000  0.0000  0.0000  0.1466  0.1970  0.0075  0.5909  0.0489 </r>
        <r>  0.0000  0.0000  0.0000  0.0000  0.0000  0.0000  0.0000  0.0000  0.0000 </r>
        <r>  0.0000  0.0000  0.0000  0.0000  0.0000  0.0000  0.0000  0.0000  0.0000 </r>
       </set>
       <set comment="band 6">
        <r>  0.1332  0.0016  0.0000  0.0005  0.0000  0.0000  0.0002  0.0000  0.0000 </r>
        <r>  0.2608  0.0002  0.0046  0.0001  0.0000  0.0000  0.0000  0.0000  0.0000 </r>
        <r>  0.2608  0.0002  0.0046  0.0001  0.0000  0.0000  0.0000  0.0000  0.0000 </r>
       </set>
       <set comment="band 7">
        <r>  0.0000  0.0000  0.0307  0.0000  0.0001  0.0008  0.0000  0.0003  0.0004 </r>
        <r>  0.3425  0.0001  0.0007  0.0000  0.0000  0.0000  0.0001  0.0000  0.0000 </r>
        <r>  0.3425  0.0001  0.0007  0.0000  0.0000  0.0000  0.0001  0.0000  0.0000 </r>
       </set>
       <set comment="band 8">
        <r>  0.3461  0.0000  0.0000  0.0000  0.0000  0.0000  0.0040  0.0000  0.0000 </r>
        <r>  0.1003  0.0023  0.0651  0.0008  0.0000  0.0002  0.0002  0.0001  0.0000 </r>
        <r>  0.1003  0.0023  0.0651  0.0008  0.0000  0.0002  0.0002  0.0001  0.0000 </r>
       </set>
       <set comment="band 9">
        <r>  0.0230  0.0931  0.0000  0.0310  0.0024  0.0000  0.0046  0.0000  0.0008 </r>
        <r>  0.0024  0.1232  0.0309  0.0632  0.0004  0.0010  0.0004  0.0006  0.0011 </r>
        <r>  0.0024  0.1232  0.0309  0.0632  0.0004  0.0010  0.0004  0.0006  0.0011 </r>
       </set>
       <set comment="band 10">
        <r>  0.0000  0.0013  0.0526  0.0040  0.0006  0.0005  0.0000  0.0002  0.0017 </r>
        <r>  0.0013  0.0022  0.2335  0.0044  0.0000  0.0000  0.0000  0.0000  0.0001 </r>
        <r>  0.0013  0.0022  0.2335  0.0044  0.0000  0.0000  0.0000  0.0000  0.0001 </r>
       </set>
       <set comment="band 11">
        <r>  0.0000  0.0201  0.0327  0.0603  0.0041  0.0025  0.0000  0.0008  0.0122 </r>
        <r>  0.0053  0.1367  0.0035  0.0890  0.0006  0.0010  0.0006  0.0008  0.0002 </r>
        <r>  0.0053  0.1367  0.0035  0.0890  0.0006  0.0010  0.0006  0.0008  0.0002 </r>
       </set>
       <set comment="band 12">
        <r>  0.0000  0.0116  0.0132  0.0349  0.0023  0.0080  0.0000  0.0027  0.0068 </r>
        <r>  0.0034  0.1054  0.0036  0.1593  0.0003  0.0003  0.0004  0.0006  0.0002 </r>
        <r>  0.0034  0.1054  0.0036  0.1593  0.0003  0.0003  0.0004  0.0006  0.0002 </r>
       </set>
       <set comment="band 13">
        <r>  0.0022  0.0000  0.0000  0.0000  0.0187  0.0043  0.0006  0.0129  0.0062 </r>
        <r>  0.0012  0.0901  0.0045  0.1927  0.0000  0.0002  0.0001  0.0007  0.0000 </r>
        <r>  0.0012  0.0901  0.0045  0.1927  0.0000  0.0002  0.0001  0.0007  0.0000 </r>
       </set>
       <set comment="band 14">
        <r>  0.2238  0.0002  0.0000  0.0001  0.0001  0.0001  0.0079  0.0004  0.0000 </r>
        <r>  0.0302  0.0598  0.1067  0.0202  0.0001  0.0000  0.0005  0.0000  0.0002 </r>
        <r>  0.0302  0.0598  0.1067  0.0202  0.0001  0.0000  0.0005  0.0000  0.0002 </r>
       </set>
       <set comment="band 15">
        <r>  0.0000  0.0054  0.2609  0.0162  0.0003  0.0014  0.0000  0.0005  0.0009 </r>
        <r>  0.0509  0.0262  0.0055  0.0128  0.0010  0.0001  0.0125  0.0002  0.0006 </r>
        <r>  0.0509  0.0262  0.0055  0.0128  0.0010  0.0001  0.0125  0.0002  0.0006 </r>
       </set>
       <set comment="band 16">
        <r>  0.0039  0.2718  0.0000  0.0906  0.0008  0.0000  0.0005  0.0001  0.0003 </r>
        <r>  0.0132  0.0215  0.0018  0.0168  0.0042  0.0035  0.0002  0.0015  0.0125 </r>
        <r>  0.0132  0.0215  0.0018  0.0168  0.0042  0.0035  0.0002  0.0015  0.0125 </r>
       </set>
       <set comment="band 17">
        <r>  0.0000  0.1041  0.0127  0.3124  0.0003  0.0001  0.0000  0.0000  0.0008 </r>
        <r>  0.0009  0.0279  0.0004  0.0388  0.0139  0.0020  0.0007  0.0043  0.0048 </r>
        <r>  0.0009  0.0279  0.0004  0.0388  0.0139  0.0020  0.0007  0.0043  0.0048 </r>
       </set>
       <set comment="band 18">
        <r>  0.0068  0.0229  0.0000  0.0076  0.0000  0.0000  0.0072  0.0000  0.0000 </r>
        <r>  0.0001  0.0008  0.0140  0.0008  0.0004  0.0002  0.0034  0.0001  0.0011 </r>
        <r>  0.0001  0.0008  0.0140  0.0008  0.0004  0.0002  0.0034  0.0001  0.0011 </r>
       </set>
       <set comment="band 19">
        <r>  0.0000  0.0003  0.0001  0.0010  0.0007  0.0000  0.0000  0.0000  0.0020 </r>
        <r>  0.0025  0.0000  0.0206  0.0000  0.0002  0.0003  0.0034  0.0001  0.0002 </r>
        <r>  0.0025  0.0000  0.0206  0.0000  0.0002  0.0003  0.0034  0.0001  0.0002 </r>
       </set>
       <set comment="band 20">
        <r>  0.0062  0.0094  0.0000  0.0031  0.0000  0.0000  0.0133  0.0000  0.0000 </r>
        <r>  0.0003  0.0003  0.0073  0.0003  0.0002  0.0001  0.0065  0.0001  0.0005 </r>
        <r>  0.0003  0.0003  0.0073  0.0003  0.0002  0.0001  0.0065  0.0001  0.0005 </r>
       </set>
      </set>
      <set comment="kpoint 12">
       <set comment="band 1">
        <r>  0.0000  0.0000  0.0000  0.0000  0.3348  0.1327  0.0016  0.1073  0.4103 </r>
        <r>  0.0004  0.0002  0.0001  0.0002  0.0000  0.0001  0.0000  0.0001  0.0000 </r>
        <r>  0.0004  0.0002  0.0001  0.0002  0.0000  0.0001  0.0000  0.0001  0.0000 </r>
       </set>
       <set comment="band 2">
        <r>  0.0000  0.0000  0.0000  0.0000  0.4085  0.1086  0.0064  0.1297  0.3353 </r>
        <r>  0.0000  0.0002  0.0000  0.0002  0.0000  0.0001  0.0000  0.0001  0.0000 </r>
        <r>  0.0000  0.0002  0.0000  0.0002  0.0000  0.0001  0.0000  0.0001  0.0000 </r>
       </set>
       <set comment="band 3">
        <r>  0.0000  0.0000  0.0000  0.0000  0.0775  0.2285  0.2612  0.3404  0.0826 </r>
        <r>  0.0001  0.0000  0.0000  0.0000  0.0000  0.0000  0.0000  0.0000  0.0000 </r>
        <r>  0.0001  0.0000  0.0000  0.0000  0.0000  0.0000  0.0000  0.0000  0.0000 </r>
       </set>
       <set comment="band 4">
        <r>  0.0000  0.0000  0.0000  0.0000  0.0185  0.2505  0.6422  0.0096  0.0692 </r>
        <r>  0.0000  0.0000  0.0000  0.0000  0.0000  0.0000  0.0000  0.0000  0.0000 </r>
        <r>  0.0000  0.0000  0.0000  0.0000  0.0000  0.0000  0.0000  0.0000  0.0000 </r>
       </set>
       <set comment="band 5">
        <r>  0.0000  0.0000  0.0000  0.0000  0.1496  0.2691  0.0782  0.4026  0.0914 </r>
        <r>  0.0000  0.0000  0.0000  0.0000  0.0000  0.0000  0.0000  0.0000  0.0000 </r>
        <r>  0.0000  0.0000  0.0000  0.0000  0.0000  0.0000  0.0000  0.0000  0.0000 </r>
       </set>
       <set comment="band 6">
        <r>  0.1259  0.0027  0.0000  0.0020  0.0000  0.0000  0.0002  0.0000  0.0000 </r>
        <r>  0.2649  0.0003  0.0045  0.0002  0.0000  0.0000  0.0000  0.0000  0.0000 </r>
        <r>  0.2649  0.0003  0.0045  0.0002  0.0000  0.0000  0.0000  0.0000  0.0000 </r>
       </set>
       <set comment="band 7">
        <r>  0.0000  0.0000  0.0283  0.0001  0.0005  0.0014  0.0000  0.0011  0.0006 </r>
        <r>  0.3448  0.0001  0.0007  0.0001  0.0000  0.0000  0.0001  0.0000  0.0000 </r>
        <r>  0.3448  0.0001  0.0007  0.0001  0.0000  0.0000  0.0001  0.0000  0.0000 </r>
       </set>
       <set comment="band 8">
        <r>  0.3632  0.0000  0.0000  0.0000  0.0000  0.0000  0.0029  0.0001  0.0000 </r>
        <r>  0.0995  0.0044  0.0574  0.0036  0.0001  0.0003  0.0001  0.0003  0.0001 </r>
        <r>  0.0995  0.0044  0.0574  0.0036  0.0001  0.0003  0.0001  0.0003  0.0001 </r>
       </set>
       <set comment="band 9">
        <r>  0.0194  0.0381  0.0078  0.0799  0.0061  0.0004  0.0051  0.0002  0.0017 </r>
        <r>  0.0025  0.0458  0.0402  0.1118  0.0008  0.0003  0.0007  0.0012  0.0005 </r>
        <r>  0.0025  0.0458  0.0402  0.1118  0.0008  0.0003  0.0007  0.0012  0.0005 </r>
       </set>
       <set comment="band 10">
        <r>  0.0056  0.0729  0.0263  0.0120  0.0015  0.0020  0.0016  0.0013  0.0130 </r>
        <r>  0.0058  0.1903  0.0126  0.0099  0.0001  0.0016  0.0007  0.0001  0.0007 </r>
        <r>  0.0058  0.1903  0.0126  0.0099  0.0001  0.0016  0.0007  0.0001  0.0007 </r>
       </set>
       <set comment="band 11">
        <r>  0.0000  0.0028  0.0779  0.0021  0.0001  0.0001  0.0000  0.0000  0.0008 </r>
        <r>  0.0039  0.0044  0.2182  0.0144  0.0001  0.0001  0.0001  0.0001  0.0001 </r>
        <r>  0.0039  0.0044  0.2182  0.0144  0.0001  0.0001  0.0001  0.0001  0.0001 </r>
       </set>
       <set comment="band 12">
        <r>  0.0012  0.0227  0.0052  0.0278  0.0097  0.0019  0.0006  0.0096  0.0000 </r>
        <r>  0.0030  0.0111  0.0250  0.2205  0.0003  0.0003  0.0003  0.0007  0.0003 </r>
        <r>  0.0030  0.0111  0.0250  0.2205  0.0003  0.0003  0.0003  0.0007  0.0003 </r>
       </set>
       <set comment="band 13">
        <r>  0.0002  0.0006  0.0012  0.0093  0.0064  0.0134  0.0003  0.0056  0.0090 </r>
        <r>  0.0011  0.1881  0.0039  0.0942  0.0001  0.0003  0.0001  0.0004  0.0001 </r>
        <r>  0.0011  0.1881  0.0039  0.0942  0.0001  0.0003  0.0001  0.0004  0.0001 </r>
       </set>
       <set comment="band 14">
        <r>  0.2297  0.0015  0.0001  0.0022  0.0012  0.0000  0.0046  0.0011  0.0001 </r>
        <r>  0.0168  0.0649  0.0865  0.0555  0.0009  0.0001  0.0002  0.0001  0.0007 </r>
        <r>  0.0168  0.0649  0.0865  0.0555  0.0009  0.0001  0.0002  0.0001  0.0007 </r>
       </set>
       <set comment="band 15">
        <r>  0.0001  0.0111  0.1624  0.1333  0.0000  0.0013  0.0000  0.0001  0.0004 </r>
        <r>  0.0404  0.0173  0.0092  0.0136  0.0066  0.0002  0.0070  0.0017  0.0007 </r>
        <r>  0.0404  0.0173  0.0092  0.0136  0.0066  0.0002  0.0070  0.0017  0.0007 </r>
       </set>
       <set comment="band 16">
        <r>  0.0007  0.2210  0.0599  0.0213  0.0015  0.0001  0.0003  0.0015  0.0000 </r>
        <r>  0.0253  0.0080  0.0064  0.0416  0.0007  0.0029  0.0032  0.0010  0.0090 </r>
        <r>  0.0253  0.0080  0.0064  0.0416  0.0007  0.0029  0.0032  0.0010  0.0090 </r>
       </set>
       <set comment="band 17">
        <r>  0.0000  0.1260  0.0509  0.2200  0.0000  0.0002  0.0000  0.0001  0.0007 </r>
        <r>  0.0027  0.0587  0.0022  0.0240  0.0076  0.0044  0.0029  0.0036  0.0053 </r>
        <r>  0.0027  0.0587  0.0022  0.0240  0.0076  0.0044  0.0029  0.0036  0.0053 </r>
       </set>
       <set comment="band 18">
        <r>  0.0004  0.0069  0.0001  0.0031  0.0031  0.0001  0.0006  0.0001  0.0042 </r>
        <r>  0.0032  0.0005  0.0176  0.0001  0.0007  0.0005  0.0034  0.0007  0.0007 </r>
        <r>  0.0032  0.0005  0.0176  0.0001  0.0007  0.0005  0.0034  0.0007  0.0007 </r>
       </set>
       <set comment="band 19">
        <r>  0.0042  0.0165  0.0006  0.0205  0.0001  0.0000  0.0041  0.0001  0.0002 </r>
        <r>  0.0010  0.0000  0.0167  0.0025  0.0010  0.0001  0.0023  0.0002  0.0008 </r>
        <r>  0.0010  0.0000  0.0167  0.0025  0.0010  0.0001  0.0023  0.0002  0.0008 </r>
       </set>
       <set comment="band 20">
        <r>  0.0042  0.0112  0.0000  0.0078  0.0005  0.0001  0.0115  0.0004  0.0001 </r>
        <r>  0.0000  0.0001  0.0097  0.0014  0.0005  0.0000  0.0063  0.0005  0.0006 </r>
        <r>  0.0000  0.0001  0.0097  0.0014  0.0005  0.0000  0.0063  0.0005  0.0006 </r>
       </set>
      </set>
      <set comment="kpoint 13">
       <set comment="band 1">
        <r>  0.0000  0.0000  0.0000  0.0000  0.3817  0.1318  0.0061  0.1618  0.3043 </r>
        <r>  0.0007  0.0001  0.0002  0.0002  0.0000  0.0000  0.0000  0.0001  0.0000 </r>
        <r>  0.0007  0.0001  0.0002  0.0002  0.0000  0.0000  0.0000  0.0001  0.0000 </r>
       </set>
       <set comment="band 2">
        <r>  0.0000  0.0000  0.0000  0.0000  0.2925  0.1841  0.0098  0.1356  0.3669 </r>
        <r>  0.0000  0.0003  0.0000  0.0002  0.0000  0.0001  0.0000  0.0001  0.0000 </r>
        <r>  0.0000  0.0003  0.0000  0.0002  0.0000  0.0001  0.0000  0.0001  0.0000 </r>
       </set>
       <set comment="band 3">
        <r>  0.0000  0.0000  0.0000  0.0000  0.1403  0.2528  0.0679  0.4110  0.1180 </r>
        <r>  0.0001  0.0000  0.0000  0.0000  0.0000  0.0000  0.0000  0.0000  0.0000 </r>
        <r>  0.0001  0.0000  0.0000  0.0000  0.0000  0.0000  0.0000  0.0000  0.0000 </r>
       </set>
       <set comment="band 4">
        <r>  0.0000  0.0000  0.0000  0.0000  0.0105  0.3022  0.4629  0.0834  0.1315 </r>
        <r>  0.0000  0.0000  0.0000  0.0000  0.0000  0.0000  0.0000  0.0000  0.0000 </r>
        <r>  0.0000  0.0000  0.0000  0.0000  0.0000  0.0000  0.0000  0.0000  0.0000 </r>
       </set>
       <set comment="band 5">
        <r>  0.0000  0.0000  0.0000  0.0000  0.1639  0.1182  0.4433  0.1971  0.0683 </r>
        <r>  0.0000  0.0000  0.0000  0.0000  0.0000  0.0000  0.0000  0.0000  0.0000 </r>
        <r>  0.0000  0.0000  0.0000  0.0000  0.0000  0.0000  0.0000  0.0000  0.0000 </r>
       </set>
       <set comment="band 6">
        <r>  0.1148  0.0041  0.0000  0.0044  0.0001  0.0000  0.0001  0.0001  0.0000 </r>
        <r>  0.2713  0.0004  0.0043  0.0005  0.0000  0.0000  0.0000  0.0000  0.0000 </r>
        <r>  0.2713  0.0004  0.0043  0.0005  0.0000  0.0000  0.0000  0.0000  0.0000 </r>
       </set>
       <set comment="band 7">
        <r>  0.0001  0.0000  0.0247  0.0004  0.0010  0.0021  0.0000  0.0023  0.0009 </r>
        <r>  0.3482  0.0002  0.0007  0.0002  0.0000  0.0000  0.0000  0.0000  0.0000 </r>
        <r>  0.3482  0.0002  0.0007  0.0002  0.0000  0.0000  0.0000  0.0000  0.0000 </r>
       </set>
       <set comment="band 8">
        <r>  0.3874  0.0000  0.0000  0.0001  0.0001  0.0000  0.0016  0.0002  0.0000 </r>
        <r>  0.0957  0.0074  0.0456  0.0091  0.0002  0.0005  0.0001  0.0006  0.0001 </r>
        <r>  0.0957  0.0074  0.0456  0.0091  0.0002  0.0005  0.0001  0.0006  0.0001 </r>
       </set>
       <set comment="band 9">
        <r>  0.0113  0.0248  0.0204  0.0905  0.0063  0.0003  0.0046  0.0003  0.0032 </r>
        <r>  0.0033  0.0371  0.0437  0.1004  0.0007  0.0003  0.0009  0.0012  0.0003 </r>
        <r>  0.0033  0.0371  0.0437  0.1004  0.0007  0.0003  0.0009  0.0012  0.0003 </r>
       </set>
       <set comment="band 10">
        <r>  0.0071  0.0794  0.0370  0.0018  0.0009  0.0015  0.0033  0.0019  0.0083 </r>
        <r>  0.0058  0.1630  0.0287  0.0109  0.0000  0.0014  0.0008  0.0000  0.0007 </r>
        <r>  0.0058  0.1630  0.0287  0.0109  0.0000  0.0014  0.0008  0.0000  0.0007 </r>
       </set>
       <set comment="band 11">
        <r>  0.0000  0.0300  0.0672  0.0221  0.0007  0.0000  0.0001  0.0015  0.0023 </r>
        <r>  0.0051  0.0146  0.1021  0.1112  0.0003  0.0003  0.0001  0.0006  0.0005 </r>
        <r>  0.0051  0.0146  0.1021  0.1112  0.0003  0.0003  0.0001  0.0006  0.0005 </r>
       </set>
       <set comment="band 12">
        <r>  0.0006  0.0145  0.0070  0.0099  0.0091  0.0011  0.0009  0.0092  0.0001 </r>
        <r>  0.0009  0.0130  0.1452  0.0945  0.0001  0.0004  0.0001  0.0002  0.0002 </r>
        <r>  0.0009  0.0130  0.1452  0.0945  0.0001  0.0004  0.0001  0.0002  0.0002 </r>
       </set>
       <set comment="band 13">
        <r>  0.0002  0.0005  0.0011  0.0092  0.0028  0.0182  0.0001  0.0046  0.0070 </r>
        <r>  0.0008  0.2001  0.0056  0.0803  0.0001  0.0002  0.0000  0.0004  0.0002 </r>
        <r>  0.0008  0.2001  0.0056  0.0803  0.0001  0.0002  0.0000  0.0004  0.0002 </r>
       </set>
       <set comment="band 14">
        <r>  0.2292  0.0059  0.0012  0.0163  0.0033  0.0004  0.0021  0.0015  0.0000 </r>
        <r>  0.0066  0.0546  0.0615  0.0832  0.0025  0.0004  0.0003  0.0007  0.0012 </r>
        <r>  0.0066  0.0546  0.0615  0.0832  0.0025  0.0004  0.0003  0.0007  0.0012 </r>
       </set>
       <set comment="band 15">
        <r>  0.0057  0.0229  0.0942  0.1599  0.0000  0.0005  0.0000  0.0003  0.0002 </r>
        <r>  0.0427  0.0128  0.0277  0.0025  0.0077  0.0003  0.0028  0.0021  0.0011 </r>
        <r>  0.0427  0.0128  0.0277  0.0025  0.0077  0.0003  0.0028  0.0021  0.0011 </r>
       </set>
       <set comment="band 16">
        <r>  0.0001  0.2331  0.0736  0.0049  0.0006  0.0002  0.0002  0.0021  0.0003 </r>
        <r>  0.0197  0.0081  0.0055  0.0621  0.0007  0.0040  0.0039  0.0014  0.0071 </r>
        <r>  0.0197  0.0081  0.0055  0.0621  0.0007  0.0040  0.0039  0.0014  0.0071 </r>
       </set>
       <set comment="band 17">
        <r>  0.0000  0.0735  0.1107  0.1409  0.0005  0.0003  0.0000  0.0002  0.0000 </r>
        <r>  0.0035  0.0708  0.0063  0.0191  0.0024  0.0067  0.0064  0.0037  0.0034 </r>
        <r>  0.0035  0.0708  0.0063  0.0191  0.0024  0.0067  0.0064  0.0037  0.0034 </r>
       </set>
       <set comment="band 18">
        <r>  0.0003  0.0183  0.0046  0.0121  0.0081  0.0003  0.0025  0.0005  0.0070 </r>
        <r>  0.0045  0.0047  0.0103  0.0000  0.0027  0.0004  0.0034  0.0017  0.0016 </r>
        <r>  0.0045  0.0047  0.0103  0.0000  0.0027  0.0004  0.0034  0.0017  0.0016 </r>
       </set>
       <set comment="band 19">
        <r>  0.0026  0.0099  0.0057  0.0316  0.0004  0.0000  0.0012  0.0001  0.0005 </r>
        <r>  0.0025  0.0013  0.0204  0.0060  0.0014  0.0000  0.0009  0.0004  0.0006 </r>
        <r>  0.0025  0.0013  0.0204  0.0060  0.0014  0.0000  0.0009  0.0004  0.0006 </r>
       </set>
       <set comment="band 20">
        <r>  0.0012  0.0002  0.0137  0.0000  0.0214  0.0137  0.0119  0.0200  0.0137 </r>
        <r>  0.0000  0.0016  0.0073  0.0084  0.0159  0.0013  0.0078  0.0027  0.0110 </r>
        <r>  0.0000  0.0016  0.0073  0.0084  0.0159  0.0013  0.0078  0.0027  0.0110 </r>
       </set>
      </set>
      <set comment="kpoint 14">
       <set comment="band 1">
        <r>  0.0000  0.0000  0.0000  0.0000  0.3881  0.1343  0.0109  0.2129  0.2381 </r>
        <r>  0.0011  0.0001  0.0002  0.0002  0.0000  0.0000  0.0000  0.0001  0.0000 </r>
        <r>  0.0011  0.0001  0.0002  0.0002  0.0000  0.0000  0.0000  0.0001  0.0000 </r>
       </set>
       <set comment="band 2">
        <r>  0.0000  0.0000  0.0000  0.0000  0.2101  0.2886  0.0098  0.1528  0.3276 </r>
        <r>  0.0000  0.0003  0.0000  0.0001  0.0000  0.0001  0.0000  0.0000  0.0000 </r>
        <r>  0.0000  0.0003  0.0000  0.0001  0.0000  0.0001  0.0000  0.0000  0.0000 </r>
       </set>
       <set comment="band 3">
        <r>  0.0000  0.0000  0.0000  0.0000  0.1814  0.1955  0.0622  0.4254  0.1252 </r>
        <r>  0.0001  0.0000  0.0000  0.0000  0.0000  0.0000  0.0000  0.0000  0.0000 </r>
        <r>  0.0001  0.0000  0.0000  0.0000  0.0000  0.0000  0.0000  0.0000  0.0000 </r>
       </set>
       <set comment="band 4">
        <r>  0.0000  0.0000  0.0000  0.0000  0.0567  0.3413  0.2093  0.1189  0.2648 </r>
        <r>  0.0000  0.0000  0.0000  0.0000  0.0000  0.0000  0.0000  0.0000  0.0000 </r>
        <r>  0.0000  0.0000  0.0000  0.0000  0.0000  0.0000  0.0000  0.0000  0.0000 </r>
       </set>
       <set comment="band 5">
        <r>  0.0000  0.0000  0.0000  0.0000  0.1523  0.0289  0.6982  0.0780  0.0335 </r>
        <r>  0.0000  0.0000  0.0000  0.0000  0.0000  0.0000  0.0000  0.0000  0.0000 </r>
        <r>  0.0000  0.0000  0.0000  0.0000  0.0000  0.0000  0.0000  0.0000  0.0000 </r>
       </set>
       <set comment="band 6">
        <r>  0.0998  0.0056  0.0000  0.0075  0.0003  0.0000  0.0001  0.0003  0.0000 </r>
        <r>  0.2803  0.0005  0.0040  0.0007  0.0000  0.0000  0.0000  0.0000  0.0000 </r>
        <r>  0.2803  0.0005  0.0040  0.0007  0.0000  0.0000  0.0000  0.0000  0.0000 </r>
       </set>
       <set comment="band 7">
        <r>  0.0004  0.0000  0.0202  0.0009  0.0017  0.0027  0.0000  0.0037  0.0013 </r>
        <r>  0.3523  0.0002  0.0007  0.0003  0.0000  0.0000  0.0000  0.0000  0.0000 </r>
        <r>  0.3523  0.0002  0.0007  0.0003  0.0000  0.0000  0.0000  0.0000  0.0000 </r>
       </set>
       <set comment="band 8">
        <r>  0.4138  0.0002  0.0000  0.0004  0.0003  0.0000  0.0005  0.0006  0.0000 </r>
        <r>  0.0861  0.0109  0.0314  0.0176  0.0003  0.0006  0.0000  0.0009  0.0002 </r>
        <r>  0.0861  0.0109  0.0314  0.0176  0.0003  0.0006  0.0000  0.0009  0.0002 </r>
       </set>
       <set comment="band 9">
        <r>  0.0041  0.0200  0.0341  0.0920  0.0054  0.0002  0.0035  0.0004  0.0033 </r>
        <r>  0.0059  0.0353  0.0444  0.0886  0.0004  0.0003  0.0009  0.0011  0.0002 </r>
        <r>  0.0059  0.0353  0.0444  0.0886  0.0004  0.0003  0.0009  0.0011  0.0002 </r>
       </set>
       <set comment="band 10">
        <r>  0.0047  0.0774  0.0443  0.0000  0.0007  0.0012  0.0044  0.0022  0.0047 </r>
        <r>  0.0051  0.1294  0.0499  0.0179  0.0001  0.0010  0.0007  0.0000  0.0006 </r>
        <r>  0.0051  0.1294  0.0499  0.0179  0.0001  0.0010  0.0007  0.0000  0.0006 </r>
       </set>
       <set comment="band 11">
        <r>  0.0003  0.0577  0.0393  0.0378  0.0012  0.0002  0.0003  0.0031  0.0030 </r>
        <r>  0.0034  0.0346  0.0352  0.1466  0.0003  0.0009  0.0001  0.0008  0.0007 </r>
        <r>  0.0034  0.0346  0.0352  0.1466  0.0003  0.0009  0.0001  0.0008  0.0007 </r>
       </set>
       <set comment="band 12">
        <r>  0.0001  0.0039  0.0241  0.0007  0.0082  0.0006  0.0011  0.0085  0.0007 </r>
        <r>  0.0015  0.0181  0.2106  0.0257  0.0001  0.0002  0.0001  0.0000  0.0001 </r>
        <r>  0.0015  0.0181  0.2106  0.0257  0.0001  0.0002  0.0001  0.0000  0.0001 </r>
       </set>
       <set comment="band 13">
        <r>  0.0010  0.0003  0.0006  0.0065  0.0011  0.0224  0.0000  0.0043  0.0058 </r>
        <r>  0.0005  0.2003  0.0110  0.0729  0.0001  0.0002  0.0000  0.0003  0.0002 </r>
        <r>  0.0005  0.2003  0.0110  0.0729  0.0001  0.0002  0.0000  0.0003  0.0002 </r>
       </set>
       <set comment="band 14">
        <r>  0.2247  0.0060  0.0019  0.0287  0.0053  0.0010  0.0007  0.0015  0.0000 </r>
        <r>  0.0040  0.0417  0.0427  0.0953  0.0035  0.0006  0.0004  0.0014  0.0013 </r>
        <r>  0.0040  0.0417  0.0427  0.0953  0.0035  0.0006  0.0004  0.0014  0.0013 </r>
       </set>
       <set comment="band 15">
        <r>  0.0127  0.0187  0.0848  0.1360  0.0002  0.0001  0.0000  0.0014  0.0003 </r>
        <r>  0.0423  0.0147  0.0439  0.0006  0.0083  0.0004  0.0012  0.0016  0.0016 </r>
        <r>  0.0423  0.0147  0.0439  0.0006  0.0083  0.0004  0.0012  0.0016  0.0016 </r>
       </set>
       <set comment="band 16">
        <r>  0.0001  0.2967  0.0114  0.0546  0.0002  0.0000  0.0001  0.0015  0.0002 </r>
        <r>  0.0086  0.0333  0.0024  0.0479  0.0019  0.0097  0.0009  0.0025  0.0059 </r>
        <r>  0.0086  0.0333  0.0024  0.0479  0.0019  0.0097  0.0009  0.0025  0.0059 </r>
       </set>
       <set comment="band 17">
        <r>  0.0000  0.0010  0.1730  0.0551  0.0040  0.0005  0.0003  0.0008  0.0019 </r>
        <r>  0.0043  0.0424  0.0094  0.0334  0.0009  0.0055  0.0100  0.0065  0.0013 </r>
        <r>  0.0043  0.0424  0.0094  0.0334  0.0009  0.0055  0.0100  0.0065  0.0013 </r>
       </set>
       <set comment="band 18">
        <r>  0.0000  0.0141  0.0247  0.0222  0.0149  0.0012  0.0079  0.0025  0.0085 </r>
        <r>  0.0048  0.0097  0.0018  0.0032  0.0069  0.0005  0.0053  0.0017  0.0036 </r>
        <r>  0.0048  0.0097  0.0018  0.0032  0.0069  0.0005  0.0053  0.0017  0.0036 </r>
       </set>
       <set comment="band 19">
        <r>  0.0027  0.0101  0.0193  0.0324  0.0020  0.0004  0.0004  0.0007  0.0012 </r>
        <r>  0.0022  0.0017  0.0313  0.0092  0.0027  0.0003  0.0002  0.0007  0.0018 </r>
        <r>  0.0022  0.0017  0.0313  0.0092  0.0027  0.0003  0.0002  0.0007  0.0018 </r>
       </set>
       <set comment="band 20">
        <r>  0.0039  0.0013  0.0045  0.0008  0.0132  0.0103  0.0141  0.0210  0.0056 </r>
        <r>  0.0017  0.0053  0.0217  0.0091  0.0123  0.0011  0.0060  0.0031  0.0068 </r>
        <r>  0.0017  0.0053  0.0217  0.0091  0.0123  0.0011  0.0060  0.0031  0.0068 </r>
       </set>
      </set>
      <set comment="kpoint 15">
       <set comment="band 1">
        <r>  0.0000  0.0000  0.0000  0.0000  0.3813  0.1352  0.0143  0.2573  0.1948 </r>
        <r>  0.0015  0.0000  0.0003  0.0001  0.0000  0.0000  0.0000  0.0000  0.0000 </r>
        <r>  0.0015  0.0000  0.0003  0.0001  0.0000  0.0000  0.0000  0.0000  0.0000 </r>
       </set>
       <set comment="band 2">
        <r>  0.0000  0.0000  0.0000  0.0000  0.1502  0.4099  0.0073  0.1684  0.2534 </r>
        <r>  0.0000  0.0003  0.0000  0.0001  0.0000  0.0001  0.0000  0.0000  0.0000 </r>
        <r>  0.0000  0.0003  0.0000  0.0001  0.0000  0.0001  0.0000  0.0000  0.0000 </r>
       </set>
       <set comment="band 3">
        <r>  0.0000  0.0000  0.0000  0.0000  0.2149  0.1505  0.0656  0.4286  0.1297 </r>
        <r>  0.0001  0.0000  0.0000  0.0000  0.0000  0.0000  0.0000  0.0000  0.0000 </r>
        <r>  0.0001  0.0000  0.0000  0.0000  0.0000  0.0000  0.0000  0.0000  0.0000 </r>
       </set>
       <set comment="band 4">
        <r>  0.0000  0.0000  0.0000  0.0000  0.0913  0.2825  0.1392  0.0889  0.3895 </r>
        <r>  0.0000  0.0000  0.0000  0.0000  0.0000  0.0000  0.0000  0.0000  0.0000 </r>
        <r>  0.0000  0.0000  0.0000  0.0000  0.0000  0.0000  0.0000  0.0000  0.0000 </r>
       </set>
       <set comment="band 5">
        <r>  0.0000  0.0000  0.0000  0.0000  0.1507  0.0102  0.7642  0.0439  0.0223 </r>
        <r>  0.0000  0.0000  0.0000  0.0000  0.0000  0.0000  0.0000  0.0000  0.0000 </r>
        <r>  0.0000  0.0000  0.0000  0.0000  0.0000  0.0000  0.0000  0.0000  0.0000 </r>
       </set>
       <set comment="band 6">
        <r>  0.0807  0.0071  0.0002  0.0111  0.0005  0.0000  0.0000  0.0005  0.0000 </r>
        <r>  0.2923  0.0006  0.0036  0.0008  0.0000  0.0000  0.0000  0.0001  0.0000 </r>
        <r>  0.2923  0.0006  0.0036  0.0008  0.0000  0.0000  0.0000  0.0001  0.0000 </r>
       </set>
       <set comment="band 7">
        <r>  0.0018  0.0000  0.0150  0.0018  0.0025  0.0033  0.0000  0.0051  0.0016 </r>
        <r>  0.3563  0.0001  0.0007  0.0002  0.0000  0.0000  0.0000  0.0000  0.0000 </r>
        <r>  0.3563  0.0001  0.0007  0.0002  0.0000  0.0000  0.0000  0.0000  0.0000 </r>
       </set>
       <set comment="band 8">
        <r>  0.4365  0.0005  0.0000  0.0011  0.0005  0.0001  0.0001  0.0012  0.0001 </r>
        <r>  0.0701  0.0139  0.0189  0.0273  0.0004  0.0007  0.0000  0.0013  0.0002 </r>
        <r>  0.0701  0.0139  0.0189  0.0273  0.0004  0.0007  0.0000  0.0013  0.0002 </r>
       </set>
       <set comment="band 9">
        <r>  0.0006  0.0176  0.0495  0.0878  0.0039  0.0001  0.0021  0.0005  0.0026 </r>
        <r>  0.0096  0.0355  0.0407  0.0824  0.0002  0.0004  0.0008  0.0009  0.0001 </r>
        <r>  0.0096  0.0355  0.0407  0.0824  0.0002  0.0004  0.0008  0.0009  0.0001 </r>
       </set>
       <set comment="band 10">
        <r>  0.0017  0.0765  0.0480  0.0025  0.0005  0.0009  0.0045  0.0018  0.0024 </r>
        <r>  0.0058  0.1004  0.0733  0.0197  0.0002  0.0007  0.0006  0.0001  0.0005 </r>
        <r>  0.0058  0.1004  0.0733  0.0197  0.0002  0.0007  0.0006  0.0001  0.0005 </r>
       </set>
       <set comment="band 11">
        <r>  0.0014  0.0705  0.0275  0.0478  0.0005  0.0002  0.0003  0.0027  0.0030 </r>
        <r>  0.0021  0.0510  0.0249  0.1307  0.0003  0.0013  0.0000  0.0007  0.0006 </r>
        <r>  0.0021  0.0510  0.0249  0.1307  0.0003  0.0013  0.0000  0.0007  0.0006 </r>
       </set>
       <set comment="band 12">
        <r>  0.0001  0.0019  0.0237  0.0001  0.0090  0.0002  0.0016  0.0107  0.0012 </r>
        <r>  0.0020  0.0306  0.2133  0.0127  0.0001  0.0001  0.0001  0.0000  0.0001 </r>
        <r>  0.0020  0.0306  0.2133  0.0127  0.0001  0.0001  0.0001  0.0000  0.0001 </r>
       </set>
       <set comment="band 13">
        <r>  0.0015  0.0003  0.0003  0.0035  0.0002  0.0259  0.0000  0.0038  0.0053 </r>
        <r>  0.0002  0.1915  0.0208  0.0701  0.0001  0.0001  0.0000  0.0002  0.0002 </r>
        <r>  0.0002  0.1915  0.0208  0.0701  0.0001  0.0001  0.0000  0.0002  0.0002 </r>
       </set>
       <set comment="band 14">
        <r>  0.2258  0.0033  0.0014  0.0295  0.0071  0.0014  0.0001  0.0013  0.0003 </r>
        <r>  0.0041  0.0336  0.0328  0.0990  0.0038  0.0007  0.0005  0.0019  0.0012 </r>
        <r>  0.0041  0.0336  0.0328  0.0990  0.0038  0.0007  0.0005  0.0019  0.0012 </r>
       </set>
       <set comment="band 15">
        <r>  0.0119  0.0173  0.0913  0.1085  0.0005  0.0000  0.0000  0.0023  0.0005 </r>
        <r>  0.0387  0.0144  0.0525  0.0008  0.0103  0.0004  0.0004  0.0012  0.0026 </r>
        <r>  0.0387  0.0144  0.0525  0.0008  0.0103  0.0004  0.0004  0.0012  0.0026 </r>
       </set>
       <set comment="band 16">
        <r>  0.0005  0.0828  0.0910  0.0943  0.0062  0.0004  0.0011  0.0000  0.0018 </r>
        <r>  0.0000  0.0666  0.0022  0.0036  0.0008  0.0150  0.0045  0.0045  0.0035 </r>
        <r>  0.0000  0.0666  0.0022  0.0036  0.0008  0.0150  0.0045  0.0045  0.0035 </r>
       </set>
       <set comment="band 17">
        <r>  0.0000  0.2153  0.0741  0.0125  0.0039  0.0005  0.0013  0.0024  0.0023 </r>
        <r>  0.0063  0.0101  0.0047  0.0651  0.0041  0.0046  0.0050  0.0104  0.0009 </r>
        <r>  0.0063  0.0101  0.0047  0.0651  0.0041  0.0046  0.0050  0.0104  0.0009 </r>
       </set>
       <set comment="band 18">
        <r>  0.0032  0.0002  0.0525  0.0265  0.0229  0.0046  0.0226  0.0118  0.0095 </r>
        <r>  0.0028  0.0041  0.0168  0.0166  0.0150  0.0014  0.0115  0.0013  0.0075 </r>
        <r>  0.0028  0.0041  0.0168  0.0166  0.0150  0.0014  0.0115  0.0013  0.0075 </r>
       </set>
       <set comment="band 19">
        <r>  0.0026  0.0156  0.0025  0.0010  0.0009  0.0023  0.0031  0.0075  0.0003 </r>
        <r>  0.0017  0.0036  0.0371  0.0007  0.0030  0.0009  0.0005  0.0047  0.0021 </r>
        <r>  0.0017  0.0036  0.0371  0.0007  0.0030  0.0009  0.0005  0.0047  0.0021 </r>
       </set>
       <set comment="band 20">
        <r>  0.0005  0.0005  0.0066  0.0217  0.0010  0.0021  0.0029  0.0045  0.0002 </r>
        <r>  0.0039  0.0085  0.0137  0.0104  0.0011  0.0005  0.0006  0.0016  0.0003 </r>
        <r>  0.0039  0.0085  0.0137  0.0104  0.0011  0.0005  0.0006  0.0016  0.0003 </r>
       </set>
      </set>
      <set comment="kpoint 16">
       <set comment="band 1">
        <r>  0.0000  0.0000  0.0000  0.0000  0.3736  0.1330  0.0164  0.2931  0.1656 </r>
        <r>  0.0019  0.0000  0.0004  0.0001  0.0000  0.0000  0.0000  0.0000  0.0000 </r>
        <r>  0.0019  0.0000  0.0004  0.0001  0.0000  0.0000  0.0000  0.0000  0.0000 </r>
       </set>
       <set comment="band 2">
        <r>  0.0000  0.0000  0.0000  0.0000  0.1109  0.5153  0.0045  0.1728  0.1856 </r>
        <r>  0.0000  0.0003  0.0000  0.0001  0.0000  0.0001  0.0000  0.0000  0.0000 </r>
        <r>  0.0000  0.0003  0.0000  0.0001  0.0000  0.0001  0.0000  0.0000  0.0000 </r>
       </set>
       <set comment="band 3">
        <r>  0.0000  0.0000  0.0000  0.0000  0.2407  0.1184  0.0700  0.4288  0.1312 </r>
        <r>  0.0001  0.0000  0.0000  0.0000  0.0000  0.0000  0.0000  0.0000  0.0000 </r>
        <r>  0.0001  0.0000  0.0000  0.0000  0.0000  0.0000  0.0000  0.0000  0.0000 </r>
       </set>
       <set comment="band 4">
        <r>  0.0000  0.0000  0.0000  0.0000  0.1177  0.2174  0.1010  0.0616  0.4941 </r>
        <r>  0.0000  0.0000  0.0000  0.0000  0.0000  0.0000  0.0000  0.0000  0.0000 </r>
        <r>  0.0000  0.0000  0.0000  0.0000  0.0000  0.0000  0.0000  0.0000  0.0000 </r>
       </set>
       <set comment="band 5">
        <r>  0.0000  0.0000  0.0000  0.0000  0.1451  0.0039  0.7990  0.0300  0.0135 </r>
        <r>  0.0000  0.0000  0.0000  0.0000  0.0000  0.0000  0.0000  0.0000  0.0000 </r>
        <r>  0.0000  0.0000  0.0000  0.0000  0.0000  0.0000  0.0000  0.0000  0.0000 </r>
       </set>
       <set comment="band 6">
        <r>  0.0576  0.0084  0.0005  0.0150  0.0008  0.0000  0.0000  0.0008  0.0000 </r>
        <r>  0.3073  0.0005  0.0032  0.0008  0.0000  0.0000  0.0000  0.0001  0.0000 </r>
        <r>  0.3073  0.0005  0.0032  0.0008  0.0000  0.0000  0.0000  0.0001  0.0000 </r>
       </set>
       <set comment="band 7">
        <r>  0.0057  0.0001  0.0096  0.0029  0.0033  0.0036  0.0000  0.0063  0.0019 </r>
        <r>  0.3584  0.0001  0.0008  0.0002  0.0000  0.0000  0.0000  0.0000  0.0000 </r>
        <r>  0.3584  0.0001  0.0008  0.0002  0.0000  0.0000  0.0000  0.0000  0.0000 </r>
       </set>
       <set comment="band 8">
        <r>  0.4540  0.0005  0.0001  0.0014  0.0005  0.0003  0.0000  0.0018  0.0001 </r>
        <r>  0.0514  0.0155  0.0106  0.0354  0.0005  0.0007  0.0000  0.0015  0.0003 </r>
        <r>  0.0514  0.0155  0.0106  0.0354  0.0005  0.0007  0.0000  0.0015  0.0003 </r>
       </set>
       <set comment="band 9">
        <r>  0.0000  0.0170  0.0643  0.0805  0.0022  0.0000  0.0010  0.0005  0.0016 </r>
        <r>  0.0116  0.0356  0.0345  0.0821  0.0001  0.0004  0.0006  0.0009  0.0001 </r>
        <r>  0.0116  0.0356  0.0345  0.0821  0.0001  0.0004  0.0006  0.0009  0.0001 </r>
       </set>
       <set comment="band 10">
        <r>  0.0004  0.0810  0.0487  0.0061  0.0004  0.0007  0.0034  0.0009  0.0011 </r>
        <r>  0.0084  0.0831  0.0924  0.0144  0.0002  0.0006  0.0004  0.0002  0.0004 </r>
        <r>  0.0084  0.0831  0.0924  0.0144  0.0002  0.0006  0.0004  0.0002  0.0004 </r>
       </set>
       <set comment="band 11">
        <r>  0.0029  0.0722  0.0226  0.0592  0.0000  0.0003  0.0002  0.0019  0.0023 </r>
        <r>  0.0019  0.0603  0.0258  0.1129  0.0003  0.0015  0.0000  0.0007  0.0004 </r>
        <r>  0.0019  0.0603  0.0258  0.1129  0.0003  0.0015  0.0000  0.0007  0.0004 </r>
       </set>
       <set comment="band 12">
        <r>  0.0015  0.0011  0.0171  0.0006  0.0097  0.0001  0.0025  0.0139  0.0014 </r>
        <r>  0.0022  0.0452  0.2035  0.0093  0.0001  0.0001  0.0001  0.0001  0.0001 </r>
        <r>  0.0022  0.0452  0.2035  0.0093  0.0001  0.0001  0.0001  0.0001  0.0001 </r>
       </set>
       <set comment="band 13">
        <r>  0.0010  0.0003  0.0002  0.0011  0.0000  0.0286  0.0000  0.0033  0.0052 </r>
        <r>  0.0001  0.1786  0.0303  0.0725  0.0001  0.0002  0.0000  0.0001  0.0002 </r>
        <r>  0.0001  0.1786  0.0303  0.0725  0.0001  0.0002  0.0000  0.0001  0.0002 </r>
       </set>
       <set comment="band 14">
        <r>  0.2307  0.0009  0.0006  0.0223  0.0090  0.0013  0.0000  0.0011  0.0009 </r>
        <r>  0.0042  0.0303  0.0299  0.0973  0.0037  0.0008  0.0004  0.0022  0.0012 </r>
        <r>  0.0042  0.0303  0.0299  0.0973  0.0037  0.0008  0.0004  0.0022  0.0012 </r>
       </set>
       <set comment="band 15">
        <r>  0.0069  0.0178  0.1057  0.0848  0.0004  0.0000  0.0000  0.0024  0.0006 </r>
        <r>  0.0349  0.0128  0.0557  0.0015  0.0129  0.0003  0.0001  0.0007  0.0039 </r>
        <r>  0.0349  0.0128  0.0557  0.0015  0.0129  0.0003  0.0001  0.0007  0.0039 </r>
       </set>
       <set comment="band 16">
        <r>  0.0009  0.0164  0.1270  0.0753  0.0096  0.0011  0.0028  0.0007  0.0031 </r>
        <r>  0.0003  0.0467  0.0030  0.0071  0.0023  0.0128  0.0061  0.0084  0.0024 </r>
        <r>  0.0003  0.0467  0.0030  0.0071  0.0023  0.0128  0.0061  0.0084  0.0024 </r>
       </set>
       <set comment="band 17">
        <r>  0.0004  0.2679  0.0222  0.0412  0.0037  0.0004  0.0029  0.0022  0.0014 </r>
        <r>  0.0035  0.0328  0.0016  0.0472  0.0042  0.0103  0.0020  0.0106  0.0005 </r>
        <r>  0.0035  0.0328  0.0016  0.0472  0.0042  0.0103  0.0020  0.0106  0.0005 </r>
       </set>
       <set comment="band 18">
        <r>  0.0039  0.0131  0.0478  0.0167  0.0203  0.0059  0.0287  0.0193  0.0073 </r>
        <r>  0.0011  0.0003  0.0406  0.0194  0.0148  0.0024  0.0122  0.0064  0.0069 </r>
        <r>  0.0011  0.0003  0.0406  0.0194  0.0148  0.0024  0.0122  0.0064  0.0069 </r>
       </set>
       <set comment="band 19">
        <r>  0.0000  0.0038  0.0021  0.0021  0.0010  0.0002  0.0001  0.0017  0.0005 </r>
        <r>  0.0036  0.0059  0.0104  0.0034  0.0006  0.0004  0.0016  0.0033  0.0007 </r>
        <r>  0.0036  0.0059  0.0104  0.0034  0.0006  0.0004  0.0016  0.0033  0.0007 </r>
       </set>
       <set comment="band 20">
        <r>  0.0013  0.0006  0.0069  0.0204  0.0002  0.0012  0.0016  0.0018  0.0000 </r>
        <r>  0.0029  0.0073  0.0167  0.0091  0.0006  0.0004  0.0000  0.0010  0.0002 </r>
        <r>  0.0029  0.0073  0.0167  0.0091  0.0006  0.0004  0.0000  0.0010  0.0002 </r>
       </set>
      </set>
      <set comment="kpoint 17">
       <set comment="band 1">
        <r>  0.0000  0.0000  0.0000  0.0000  0.3701  0.1277  0.0175  0.3200  0.1455 </r>
        <r>  0.0022  0.0000  0.0005  0.0001  0.0000  0.0000  0.0000  0.0000  0.0000 </r>
        <r>  0.0022  0.0000  0.0005  0.0001  0.0000  0.0000  0.0000  0.0000  0.0000 </r>
       </set>
       <set comment="band 2">
        <r>  0.0000  0.0000  0.0000  0.0000  0.0854  0.5827  0.0022  0.1723  0.1464 </r>
        <r>  0.0001  0.0003  0.0000  0.0001  0.0000  0.0001  0.0000  0.0000  0.0000 </r>
        <r>  0.0001  0.0003  0.0000  0.0001  0.0000  0.0001  0.0000  0.0000  0.0000 </r>
       </set>
       <set comment="band 3">
        <r>  0.0000  0.0000  0.0000  0.0000  0.2625  0.1021  0.0739  0.4236  0.1269 </r>
        <r>  0.0001  0.0000  0.0000  0.0000  0.0000  0.0000  0.0000  0.0000  0.0000 </r>
        <r>  0.0001  0.0000  0.0000  0.0000  0.0000  0.0000  0.0000  0.0000  0.0000 </r>
       </set>
       <set comment="band 4">
        <r>  0.0000  0.0000  0.0000  0.0000  0.1446  0.1747  0.0559  0.0483  0.5687 </r>
        <r>  0.0000  0.0000  0.0000  0.0000  0.0000  0.0000  0.0000  0.0000  0.0000 </r>
        <r>  0.0000  0.0000  0.0000  0.0000  0.0000  0.0000  0.0000  0.0000  0.0000 </r>
       </set>
       <set comment="band 5">
        <r>  0.0000  0.0000  0.0000  0.0000  0.1252  0.0006  0.8417  0.0214  0.0028 </r>
        <r>  0.0000  0.0000  0.0000  0.0000  0.0000  0.0000  0.0000  0.0000  0.0000 </r>
        <r>  0.0000  0.0000  0.0000  0.0000  0.0000  0.0000  0.0000  0.0000  0.0000 </r>
       </set>
       <set comment="band 6">
        <r>  0.0310  0.0094  0.0013  0.0193  0.0008  0.0000  0.0000  0.0009  0.0000 </r>
        <r>  0.3247  0.0004  0.0028  0.0005  0.0000  0.0000  0.0000  0.0000  0.0000 </r>
        <r>  0.3247  0.0004  0.0028  0.0005  0.0000  0.0000  0.0000  0.0000  0.0000 </r>
       </set>
       <set comment="band 7">
        <r>  0.0149  0.0000  0.0045  0.0033  0.0043  0.0037  0.0000  0.0074  0.0021 </r>
        <r>  0.3563  0.0001  0.0009  0.0003  0.0000  0.0000  0.0000  0.0000  0.0000 </r>
        <r>  0.3563  0.0001  0.0009  0.0003  0.0000  0.0000  0.0000  0.0000  0.0000 </r>
       </set>
       <set comment="band 8">
        <r>  0.4673  0.0003  0.0000  0.0009  0.0005  0.0006  0.0001  0.0024  0.0002 </r>
        <r>  0.0352  0.0160  0.0064  0.0407  0.0005  0.0007  0.0000  0.0017  0.0003 </r>
        <r>  0.0352  0.0160  0.0064  0.0407  0.0005  0.0007  0.0000  0.0017  0.0003 </r>
       </set>
       <set comment="band 9">
        <r>  0.0001  0.0180  0.0757  0.0733  0.0008  0.0000  0.0003  0.0004  0.0007 </r>
        <r>  0.0111  0.0344  0.0291  0.0854  0.0001  0.0004  0.0005  0.0009  0.0001 </r>
        <r>  0.0111  0.0344  0.0291  0.0854  0.0001  0.0004  0.0005  0.0009  0.0001 </r>
       </set>
       <set comment="band 10">
        <r>  0.0004  0.0965  0.0457  0.0059  0.0004  0.0003  0.0016  0.0001  0.0006 </r>
        <r>  0.0109  0.0848  0.0975  0.0050  0.0003  0.0006  0.0003  0.0003  0.0004 </r>
        <r>  0.0109  0.0848  0.0975  0.0050  0.0003  0.0006  0.0003  0.0003  0.0004 </r>
       </set>
       <set comment="band 11">
        <r>  0.0037  0.0586  0.0245  0.0750  0.0000  0.0004  0.0001  0.0012  0.0013 </r>
        <r>  0.0035  0.0568  0.0374  0.0995  0.0003  0.0016  0.0001  0.0005  0.0002 </r>
        <r>  0.0035  0.0568  0.0374  0.0995  0.0003  0.0016  0.0001  0.0005  0.0002 </r>
       </set>
       <set comment="band 12">
        <r>  0.0048  0.0005  0.0083  0.0007  0.0099  0.0003  0.0037  0.0161  0.0018 </r>
        <r>  0.0019  0.0470  0.1991  0.0121  0.0001  0.0000  0.0001  0.0002  0.0000 </r>
        <r>  0.0019  0.0470  0.1991  0.0121  0.0001  0.0000  0.0001  0.0002  0.0000 </r>
       </set>
       <set comment="band 13">
        <r>  0.0002  0.0002  0.0006  0.0002  0.0000  0.0303  0.0001  0.0038  0.0046 </r>
        <r>  0.0001  0.1758  0.0268  0.0776  0.0001  0.0002  0.0000  0.0001  0.0001 </r>
        <r>  0.0001  0.1758  0.0268  0.0776  0.0001  0.0002  0.0000  0.0001  0.0001 </r>
       </set>
       <set comment="band 14">
        <r>  0.2352  0.0000  0.0001  0.0120  0.0109  0.0009  0.0001  0.0009  0.0020 </r>
        <r>  0.0040  0.0306  0.0332  0.0910  0.0036  0.0008  0.0004  0.0023  0.0011 </r>
        <r>  0.0040  0.0306  0.0332  0.0910  0.0036  0.0008  0.0004  0.0023  0.0011 </r>
       </set>
       <set comment="band 15">
        <r>  0.0025  0.0182  0.1221  0.0679  0.0001  0.0000  0.0000  0.0015  0.0004 </r>
        <r>  0.0319  0.0112  0.0556  0.0027  0.0149  0.0001  0.0000  0.0003  0.0048 </r>
        <r>  0.0319  0.0112  0.0556  0.0027  0.0149  0.0001  0.0000  0.0003  0.0048 </r>
       </set>
       <set comment="band 16">
        <r>  0.0008  0.0014  0.1351  0.0727  0.0084  0.0016  0.0034  0.0013  0.0026 </r>
        <r>  0.0010  0.0334  0.0097  0.0100  0.0031  0.0112  0.0062  0.0113  0.0018 </r>
        <r>  0.0010  0.0334  0.0097  0.0100  0.0031  0.0112  0.0062  0.0113  0.0018 </r>
       </set>
       <set comment="band 17">
        <r>  0.0009  0.2684  0.0077  0.0562  0.0030  0.0004  0.0039  0.0017  0.0009 </r>
        <r>  0.0024  0.0468  0.0007  0.0357  0.0036  0.0141  0.0010  0.0100  0.0004 </r>
        <r>  0.0024  0.0468  0.0007  0.0357  0.0036  0.0141  0.0010  0.0100  0.0004 </r>
       </set>
       <set comment="band 18">
        <r>  0.0016  0.0194  0.0344  0.0082  0.0208  0.0057  0.0285  0.0209  0.0072 </r>
        <r>  0.0007  0.0010  0.0356  0.0167  0.0128  0.0029  0.0113  0.0103  0.0053 </r>
        <r>  0.0007  0.0010  0.0356  0.0167  0.0128  0.0029  0.0113  0.0103  0.0053 </r>
       </set>
       <set comment="band 19">
        <r>  0.0004  0.0003  0.0034  0.0042  0.0023  0.0000  0.0007  0.0006  0.0008 </r>
        <r>  0.0037  0.0056  0.0034  0.0084  0.0009  0.0003  0.0041  0.0023  0.0008 </r>
        <r>  0.0037  0.0056  0.0034  0.0084  0.0009  0.0003  0.0041  0.0023  0.0008 </r>
       </set>
       <set comment="band 20">
        <r>  0.0037  0.0002  0.0040  0.0174  0.0000  0.0009  0.0017  0.0009  0.0000 </r>
        <r>  0.0023  0.0071  0.0183  0.0084  0.0009  0.0004  0.0000  0.0004  0.0003 </r>
        <r>  0.0023  0.0071  0.0183  0.0084  0.0009  0.0004  0.0000  0.0004  0.0003 </r>
       </set>
      </set>
      <set comment="kpoint 18">
       <set comment="band 1">
        <r>  0.0000  0.0000  0.0000  0.0000  0.3730  0.1197  0.0180  0.3385  0.1313 </r>
        <r>  0.0023  0.0000  0.0005  0.0000  0.0000  0.0000  0.0000  0.0000  0.0000 </r>
        <r>  0.0023  0.0000  0.0005  0.0000  0.0000  0.0000  0.0000  0.0000  0.0000 </r>
       </set>
       <set comment="band 2">
        <r>  0.0000  0.0000  0.0000  0.0000  0.0615  0.6017  0.0003  0.1851  0.1404 </r>
        <r>  0.0001  0.0003  0.0000  0.0001  0.0000  0.0001  0.0000  0.0000  0.0000 </r>
        <r>  0.0001  0.0003  0.0000  0.0001  0.0000  0.0001  0.0000  0.0000  0.0000 </r>
       </set>
       <set comment="band 3">
        <r>  0.0000  0.0000  0.0000  0.0000  0.2872  0.1121  0.0767  0.4012  0.1117 </r>
        <r>  0.0001  0.0000  0.0000  0.0000  0.0000  0.0000  0.0000  0.0000  0.0000 </r>
        <r>  0.0001  0.0000  0.0000  0.0000  0.0000  0.0000  0.0000  0.0000  0.0000 </r>
       </set>
       <set comment="band 4">
        <r>  0.0000  0.0000  0.0000  0.0000  0.1802  0.1538  0.0087  0.0470  0.6027 </r>
        <r>  0.0000  0.0000  0.0000  0.0000  0.0000  0.0000  0.0000  0.0000  0.0000 </r>
        <r>  0.0000  0.0000  0.0000  0.0000  0.0000  0.0000  0.0000  0.0000  0.0000 </r>
       </set>
       <set comment="band 5">
        <r>  0.0000  0.0000  0.0000  0.0000  0.0856  0.0007  0.8876  0.0135  0.0044 </r>
        <r>  0.0000  0.0000  0.0000  0.0000  0.0000  0.0000  0.0000  0.0000  0.0000 </r>
        <r>  0.0000  0.0000  0.0000  0.0000  0.0000  0.0000  0.0000  0.0000  0.0000 </r>
       </set>
       <set comment="band 6">
        <r>  0.0052  0.0096  0.0027  0.0245  0.0003  0.0000  0.0000  0.0004  0.0000 </r>
        <r>  0.3404  0.0001  0.0025  0.0001  0.0000  0.0000  0.0000  0.0000  0.0000 </r>
        <r>  0.3404  0.0001  0.0025  0.0001  0.0000  0.0000  0.0000  0.0000  0.0000 </r>
       </set>
       <set comment="band 7">
        <r>  0.0301  0.0001  0.0007  0.0014  0.0054  0.0035  0.0000  0.0088  0.0021 </r>
        <r>  0.3498  0.0002  0.0011  0.0006  0.0001  0.0000  0.0000  0.0001  0.0000 </r>
        <r>  0.3498  0.0002  0.0011  0.0006  0.0001  0.0000  0.0000  0.0001  0.0000 </r>
       </set>
       <set comment="band 8">
        <r>  0.4752  0.0000  0.0000  0.0001  0.0005  0.0008  0.0002  0.0027  0.0002 </r>
        <r>  0.0259  0.0157  0.0048  0.0436  0.0005  0.0007  0.0000  0.0018  0.0002 </r>
        <r>  0.0259  0.0157  0.0048  0.0436  0.0005  0.0007  0.0000  0.0018  0.0002 </r>
       </set>
       <set comment="band 9">
        <r>  0.0000  0.0203  0.0818  0.0678  0.0001  0.0001  0.0000  0.0001  0.0002 </r>
        <r>  0.0100  0.0319  0.0263  0.0894  0.0001  0.0003  0.0004  0.0009  0.0001 </r>
        <r>  0.0100  0.0319  0.0263  0.0894  0.0001  0.0003  0.0004  0.0009  0.0001 </r>
       </set>
       <set comment="band 10">
        <r>  0.0019  0.1360  0.0272  0.0001  0.0006  0.0000  0.0003  0.0002  0.0003 </r>
        <r>  0.0074  0.1228  0.0617  0.0028  0.0002  0.0013  0.0002  0.0006  0.0003 </r>
        <r>  0.0074  0.1228  0.0617  0.0028  0.0002  0.0013  0.0002  0.0006  0.0003 </r>
       </set>
       <set comment="band 11">
        <r>  0.0022  0.0168  0.0434  0.0934  0.0001  0.0004  0.0000  0.0003  0.0004 </r>
        <r>  0.0099  0.0230  0.0826  0.0837  0.0005  0.0010  0.0001  0.0002  0.0001 </r>
        <r>  0.0099  0.0230  0.0826  0.0837  0.0005  0.0010  0.0001  0.0002  0.0001 </r>
       </set>
       <set comment="band 12">
        <r>  0.0082  0.0001  0.0011  0.0001  0.0098  0.0022  0.0047  0.0150  0.0026 </r>
        <r>  0.0015  0.0267  0.2059  0.0255  0.0000  0.0001  0.0001  0.0003  0.0000 </r>
        <r>  0.0015  0.0267  0.2059  0.0255  0.0000  0.0001  0.0001  0.0003  0.0000 </r>
       </set>
       <set comment="band 13">
        <r>  0.0000  0.0000  0.0018  0.0000  0.0003  0.0294  0.0000  0.0067  0.0033 </r>
        <r>  0.0001  0.1920  0.0116  0.0751  0.0002  0.0002  0.0000  0.0001  0.0001 </r>
        <r>  0.0001  0.1920  0.0116  0.0751  0.0002  0.0002  0.0000  0.0001  0.0001 </r>
       </set>
       <set comment="band 14">
        <r>  0.2369  0.0014  0.0000  0.0034  0.0118  0.0005  0.0002  0.0008  0.0033 </r>
        <r>  0.0037  0.0337  0.0382  0.0830  0.0035  0.0008  0.0004  0.0023  0.0012 </r>
        <r>  0.0037  0.0337  0.0382  0.0830  0.0035  0.0008  0.0004  0.0023  0.0012 </r>
       </set>
       <set comment="band 15">
        <r>  0.0003  0.0186  0.1328  0.0590  0.0000  0.0002  0.0000  0.0004  0.0002 </r>
        <r>  0.0304  0.0098  0.0544  0.0043  0.0160  0.0001  0.0000  0.0001  0.0053 </r>
        <r>  0.0304  0.0098  0.0544  0.0043  0.0160  0.0001  0.0000  0.0001  0.0053 </r>
       </set>
       <set comment="band 16">
        <r>  0.0002  0.0040  0.1554  0.0700  0.0024  0.0011  0.0012  0.0004  0.0006 </r>
        <r>  0.0020  0.0195  0.0231  0.0181  0.0030  0.0086  0.0057  0.0148  0.0012 </r>
        <r>  0.0020  0.0195  0.0231  0.0181  0.0030  0.0086  0.0057  0.0148  0.0012 </r>
       </set>
       <set comment="band 17">
        <r>  0.0013  0.2686  0.0018  0.0707  0.0012  0.0002  0.0026  0.0007  0.0003 </r>
        <r>  0.0019  0.0599  0.0004  0.0287  0.0020  0.0173  0.0002  0.0087  0.0006 </r>
        <r>  0.0019  0.0599  0.0004  0.0287  0.0020  0.0173  0.0002  0.0087  0.0006 </r>
       </set>
       <set comment="band 18">
        <r>  0.0004  0.0094  0.0091  0.0010  0.0276  0.0069  0.0323  0.0235  0.0093 </r>
        <r>  0.0003  0.0030  0.0212  0.0094  0.0135  0.0034  0.0117  0.0110  0.0049 </r>
        <r>  0.0003  0.0030  0.0212  0.0094  0.0135  0.0034  0.0117  0.0110  0.0049 </r>
       </set>
       <set comment="band 19">
        <r>  0.0007  0.0001  0.0029  0.0058  0.0027  0.0000  0.0008  0.0002  0.0007 </r>
        <r>  0.0032  0.0060  0.0014  0.0127  0.0009  0.0004  0.0066  0.0022  0.0008 </r>
        <r>  0.0032  0.0060  0.0014  0.0127  0.0009  0.0004  0.0066  0.0022  0.0008 </r>
       </set>
       <set comment="band 20">
        <r>  0.0109  0.0000  0.0013  0.0126  0.0000  0.0006  0.0025  0.0004  0.0000 </r>
        <r>  0.0020  0.0085  0.0165  0.0118  0.0021  0.0005  0.0001  0.0000  0.0006 </r>
        <r>  0.0020  0.0085  0.0165  0.0118  0.0021  0.0004  0.0001  0.0000  0.0006 </r>
       </set>
      </set>
      <set comment="kpoint 19">
       <set comment="band 1">
        <r>  0.0000  0.0000  0.0000  0.0000  0.1738  0.2180  0.0000  0.0727  0.5215 </r>
        <r>  0.0007  0.0002  0.0001  0.0001  0.0000  0.0001  0.0000  0.0000  0.0000 </r>
        <r>  0.0007  0.0002  0.0001  0.0001  0.0000  0.0001  0.0000  0.0000  0.0000 </r>
       </set>
       <set comment="band 2">
        <r>  0.0000  0.0000  0.0000  0.0000  0.5046  0.0738  0.0207  0.2215  0.1682 </r>
        <r>  0.0000  0.0001  0.0000  0.0003  0.0000  0.0000  0.0000  0.0001  0.0000 </r>
        <r>  0.0000  0.0001  0.0000  0.0003  0.0000  0.0000  0.0000  0.0001  0.0000 </r>
       </set>
       <set comment="band 3">
        <r>  0.0000  0.0000  0.0000  0.0000  0.0732  0.5231  0.0000  0.1744  0.2195 </r>
        <r>  0.0001  0.0000  0.0000  0.0000  0.0000  0.0000  0.0000  0.0000  0.0000 </r>
        <r>  0.0001  0.0000  0.0000  0.0000  0.0000  0.0000  0.0000  0.0000  0.0000 </r>
       </set>
       <set comment="band 4">
        <r>  0.0000  0.0000  0.0000  0.0000  0.0518  0.0887  0.5662  0.2662  0.0173 </r>
        <r>  0.0000  0.0000  0.0000  0.0000  0.0000  0.0000  0.0000  0.0000  0.0000 </r>
        <r>  0.0000  0.0000  0.0000  0.0000  0.0000  0.0000  0.0000  0.0000  0.0000 </r>
       </set>
       <set comment="band 5">
        <r>  0.0000  0.0000  0.0000  0.0000  0.1860  0.0849  0.4031  0.2548  0.0620 </r>
        <r>  0.0000  0.0000  0.0000  0.0000  0.0000  0.0000  0.0000  0.0000  0.0000 </r>
        <r>  0.0000  0.0000  0.0000  0.0000  0.0000  0.0000  0.0000  0.0000  0.0000 </r>
       </set>
       <set comment="band 6">
        <r>  0.1167  0.0059  0.0000  0.0020  0.0001  0.0000  0.0001  0.0001  0.0000 </r>
        <r>  0.2702  0.0006  0.0043  0.0002  0.0000  0.0000  0.0000  0.0000  0.0000 </r>
        <r>  0.2702  0.0006  0.0043  0.0002  0.0000  0.0000  0.0000  0.0000  0.0000 </r>
       </set>
       <set comment="band 7">
        <r>  0.0000  0.0001  0.0253  0.0002  0.0004  0.0031  0.0000  0.0010  0.0013 </r>
        <r>  0.3477  0.0003  0.0007  0.0001  0.0000  0.0000  0.0000  0.0000  0.0000 </r>
        <r>  0.3477  0.0003  0.0007  0.0001  0.0000  0.0000  0.0000  0.0000  0.0000 </r>
       </set>
       <set comment="band 8">
        <r>  0.3837  0.0000  0.0000  0.0000  0.0001  0.0000  0.0018  0.0001  0.0000 </r>
        <r>  0.0967  0.0108  0.0476  0.0041  0.0001  0.0007  0.0001  0.0003  0.0002 </r>
        <r>  0.0967  0.0108  0.0476  0.0041  0.0001  0.0007  0.0001  0.0003  0.0002 </r>
       </set>
       <set comment="band 9">
        <r>  0.0217  0.1024  0.0000  0.0341  0.0015  0.0000  0.0080  0.0000  0.0005 </r>
        <r>  0.0000  0.0722  0.0664  0.0506  0.0004  0.0006  0.0007  0.0007  0.0011 </r>
        <r>  0.0000  0.0722  0.0664  0.0506  0.0004  0.0006  0.0007  0.0007  0.0011 </r>
       </set>
       <set comment="band 10">
        <r>  0.0000  0.0188  0.0456  0.0563  0.0046  0.0019  0.0000  0.0006  0.0138 </r>
        <r>  0.0076  0.1336  0.0043  0.0550  0.0003  0.0011  0.0010  0.0006  0.0001 </r>
        <r>  0.0076  0.1336  0.0043  0.0550  0.0003  0.0011  0.0010  0.0006  0.0001 </r>
       </set>
       <set comment="band 11">
        <r>  0.0000  0.0039  0.0861  0.0116  0.0003  0.0001  0.0000  0.0000  0.0008 </r>
        <r>  0.0054  0.0180  0.1849  0.0307  0.0002  0.0001  0.0001  0.0002  0.0003 </r>
        <r>  0.0054  0.0180  0.1849  0.0307  0.0002  0.0001  0.0001  0.0002  0.0003 </r>
       </set>
       <set comment="band 12">
        <r>  0.0000  0.0118  0.0015  0.0355  0.0010  0.0109  0.0000  0.0036  0.0030 </r>
        <r>  0.0012  0.0566  0.0570  0.1499  0.0004  0.0002  0.0001  0.0006  0.0003 </r>
        <r>  0.0012  0.0566  0.0570  0.1499  0.0004  0.0002  0.0001  0.0006  0.0003 </r>
       </set>
       <set comment="band 13">
        <r>  0.0000  0.0054  0.0000  0.0018  0.0118  0.0052  0.0009  0.0156  0.0039 </r>
        <r>  0.0023  0.0970  0.0092  0.1635  0.0001  0.0002  0.0001  0.0006  0.0002 </r>
        <r>  0.0023  0.0970  0.0092  0.1635  0.0001  0.0002  0.0001  0.0006  0.0002 </r>
       </set>
       <set comment="band 14">
        <r>  0.2340  0.0087  0.0000  0.0029  0.0026  0.0001  0.0025  0.0004  0.0009 </r>
        <r>  0.0081  0.0951  0.0705  0.0468  0.0009  0.0006  0.0001  0.0002  0.0019 </r>
        <r>  0.0081  0.0951  0.0705  0.0468  0.0009  0.0006  0.0001  0.0002  0.0019 </r>
       </set>
       <set comment="band 15">
        <r>  0.0000  0.0447  0.1567  0.1341  0.0000  0.0016  0.0000  0.0005  0.0001 </r>
        <r>  0.0311  0.0198  0.0038  0.0308  0.0061  0.0012  0.0060  0.0019  0.0025 </r>
        <r>  0.0311  0.0198  0.0038  0.0308  0.0061  0.0012  0.0060  0.0019  0.0025 </r>
       </set>
       <set comment="band 16">
        <r>  0.0007  0.1914  0.0000  0.0638  0.0009  0.0006  0.0002  0.0017  0.0003 </r>
        <r>  0.0331  0.0083  0.0210  0.0242  0.0022  0.0023  0.0006  0.0018  0.0064 </r>
        <r>  0.0331  0.0083  0.0210  0.0242  0.0022  0.0023  0.0006  0.0018  0.0064 </r>
       </set>
       <set comment="band 17">
        <r>  0.0000  0.0499  0.1218  0.1498  0.0000  0.0002  0.0000  0.0001  0.0001 </r>
        <r>  0.0030  0.0633  0.0073  0.0277  0.0032  0.0061  0.0070  0.0043  0.0022 </r>
        <r>  0.0030  0.0633  0.0073  0.0277  0.0032  0.0061  0.0070  0.0043  0.0022 </r>
       </set>
       <set comment="band 18">
        <r>  0.0000  0.0125  0.0089  0.0374  0.0034  0.0005  0.0000  0.0002  0.0103 </r>
        <r>  0.0047  0.0047  0.0115  0.0019  0.0028  0.0005  0.0022  0.0007  0.0028 </r>
        <r>  0.0047  0.0047  0.0115  0.0019  0.0028  0.0005  0.0022  0.0007  0.0028 </r>
       </set>
       <set comment="band 19">
        <r>  0.0035  0.0279  0.0000  0.0093  0.0000  0.0001  0.0027  0.0002  0.0000 </r>
        <r>  0.0011  0.0008  0.0198  0.0024  0.0005  0.0002  0.0017  0.0004  0.0012 </r>
        <r>  0.0011  0.0008  0.0198  0.0024  0.0005  0.0002  0.0017  0.0004  0.0012 </r>
       </set>
       <set comment="band 20">
        <r>  0.0000  0.0003  0.0183  0.0008  0.0109  0.0290  0.0000  0.0097  0.0327 </r>
        <r>  0.0000  0.0049  0.0035  0.0073  0.0091  0.0027  0.0054  0.0009  0.0244 </r>
        <r>  0.0000  0.0049  0.0035  0.0073  0.0091  0.0027  0.0054  0.0009  0.0244 </r>
       </set>
      </set>
      <set comment="kpoint 20">
       <set comment="band 1">
        <r>  0.0000  0.0000  0.0000  0.0000  0.2484  0.2131  0.0020  0.1335  0.3880 </r>
        <r>  0.0010  0.0001  0.0002  0.0001  0.0000  0.0000  0.0000  0.0000  0.0000 </r>
        <r>  0.0010  0.0001  0.0002  0.0001  0.0000  0.0000  0.0000  0.0000  0.0000 </r>
       </set>
       <set comment="band 2">
        <r>  0.0000  0.0000  0.0000  0.0000  0.3529  0.1585  0.0284  0.2267  0.2223 </r>
        <r>  0.0001  0.0002  0.0000  0.0002  0.0000  0.0001  0.0000  0.0001  0.0000 </r>
        <r>  0.0001  0.0002  0.0000  0.0002  0.0000  0.0001  0.0000  0.0001  0.0000 </r>
       </set>
       <set comment="band 3">
        <r>  0.0000  0.0000  0.0000  0.0000  0.1290  0.3503  0.0157  0.2857  0.2092 </r>
        <r>  0.0001  0.0000  0.0000  0.0000  0.0000  0.0000  0.0000  0.0000  0.0000 </r>
        <r>  0.0001  0.0000  0.0000  0.0000  0.0000  0.0000  0.0000  0.0000  0.0000 </r>
       </set>
       <set comment="band 4">
        <r>  0.0000  0.0000  0.0000  0.0000  0.0776  0.2255  0.3418  0.2356  0.1101 </r>
        <r>  0.0000  0.0000  0.0000  0.0000  0.0000  0.0000  0.0000  0.0000  0.0000 </r>
        <r>  0.0000  0.0000  0.0000  0.0000  0.0000  0.0000  0.0000  0.0000  0.0000 </r>
       </set>
       <set comment="band 5">
        <r>  0.0000  0.0000  0.0000  0.0000  0.1814  0.0408  0.6024  0.1074  0.0590 </r>
        <r>  0.0000  0.0000  0.0000  0.0000  0.0000  0.0000  0.0000  0.0000  0.0000 </r>
        <r>  0.0000  0.0000  0.0000  0.0000  0.0000  0.0000  0.0000  0.0000  0.0000 </r>
       </set>
       <set comment="band 6">
        <r>  0.1037  0.0077  0.0000  0.0043  0.0003  0.0000  0.0001  0.0002  0.0000 </r>
        <r>  0.2779  0.0008  0.0040  0.0004  0.0000  0.0000  0.0000  0.0000  0.0000 </r>
        <r>  0.2779  0.0008  0.0040  0.0004  0.0000  0.0000  0.0000  0.0000  0.0000 </r>
       </set>
       <set comment="band 7">
        <r>  0.0001  0.0001  0.0213  0.0007  0.0010  0.0038  0.0000  0.0021  0.0017 </r>
        <r>  0.3515  0.0003  0.0007  0.0002  0.0000  0.0000  0.0000  0.0000  0.0000 </r>
        <r>  0.3515  0.0003  0.0007  0.0002  0.0000  0.0000  0.0000  0.0000  0.0000 </r>
       </set>
       <set comment="band 8">
        <r>  0.4088  0.0002  0.0000  0.0001  0.0002  0.0000  0.0007  0.0004  0.0000 </r>
        <r>  0.0894  0.0149  0.0350  0.0101  0.0002  0.0009  0.0000  0.0006  0.0003 </r>
        <r>  0.0894  0.0149  0.0350  0.0101  0.0002  0.0009  0.0000  0.0006  0.0003 </r>
       </set>
       <set comment="band 9">
        <r>  0.0048  0.0082  0.0362  0.0952  0.0052  0.0005  0.0029  0.0003  0.0057 </r>
        <r>  0.0050  0.0512  0.0338  0.0912  0.0004  0.0004  0.0009  0.0012  0.0002 </r>
        <r>  0.0050  0.0512  0.0338  0.0912  0.0004  0.0004  0.0009  0.0012  0.0002 </r>
       </set>
       <set comment="band 10">
        <r>  0.0093  0.1154  0.0216  0.0001  0.0002  0.0005  0.0052  0.0004  0.0059 </r>
        <r>  0.0031  0.1273  0.0540  0.0041  0.0001  0.0013  0.0007  0.0001  0.0009 </r>
        <r>  0.0031  0.1273  0.0540  0.0041  0.0001  0.0013  0.0007  0.0001  0.0009 </r>
       </set>
       <set comment="band 11">
        <r>  0.0001  0.0184  0.0811  0.0248  0.0000  0.0005  0.0001  0.0019  0.0017 </r>
        <r>  0.0063  0.0119  0.1035  0.1088  0.0004  0.0002  0.0001  0.0005  0.0007 </r>
        <r>  0.0063  0.0119  0.1035  0.1088  0.0004  0.0002  0.0001  0.0005  0.0007 </r>
       </set>
       <set comment="band 12">
        <r>  0.0006  0.0109  0.0057  0.0005  0.0096  0.0001  0.0010  0.0173  0.0001 </r>
        <r>  0.0017  0.0551  0.0881  0.1140  0.0000  0.0004  0.0001  0.0002  0.0003 </r>
        <r>  0.0017  0.0551  0.0881  0.1140  0.0000  0.0004  0.0001  0.0002  0.0003 </r>
       </set>
       <set comment="band 13">
        <r>  0.0007  0.0012  0.0000  0.0187  0.0002  0.0203  0.0001  0.0003  0.0059 </r>
        <r>  0.0007  0.1273  0.0664  0.0760  0.0003  0.0001  0.0001  0.0005  0.0002 </r>
        <r>  0.0007  0.1273  0.0664  0.0760  0.0003  0.0001  0.0001  0.0005  0.0002 </r>
       </set>
       <set comment="band 14">
        <r>  0.2318  0.0077  0.0003  0.0118  0.0049  0.0001  0.0009  0.0005  0.0005 </r>
        <r>  0.0034  0.0751  0.0544  0.0780  0.0018  0.0008  0.0001  0.0008  0.0016 </r>
        <r>  0.0034  0.0751  0.0544  0.0780  0.0018  0.0008  0.0001  0.0008  0.0016 </r>
       </set>
       <set comment="band 15">
        <r>  0.0045  0.0005  0.0749  0.2149  0.0000  0.0013  0.0000  0.0003  0.0002 </r>
        <r>  0.0336  0.0251  0.0214  0.0114  0.0084  0.0009  0.0020  0.0036  0.0003 </r>
        <r>  0.0336  0.0251  0.0214  0.0114  0.0084  0.0009  0.0020  0.0036  0.0003 </r>
       </set>
       <set comment="band 16">
        <r>  0.0008  0.2558  0.0174  0.0082  0.0005  0.0000  0.0002  0.0029  0.0001 </r>
        <r>  0.0255  0.0081  0.0159  0.0451  0.0006  0.0055  0.0015  0.0010  0.0066 </r>
        <r>  0.0255  0.0081  0.0159  0.0451  0.0006  0.0055  0.0015  0.0010  0.0066 </r>
       </set>
       <set comment="band 17">
        <r>  0.0000  0.0120  0.1870  0.0620  0.0012  0.0003  0.0000  0.0002  0.0016 </r>
        <r>  0.0032  0.0591  0.0100  0.0253  0.0009  0.0072  0.0093  0.0044  0.0021 </r>
        <r>  0.0032  0.0591  0.0100  0.0253  0.0009  0.0072  0.0093  0.0044  0.0021 </r>
       </set>
       <set comment="band 18">
        <r>  0.0000  0.0287  0.0253  0.0390  0.0087  0.0018  0.0016  0.0015  0.0127 </r>
        <r>  0.0034  0.0098  0.0048  0.0013  0.0057  0.0005  0.0031  0.0012  0.0062 </r>
        <r>  0.0034  0.0098  0.0048  0.0013  0.0057  0.0005  0.0031  0.0012  0.0062 </r>
       </set>
       <set comment="band 19">
        <r>  0.0023  0.0133  0.0053  0.0259  0.0003  0.0002  0.0005  0.0000  0.0008 </r>
        <r>  0.0016  0.0002  0.0246  0.0062  0.0011  0.0001  0.0006  0.0006  0.0013 </r>
        <r>  0.0016  0.0002  0.0246  0.0062  0.0011  0.0001  0.0006  0.0006  0.0013 </r>
       </set>
       <set comment="band 20">
        <r>  0.0008  0.0001  0.0081  0.0000  0.0148  0.0185  0.0051  0.0150  0.0162 </r>
        <r>  0.0005  0.0075  0.0114  0.0123  0.0116  0.0014  0.0059  0.0019  0.0141 </r>
        <r>  0.0005  0.0075  0.0114  0.0123  0.0116  0.0014  0.0059  0.0019  0.0141 </r>
       </set>
      </set>
      <set comment="kpoint 21">
       <set comment="band 1">
        <r>  0.0000  0.0000  0.0000  0.0000  0.2902  0.2021  0.0061  0.1943  0.2910 </r>
        <r>  0.0014  0.0001  0.0003  0.0001  0.0000  0.0000  0.0000  0.0000  0.0000 </r>
        <r>  0.0014  0.0001  0.0003  0.0001  0.0000  0.0000  0.0000  0.0000  0.0000 </r>
       </set>
       <set comment="band 2">
        <r>  0.0000  0.0000  0.0000  0.0000  0.2410  0.2739  0.0246  0.2299  0.2194 </r>
        <r>  0.0001  0.0003  0.0000  0.0002  0.0000  0.0001  0.0000  0.0000  0.0000 </r>
        <r>  0.0001  0.0003  0.0000  0.0002  0.0000  0.0001  0.0000  0.0000  0.0000 </r>
       </set>
       <set comment="band 3">
        <r>  0.0000  0.0000  0.0000  0.0000  0.1776  0.2345  0.0347  0.3489  0.1940 </r>
        <r>  0.0001  0.0000  0.0000  0.0000  0.0000  0.0000  0.0000  0.0000  0.0000 </r>
        <r>  0.0001  0.0000  0.0000  0.0000  0.0000  0.0000  0.0000  0.0000  0.0000 </r>
       </set>
       <set comment="band 4">
        <r>  0.0000  0.0000  0.0000  0.0000  0.0936  0.2560  0.2568  0.1550  0.2294 </r>
        <r>  0.0000  0.0000  0.0000  0.0000  0.0000  0.0000  0.0000  0.0000  0.0000 </r>
        <r>  0.0000  0.0000  0.0000  0.0000  0.0000  0.0000  0.0000  0.0000  0.0000 </r>
       </set>
       <set comment="band 5">
        <r>  0.0000  0.0000  0.0000  0.0000  0.1867  0.0213  0.6685  0.0598  0.0552 </r>
        <r>  0.0000  0.0000  0.0000  0.0000  0.0000  0.0000  0.0000  0.0000  0.0000 </r>
        <r>  0.0000  0.0000  0.0000  0.0000  0.0000  0.0000  0.0000  0.0000  0.0000 </r>
       </set>
       <set comment="band 6">
        <r>  0.0868  0.0094  0.0000  0.0072  0.0005  0.0000  0.0000  0.0005  0.0000 </r>
        <r>  0.2885  0.0008  0.0037  0.0006  0.0000  0.0000  0.0000  0.0000  0.0000 </r>
        <r>  0.2885  0.0008  0.0037  0.0006  0.0000  0.0000  0.0000  0.0000  0.0000 </r>
       </set>
       <set comment="band 7">
        <r>  0.0005  0.0001  0.0166  0.0017  0.0016  0.0044  0.0000  0.0034  0.0021 </r>
        <r>  0.3557  0.0002  0.0007  0.0002  0.0000  0.0000  0.0000  0.0000  0.0000 </r>
        <r>  0.3557  0.0002  0.0007  0.0002  0.0000  0.0000  0.0000  0.0000  0.0000 </r>
       </set>
       <set comment="band 8">
        <r>  0.4335  0.0005  0.0000  0.0006  0.0003  0.0000  0.0001  0.0009  0.0000 </r>
        <r>  0.0760  0.0181  0.0223  0.0187  0.0003  0.0009  0.0000  0.0009  0.0004 </r>
        <r>  0.0760  0.0181  0.0223  0.0187  0.0003  0.0009  0.0000  0.0009  0.0004 </r>
       </set>
       <set comment="band 9">
        <r>  0.0013  0.0069  0.0479  0.0950  0.0041  0.0001  0.0020  0.0004  0.0048 </r>
        <r>  0.0068  0.0499  0.0337  0.0815  0.0002  0.0004  0.0008  0.0010  0.0001 </r>
        <r>  0.0068  0.0499  0.0337  0.0815  0.0002  0.0004  0.0008  0.0010  0.0001 </r>
       </set>
       <set comment="band 10">
        <r>  0.0058  0.1214  0.0225  0.0010  0.0003  0.0004  0.0050  0.0002  0.0038 </r>
        <r>  0.0044  0.1085  0.0677  0.0052  0.0001  0.0011  0.0006  0.0002  0.0007 </r>
        <r>  0.0044  0.1085  0.0677  0.0052  0.0001  0.0011  0.0006  0.0002  0.0007 </r>
       </set>
       <set comment="band 11">
        <r>  0.0011  0.0294  0.0646  0.0348  0.0002  0.0007  0.0003  0.0043  0.0021 </r>
        <r>  0.0051  0.0089  0.0547  0.1493  0.0004  0.0005  0.0000  0.0006  0.0008 </r>
        <r>  0.0051  0.0089  0.0547  0.1493  0.0004  0.0005  0.0000  0.0006  0.0008 </r>
       </set>
       <set comment="band 12">
        <r>  0.0022  0.0033  0.0178  0.0011  0.0078  0.0016  0.0014  0.0159  0.0000 </r>
        <r>  0.0024  0.1009  0.1075  0.0442  0.0001  0.0002  0.0001  0.0002  0.0003 </r>
        <r>  0.0024  0.1009  0.1075  0.0442  0.0001  0.0002  0.0001  0.0002  0.0003 </r>
       </set>
       <set comment="band 13">
        <r>  0.0011  0.0011  0.0003  0.0083  0.0002  0.0225  0.0000  0.0000  0.0059 </r>
        <r>  0.0002  0.1005  0.1055  0.0671  0.0002  0.0001  0.0000  0.0003  0.0002 </r>
        <r>  0.0002  0.1005  0.1055  0.0671  0.0002  0.0001  0.0000  0.0003  0.0002 </r>
       </set>
       <set comment="band 14">
        <r>  0.2271  0.0036  0.0005  0.0203  0.0065  0.0007  0.0001  0.0004  0.0001 </r>
        <r>  0.0024  0.0586  0.0413  0.0959  0.0024  0.0009  0.0002  0.0015  0.0012 </r>
        <r>  0.0024  0.0586  0.0413  0.0959  0.0024  0.0009  0.0002  0.0015  0.0012 </r>
       </set>
       <set comment="band 15">
        <r>  0.0092  0.0006  0.0564  0.1929  0.0002  0.0004  0.0001  0.0010  0.0005 </r>
        <r>  0.0337  0.0285  0.0364  0.0061  0.0080  0.0020  0.0007  0.0032  0.0006 </r>
        <r>  0.0337  0.0285  0.0364  0.0061  0.0080  0.0020  0.0007  0.0032  0.0006 </r>
       </set>
       <set comment="band 16">
        <r>  0.0001  0.2535  0.0081  0.0397  0.0007  0.0000  0.0001  0.0019  0.0000 </r>
        <r>  0.0137  0.0401  0.0108  0.0229  0.0014  0.0124  0.0007  0.0015  0.0046 </r>
        <r>  0.0137  0.0401  0.0108  0.0229  0.0014  0.0124  0.0007  0.0015  0.0046 </r>
       </set>
       <set comment="band 17">
        <r>  0.0002  0.0219  0.2149  0.0111  0.0034  0.0005  0.0003  0.0009  0.0029 </r>
        <r>  0.0069  0.0254  0.0107  0.0484  0.0028  0.0030  0.0094  0.0074  0.0020 </r>
        <r>  0.0069  0.0254  0.0107  0.0484  0.0028  0.0030  0.0094  0.0074  0.0020 </r>
       </set>
       <set comment="band 18">
        <r>  0.0007  0.0127  0.0357  0.0366  0.0204  0.0050  0.0108  0.0068  0.0152 </r>
        <r>  0.0017  0.0046  0.0025  0.0084  0.0125  0.0014  0.0078  0.0010  0.0099 </r>
        <r>  0.0017  0.0046  0.0025  0.0084  0.0125  0.0014  0.0078  0.0010  0.0099 </r>
       </set>
       <set comment="band 19">
        <r>  0.0017  0.0175  0.0073  0.0115  0.0018  0.0011  0.0014  0.0028  0.0011 </r>
        <r>  0.0004  0.0010  0.0380  0.0056  0.0025  0.0010  0.0004  0.0017  0.0029 </r>
        <r>  0.0004  0.0010  0.0380  0.0056  0.0025  0.0010  0.0004  0.0017  0.0029 </r>
       </set>
       <set comment="band 20">
        <r>  0.0006  0.0007  0.0003  0.0128  0.0066  0.0063  0.0087  0.0104  0.0019 </r>
        <r>  0.0027  0.0132  0.0149  0.0089  0.0047  0.0007  0.0028  0.0034  0.0028 </r>
        <r>  0.0027  0.0132  0.0149  0.0089  0.0047  0.0007  0.0028  0.0034  0.0028 </r>
       </set>
      </set>
      <set comment="kpoint 22">
       <set comment="band 1">
        <r>  0.0000  0.0000  0.0000  0.0000  0.3131  0.1859  0.0100  0.2489  0.2247 </r>
        <r>  0.0017  0.0000  0.0004  0.0001  0.0000  0.0000  0.0000  0.0000  0.0000 </r>
        <r>  0.0017  0.0000  0.0004  0.0001  0.0000  0.0000  0.0000  0.0000  0.0000 </r>
       </set>
       <set comment="band 2">
        <r>  0.0000  0.0000  0.0000  0.0000  0.1652  0.3958  0.0154  0.2250  0.1872 </r>
        <r>  0.0002  0.0003  0.0000  0.0001  0.0000  0.0001  0.0000  0.0000  0.0000 </r>
        <r>  0.0002  0.0003  0.0000  0.0001  0.0000  0.0001  0.0000  0.0000  0.0000 </r>
       </set>
       <set comment="band 3">
        <r>  0.0000  0.0000  0.0000  0.0000  0.2195  0.1648  0.0501  0.3792  0.1760 </r>
        <r>  0.0001  0.0000  0.0000  0.0000  0.0000  0.0000  0.0000  0.0000  0.0000 </r>
        <r>  0.0001  0.0000  0.0000  0.0000  0.0000  0.0000  0.0000  0.0000  0.0000 </r>
       </set>
       <set comment="band 4">
        <r>  0.0000  0.0000  0.0000  0.0000  0.1064  0.2290  0.2088  0.0937  0.3534 </r>
        <r>  0.0000  0.0000  0.0000  0.0000  0.0000  0.0000  0.0000  0.0000  0.0000 </r>
        <r>  0.0000  0.0000  0.0000  0.0000  0.0000  0.0000  0.0000  0.0000  0.0000 </r>
       </set>
       <set comment="band 5">
        <r>  0.0000  0.0000  0.0000  0.0000  0.1846  0.0122  0.7066  0.0403  0.0480 </r>
        <r>  0.0000  0.0000  0.0000  0.0000  0.0000  0.0000  0.0000  0.0000  0.0000 </r>
        <r>  0.0000  0.0000  0.0000  0.0000  0.0000  0.0000  0.0000  0.0000  0.0000 </r>
       </set>
       <set comment="band 6">
        <r>  0.0661  0.0108  0.0002  0.0106  0.0009  0.0000  0.0000  0.0009  0.0000 </r>
        <r>  0.3020  0.0008  0.0033  0.0007  0.0000  0.0000  0.0000  0.0000  0.0000 </r>
        <r>  0.3020  0.0008  0.0033  0.0007  0.0000  0.0000  0.0000  0.0000  0.0000 </r>
       </set>
       <set comment="band 7">
        <r>  0.0021  0.0001  0.0114  0.0030  0.0023  0.0048  0.0000  0.0046  0.0024 </r>
        <r>  0.3590  0.0001  0.0008  0.0002  0.0000  0.0000  0.0000  0.0000  0.0000 </r>
        <r>  0.3590  0.0001  0.0008  0.0002  0.0000  0.0000  0.0000  0.0000  0.0000 </r>
       </set>
       <set comment="band 8">
        <r>  0.4543  0.0006  0.0000  0.0011  0.0004  0.0000  0.0000  0.0014  0.0000 </r>
        <r>  0.0580  0.0196  0.0127  0.0276  0.0004  0.0009  0.0000  0.0013  0.0004 </r>
        <r>  0.0580  0.0196  0.0127  0.0276  0.0004  0.0009  0.0000  0.0013  0.0004 </r>
       </set>
       <set comment="band 9">
        <r>  0.0001  0.0078  0.0594  0.0906  0.0026  0.0000  0.0011  0.0005  0.0033 </r>
        <r>  0.0090  0.0475  0.0322  0.0773  0.0001  0.0005  0.0007  0.0009  0.0001 </r>
        <r>  0.0090  0.0475  0.0322  0.0773  0.0001  0.0005  0.0007  0.0009  0.0001 </r>
       </set>
       <set comment="band 10">
        <r>  0.0038  0.1307  0.0218  0.0010  0.0005  0.0003  0.0038  0.0000  0.0025 </r>
        <r>  0.0067  0.1007  0.0731  0.0045  0.0002  0.0011  0.0005  0.0004  0.0006 </r>
        <r>  0.0067  0.1007  0.0731  0.0045  0.0002  0.0011  0.0005  0.0004  0.0006 </r>
       </set>
       <set comment="band 11">
        <r>  0.0027  0.0263  0.0590  0.0473  0.0000  0.0010  0.0005  0.0041  0.0019 </r>
        <r>  0.0047  0.0103  0.0503  0.1422  0.0005  0.0006  0.0000  0.0005  0.0007 </r>
        <r>  0.0047  0.0103  0.0503  0.1422  0.0005  0.0006  0.0000  0.0005  0.0007 </r>
       </set>
       <set comment="band 12">
        <r>  0.0045  0.0008  0.0179  0.0021  0.0067  0.0032  0.0018  0.0168  0.0000 </r>
        <r>  0.0023  0.1286  0.0992  0.0231  0.0002  0.0001  0.0001  0.0002  0.0003 </r>
        <r>  0.0023  0.1286  0.0992  0.0231  0.0002  0.0001  0.0001  0.0002  0.0003 </r>
       </set>
       <set comment="band 13">
        <r>  0.0005  0.0009  0.0006  0.0020  0.0011  0.0237  0.0001  0.0001  0.0062 </r>
        <r>  0.0001  0.0786  0.1319  0.0650  0.0002  0.0001  0.0000  0.0001  0.0001 </r>
        <r>  0.0001  0.0786  0.1319  0.0650  0.0002  0.0001  0.0000  0.0001  0.0001 </r>
       </set>
       <set comment="band 14">
        <r>  0.2258  0.0006  0.0003  0.0217  0.0077  0.0010  0.0000  0.0003  0.0000 </r>
        <r>  0.0027  0.0497  0.0335  0.1013  0.0027  0.0010  0.0002  0.0021  0.0010 </r>
        <r>  0.0027  0.0497  0.0335  0.1013  0.0027  0.0010  0.0002  0.0021  0.0010 </r>
       </set>
       <set comment="band 15">
        <r>  0.0089  0.0021  0.0549  0.1593  0.0005  0.0001  0.0000  0.0016  0.0008 </r>
        <r>  0.0322  0.0290  0.0485  0.0048  0.0087  0.0023  0.0004  0.0025  0.0014 </r>
        <r>  0.0322  0.0290  0.0485  0.0048  0.0087  0.0023  0.0004  0.0025  0.0014 </r>
       </set>
       <set comment="band 16">
        <r>  0.0003  0.1674  0.0715  0.0574  0.0016  0.0002  0.0001  0.0006  0.0003 </r>
        <r>  0.0056  0.0629  0.0038  0.0038  0.0024  0.0170  0.0016  0.0019  0.0040 </r>
        <r>  0.0056  0.0629  0.0038  0.0038  0.0024  0.0170  0.0016  0.0019  0.0040 </r>
       </set>
       <set comment="band 17">
        <r>  0.0001  0.1200  0.1473  0.0001  0.0062  0.0009  0.0020  0.0015  0.0029 </r>
        <r>  0.0078  0.0039  0.0104  0.0580  0.0052  0.0013  0.0068  0.0126  0.0006 </r>
        <r>  0.0078  0.0039  0.0104  0.0580  0.0052  0.0013  0.0068  0.0126  0.0006 </r>
       </set>
       <set comment="band 18">
        <r>  0.0020  0.0002  0.0399  0.0255  0.0265  0.0060  0.0260  0.0158  0.0117 </r>
        <r>  0.0009  0.0001  0.0245  0.0185  0.0165  0.0030  0.0119  0.0025  0.0103 </r>
        <r>  0.0009  0.0001  0.0245  0.0185  0.0165  0.0030  0.0119  0.0025  0.0103 </r>
       </set>
       <set comment="band 19">
        <r>  0.0000  0.0161  0.0001  0.0006  0.0001  0.0001  0.0003  0.0026  0.0003 </r>
        <r>  0.0012  0.0068  0.0219  0.0012  0.0005  0.0009  0.0002  0.0042  0.0013 </r>
        <r>  0.0012  0.0068  0.0219  0.0012  0.0005  0.0009  0.0002  0.0042  0.0013 </r>
       </set>
       <set comment="band 20">
        <r>  0.0003  0.0000  0.0050  0.0259  0.0011  0.0021  0.0033  0.0029  0.0000 </r>
        <r>  0.0025  0.0109  0.0152  0.0070  0.0009  0.0003  0.0003  0.0022  0.0004 </r>
        <r>  0.0025  0.0109  0.0152  0.0070  0.0009  0.0003  0.0003  0.0022  0.0004 </r>
       </set>
      </set>
      <set comment="kpoint 23">
       <set comment="band 1">
        <r>  0.0000  0.0000  0.0000  0.0000  0.3289  0.1660  0.0127  0.2949  0.1791 </r>
        <r>  0.0020  0.0000  0.0004  0.0001  0.0000  0.0000  0.0000  0.0000  0.0000 </r>
        <r>  0.0020  0.0000  0.0004  0.0001  0.0000  0.0000  0.0000  0.0000  0.0000 </r>
       </set>
       <set comment="band 2">
        <r>  0.0000  0.0000  0.0000  0.0000  0.1149  0.4927  0.0072  0.2140  0.1597 </r>
        <r>  0.0002  0.0003  0.0000  0.0001  0.0000  0.0001  0.0000  0.0000  0.0000 </r>
        <r>  0.0002  0.0003  0.0000  0.0001  0.0000  0.0001  0.0000  0.0000  0.0000 </r>
       </set>
       <set comment="band 3">
        <r>  0.0000  0.0000  0.0000  0.0000  0.2565  0.1292  0.0616  0.3866  0.1553 </r>
        <r>  0.0001  0.0000  0.0000  0.0000  0.0000  0.0000  0.0000  0.0000  0.0000 </r>
        <r>  0.0001  0.0000  0.0000  0.0000  0.0000  0.0000  0.0000  0.0000  0.0000 </r>
       </set>
       <set comment="band 4">
        <r>  0.0000  0.0000  0.0000  0.0000  0.1211  0.1934  0.1516  0.0611  0.4645 </r>
        <r>  0.0000  0.0000  0.0000  0.0000  0.0000  0.0000  0.0000  0.0000  0.0000 </r>
        <r>  0.0000  0.0000  0.0000  0.0000  0.0000  0.0000  0.0000  0.0000  0.0000 </r>
       </set>
       <set comment="band 5">
        <r>  0.0000  0.0000  0.0000  0.0000  0.1669  0.0061  0.7580  0.0296  0.0311 </r>
        <r>  0.0000  0.0000  0.0000  0.0000  0.0000  0.0000  0.0000  0.0000  0.0000 </r>
        <r>  0.0000  0.0000  0.0000  0.0000  0.0000  0.0000  0.0000  0.0000  0.0000 </r>
       </set>
       <set comment="band 6">
        <r>  0.0421  0.0117  0.0006  0.0144  0.0011  0.0000  0.0000  0.0013  0.0000 </r>
        <r>  0.3182  0.0007  0.0029  0.0006  0.0000  0.0000  0.0000  0.0000  0.0000 </r>
        <r>  0.3182  0.0007  0.0029  0.0006  0.0000  0.0000  0.0000  0.0000  0.0000 </r>
       </set>
       <set comment="band 7">
        <r>  0.0071  0.0001  0.0064  0.0044  0.0032  0.0048  0.0000  0.0058  0.0026 </r>
        <r>  0.3596  0.0001  0.0009  0.0002  0.0000  0.0000  0.0000  0.0000  0.0000 </r>
        <r>  0.3596  0.0001  0.0009  0.0002  0.0000  0.0000  0.0000  0.0000  0.0000 </r>
       </set>
       <set comment="band 8">
        <r>  0.4711  0.0005  0.0000  0.0010  0.0004  0.0002  0.0001  0.0020  0.0001 </r>
        <r>  0.0398  0.0194  0.0071  0.0350  0.0005  0.0009  0.0000  0.0015  0.0004 </r>
        <r>  0.0398  0.0194  0.0071  0.0350  0.0005  0.0009  0.0000  0.0015  0.0004 </r>
       </set>
       <set comment="band 9">
        <r>  0.0000  0.0105  0.0699  0.0834  0.0012  0.0001  0.0005  0.0005  0.0018 </r>
        <r>  0.0101  0.0433  0.0297  0.0788  0.0000  0.0005  0.0005  0.0008  0.0001 </r>
        <r>  0.0101  0.0433  0.0297  0.0788  0.0000  0.0005  0.0005  0.0008  0.0001 </r>
       </set>
       <set comment="band 10">
        <r>  0.0043  0.1456  0.0161  0.0000  0.0009  0.0001  0.0020  0.0003  0.0019 </r>
        <r>  0.0072  0.1070  0.0622  0.0074  0.0002  0.0013  0.0004  0.0006  0.0005 </r>
        <r>  0.0072  0.1070  0.0622  0.0074  0.0002  0.0013  0.0004  0.0006  0.0005 </r>
       </set>
       <set comment="band 11">
        <r>  0.0034  0.0112  0.0634  0.0636  0.0000  0.0013  0.0005  0.0024  0.0012 </r>
        <r>  0.0071  0.0077  0.0683  0.1182  0.0005  0.0006  0.0001  0.0003  0.0005 </r>
        <r>  0.0071  0.0077  0.0683  0.1182  0.0005  0.0006  0.0001  0.0003  0.0005 </r>
       </set>
       <set comment="band 12">
        <r>  0.0067  0.0001  0.0127  0.0013  0.0064  0.0037  0.0023  0.0188  0.0000 </r>
        <r>  0.0018  0.1399  0.0976  0.0144  0.0002  0.0001  0.0001  0.0003  0.0002 </r>
        <r>  0.0018  0.1399  0.0976  0.0144  0.0002  0.0001  0.0001  0.0003  0.0002 </r>
       </set>
       <set comment="band 13">
        <r>  0.0000  0.0006  0.0001  0.0001  0.0017  0.0248  0.0005  0.0002  0.0063 </r>
        <r>  0.0003  0.0658  0.1377  0.0715  0.0001  0.0001  0.0000  0.0000  0.0001 </r>
        <r>  0.0003  0.0658  0.1377  0.0715  0.0001  0.0001  0.0000  0.0000  0.0001 </r>
       </set>
       <set comment="band 14">
        <r>  0.2274  0.0001  0.0000  0.0163  0.0088  0.0007  0.0003  0.0002  0.0005 </r>
        <r>  0.0030  0.0476  0.0317  0.0980  0.0027  0.0010  0.0002  0.0025  0.0009 </r>
        <r>  0.0030  0.0476  0.0317  0.0980  0.0027  0.0010  0.0002  0.0025  0.0009 </r>
       </set>
       <set comment="band 15">
        <r>  0.0049  0.0075  0.0691  0.1222  0.0002  0.0000  0.0000  0.0017  0.0009 </r>
        <r>  0.0309  0.0273  0.0570  0.0053  0.0107  0.0016  0.0003  0.0016  0.0027 </r>
        <r>  0.0309  0.0273  0.0570  0.0053  0.0107  0.0016  0.0003  0.0016  0.0027 </r>
       </set>
       <set comment="band 16">
        <r>  0.0015  0.1177  0.0948  0.0776  0.0019  0.0007  0.0001  0.0001  0.0004 </r>
        <r>  0.0028  0.0661  0.0004  0.0005  0.0025  0.0195  0.0021  0.0024  0.0032 </r>
        <r>  0.0028  0.0661  0.0004  0.0005  0.0025  0.0195  0.0021  0.0024  0.0032 </r>
       </set>
       <set comment="band 17">
        <r>  0.0000  0.1649  0.1092  0.0019  0.0072  0.0013  0.0043  0.0011  0.0022 </r>
        <r>  0.0058  0.0032  0.0098  0.0503  0.0063  0.0019  0.0048  0.0171  0.0001 </r>
        <r>  0.0058  0.0032  0.0098  0.0503  0.0063  0.0019  0.0048  0.0171  0.0001 </r>
       </set>
       <set comment="band 18">
        <r>  0.0009  0.0041  0.0312  0.0143  0.0250  0.0051  0.0298  0.0204  0.0091 </r>
        <r>  0.0004  0.0009  0.0313  0.0174  0.0149  0.0039  0.0119  0.0064  0.0076 </r>
        <r>  0.0004  0.0009  0.0313  0.0174  0.0149  0.0039  0.0119  0.0064  0.0076 </r>
       </set>
       <set comment="band 19">
        <r>  0.0007  0.0045  0.0027  0.0040  0.0018  0.0000  0.0003  0.0011  0.0010 </r>
        <r>  0.0025  0.0067  0.0069  0.0062  0.0006  0.0005  0.0023  0.0034  0.0014 </r>
        <r>  0.0025  0.0067  0.0069  0.0062  0.0006  0.0005  0.0023  0.0034  0.0014 </r>
       </set>
       <set comment="band 20">
        <r>  0.0010  0.0000  0.0038  0.0255  0.0003  0.0017  0.0019  0.0010  0.0000 </r>
        <r>  0.0018  0.0101  0.0182  0.0062  0.0007  0.0005  0.0000  0.0013  0.0003 </r>
        <r>  0.0018  0.0101  0.0182  0.0062  0.0007  0.0005  0.0000  0.0013  0.0003 </r>
       </set>
      </set>
      <set comment="kpoint 24">
       <set comment="band 1">
        <r>  0.0000  0.0000  0.0000  0.0000  0.3445  0.1438  0.0142  0.3321  0.1463 </r>
        <r>  0.0022  0.0000  0.0004  0.0001  0.0000  0.0000  0.0000  0.0000  0.0000 </r>
        <r>  0.0022  0.0000  0.0004  0.0001  0.0000  0.0000  0.0000  0.0000  0.0000 </r>
       </set>
       <set comment="band 2">
        <r>  0.0000  0.0000  0.0000  0.0000  0.0795  0.5524  0.0019  0.2035  0.1512 </r>
        <r>  0.0002  0.0003  0.0000  0.0001  0.0000  0.0001  0.0000  0.0000  0.0000 </r>
        <r>  0.0002  0.0003  0.0000  0.0001  0.0000  0.0001  0.0000  0.0000  0.0000 </r>
       </set>
       <set comment="band 3">
        <r>  0.0000  0.0000  0.0000  0.0000  0.2904  0.1184  0.0691  0.3795  0.1318 </r>
        <r>  0.0001  0.0000  0.0000  0.0000  0.0000  0.0000  0.0000  0.0000  0.0000 </r>
        <r>  0.0001  0.0000  0.0000  0.0000  0.0000  0.0000  0.0000  0.0000  0.0000 </r>
       </set>
       <set comment="band 4">
        <r>  0.0000  0.0000  0.0000  0.0000  0.1497  0.1721  0.0641  0.0504  0.5558 </r>
        <r>  0.0000  0.0000  0.0000  0.0000  0.0000  0.0000  0.0000  0.0000  0.0000 </r>
        <r>  0.0000  0.0000  0.0000  0.0000  0.0000  0.0000  0.0000  0.0000  0.0000 </r>
       </set>
       <set comment="band 5">
        <r>  0.0000  0.0000  0.0000  0.0000  0.1238  0.0009  0.8421  0.0201  0.0049 </r>
        <r>  0.0000  0.0000  0.0000  0.0000  0.0000  0.0000  0.0000  0.0000  0.0000 </r>
        <r>  0.0000  0.0000  0.0000  0.0000  0.0000  0.0000  0.0000  0.0000  0.0000 </r>
       </set>
       <set comment="band 6">
        <r>  0.0162  0.0114  0.0016  0.0193  0.0010  0.0002  0.0000  0.0012  0.0001 </r>
        <r>  0.3352  0.0004  0.0025  0.0002  0.0000  0.0000  0.0000  0.0000  0.0000 </r>
        <r>  0.3352  0.0004  0.0025  0.0002  0.0000  0.0000  0.0000  0.0000  0.0000 </r>
       </set>
       <set comment="band 7">
        <r>  0.0180  0.0004  0.0022  0.0042  0.0042  0.0043  0.0000  0.0071  0.0025 </r>
        <r>  0.3554  0.0001  0.0010  0.0004  0.0000  0.0000  0.0000  0.0001  0.0000 </r>
        <r>  0.3554  0.0001  0.0010  0.0004  0.0000  0.0000  0.0000  0.0001  0.0000 </r>
       </set>
       <set comment="band 8">
        <r>  0.4831  0.0002  0.0000  0.0004  0.0004  0.0004  0.0003  0.0023  0.0001 </r>
        <r>  0.0263  0.0182  0.0046  0.0400  0.0006  0.0008  0.0000  0.0017  0.0003 </r>
        <r>  0.0263  0.0182  0.0046  0.0400  0.0006  0.0008  0.0000  0.0017  0.0003 </r>
       </set>
       <set comment="band 9">
        <r>  0.0000  0.0154  0.0774  0.0751  0.0002  0.0003  0.0001  0.0004  0.0007 </r>
        <r>  0.0102  0.0373  0.0276  0.0842  0.0001  0.0004  0.0004  0.0008  0.0001 </r>
        <r>  0.0102  0.0373  0.0276  0.0842  0.0001  0.0004  0.0004  0.0008  0.0001 </r>
       </set>
       <set comment="band 10">
        <r>  0.0072  0.1511  0.0052  0.0086  0.0017  0.0000  0.0007  0.0013  0.0015 </r>
        <r>  0.0035  0.1195  0.0333  0.0245  0.0003  0.0017  0.0003  0.0007  0.0003 </r>
        <r>  0.0035  0.1195  0.0333  0.0245  0.0003  0.0017  0.0003  0.0007  0.0003 </r>
       </set>
       <set comment="band 11">
        <r>  0.0016  0.0001  0.0747  0.0711  0.0000  0.0013  0.0003  0.0005  0.0005 </r>
        <r>  0.0135  0.0074  0.1022  0.0773  0.0006  0.0004  0.0001  0.0001  0.0004 </r>
        <r>  0.0135  0.0074  0.1022  0.0773  0.0006  0.0004  0.0001  0.0001  0.0004 </r>
       </set>
       <set comment="band 12">
        <r>  0.0077  0.0001  0.0064  0.0003  0.0068  0.0031  0.0026  0.0208  0.0000 </r>
        <r>  0.0012  0.1350  0.1109  0.0097  0.0002  0.0000  0.0001  0.0003  0.0001 </r>
        <r>  0.0012  0.1350  0.1109  0.0097  0.0002  0.0000  0.0001  0.0003  0.0001 </r>
       </set>
       <set comment="band 13">
        <r>  0.0014  0.0002  0.0003  0.0002  0.0016  0.0263  0.0010  0.0001  0.0059 </r>
        <r>  0.0005  0.0638  0.1225  0.0841  0.0001  0.0002  0.0001  0.0000  0.0001 </r>
        <r>  0.0005  0.0638  0.1225  0.0841  0.0001  0.0002  0.0001  0.0000  0.0001 </r>
       </set>
       <set comment="band 14">
        <r>  0.2288  0.0018  0.0000  0.0081  0.0093  0.0003  0.0006  0.0001  0.0015 </r>
        <r>  0.0029  0.0503  0.0344  0.0898  0.0026  0.0010  0.0002  0.0027  0.0008 </r>
        <r>  0.0029  0.0503  0.0344  0.0898  0.0026  0.0010  0.0002  0.0027  0.0008 </r>
       </set>
       <set comment="band 15">
        <r>  0.0013  0.0159  0.0884  0.0918  0.0000  0.0002  0.0000  0.0010  0.0006 </r>
        <r>  0.0297  0.0258  0.0596  0.0068  0.0125  0.0008  0.0002  0.0010  0.0038 </r>
        <r>  0.0297  0.0258  0.0596  0.0068  0.0125  0.0008  0.0002  0.0010  0.0038 </r>
       </set>
       <set comment="band 16">
        <r>  0.0022  0.1023  0.0852  0.1040  0.0009  0.0010  0.0000  0.0000  0.0002 </r>
        <r>  0.0025  0.0660  0.0042  0.0002  0.0018  0.0219  0.0021  0.0020  0.0023 </r>
        <r>  0.0025  0.0660  0.0042  0.0002  0.0018  0.0219  0.0021  0.0020  0.0023 </r>
       </set>
       <set comment="band 17">
        <r>  0.0003  0.1710  0.1133  0.0008  0.0035  0.0013  0.0031  0.0001  0.0008 </r>
        <r>  0.0040  0.0046  0.0129  0.0479  0.0055  0.0012  0.0036  0.0209  0.0003 </r>
        <r>  0.0040  0.0046  0.0129  0.0479  0.0055  0.0012  0.0036  0.0209  0.0003 </r>
       </set>
       <set comment="band 18">
        <r>  0.0001  0.0006  0.0131  0.0075  0.0287  0.0055  0.0327  0.0226  0.0099 </r>
        <r>  0.0003  0.0020  0.0211  0.0101  0.0151  0.0044  0.0119  0.0085  0.0061 </r>
        <r>  0.0003  0.0020  0.0211  0.0101  0.0151  0.0044  0.0119  0.0085  0.0061 </r>
       </set>
       <set comment="band 19">
        <r>  0.0015  0.0006  0.0034  0.0055  0.0028  0.0000  0.0008  0.0005  0.0009 </r>
        <r>  0.0028  0.0065  0.0021  0.0119  0.0007  0.0004  0.0047  0.0027  0.0015 </r>
        <r>  0.0028  0.0065  0.0021  0.0119  0.0007  0.0004  0.0047  0.0027  0.0015 </r>
       </set>
       <set comment="band 20">
        <r>  0.0033  0.0002  0.0015  0.0240  0.0001  0.0016  0.0016  0.0003  0.0001 </r>
        <r>  0.0012  0.0112  0.0200  0.0074  0.0012  0.0008  0.0001  0.0005  0.0003 </r>
        <r>  0.0012  0.0112  0.0200  0.0074  0.0012  0.0008  0.0001  0.0005  0.0003 </r>
       </set>
      </set>
      <set comment="kpoint 25">
       <set comment="band 1">
        <r>  0.0000  0.0000  0.0000  0.0000  0.3640  0.1202  0.0147  0.3605  0.1213 </r>
        <r>  0.0022  0.0000  0.0005  0.0000  0.0000  0.0000  0.0000  0.0000  0.0000 </r>
        <r>  0.0022  0.0000  0.0005  0.0000  0.0000  0.0000  0.0000  0.0000  0.0000 </r>
       </set>
       <set comment="band 2">
        <r>  0.0000  0.0000  0.0000  0.0000  0.0542  0.5788  0.0000  0.1929  0.1626 </r>
        <r>  0.0002  0.0003  0.0000  0.0001  0.0000  0.0001  0.0000  0.0000  0.0000 </r>
        <r>  0.0002  0.0003  0.0000  0.0001  0.0000  0.0001  0.0000  0.0000  0.0000 </r>
       </set>
       <set comment="band 3">
        <r>  0.0000  0.0000  0.0000  0.0000  0.3195  0.1229  0.0717  0.3686  0.1065 </r>
        <r>  0.0001  0.0000  0.0000  0.0000  0.0000  0.0000  0.0000  0.0000  0.0000 </r>
        <r>  0.0001  0.0000  0.0000  0.0000  0.0000  0.0000  0.0000  0.0000  0.0000 </r>
       </set>
       <set comment="band 4">
        <r>  0.0000  0.0000  0.0000  0.0000  0.1938  0.1629  0.0000  0.0543  0.5813 </r>
        <r>  0.0000  0.0000  0.0000  0.0000  0.0000  0.0000  0.0000  0.0000  0.0000 </r>
        <r>  0.0000  0.0000  0.0000  0.0000  0.0000  0.0000  0.0000  0.0000  0.0000 </r>
       </set>
       <set comment="band 5">
        <r>  0.0000  0.0000  0.0000  0.0000  0.0562  0.0030  0.9050  0.0089  0.0187 </r>
        <r>  0.0000  0.0000  0.0000  0.0000  0.0000  0.0000  0.0000  0.0000  0.0000 </r>
        <r>  0.0000  0.0000  0.0000  0.0000  0.0000  0.0000  0.0000  0.0000  0.0000 </r>
       </set>
       <set comment="band 6">
        <r>  0.0000  0.0085  0.0026  0.0255  0.0002  0.0008  0.0000  0.0003  0.0006 </r>
        <r>  0.3449  0.0001  0.0024  0.0001  0.0000  0.0000  0.0000  0.0000  0.0000 </r>
        <r>  0.3449  0.0001  0.0024  0.0001  0.0000  0.0000  0.0000  0.0000  0.0000 </r>
       </set>
       <set comment="band 7">
        <r>  0.0284  0.0023  0.0000  0.0008  0.0056  0.0030  0.0000  0.0091  0.0019 </r>
        <r>  0.3505  0.0002  0.0011  0.0006  0.0000  0.0000  0.0000  0.0001  0.0000 </r>
        <r>  0.3505  0.0002  0.0011  0.0006  0.0000  0.0000  0.0000  0.0001  0.0000 </r>
       </set>
       <set comment="band 8">
        <r>  0.4876  0.0000  0.0000  0.0000  0.0004  0.0007  0.0003  0.0022  0.0001 </r>
        <r>  0.0213  0.0166  0.0038  0.0429  0.0006  0.0007  0.0000  0.0018  0.0003 </r>
        <r>  0.0213  0.0166  0.0038  0.0429  0.0006  0.0007  0.0000  0.0018  0.0003 </r>
       </set>
       <set comment="band 9">
        <r>  0.0000  0.0223  0.0801  0.0669  0.0001  0.0005  0.0000  0.0002  0.0002 </r>
        <r>  0.0100  0.0304  0.0269  0.0911  0.0001  0.0003  0.0004  0.0009  0.0001 </r>
        <r>  0.0100  0.0304  0.0269  0.0911  0.0001  0.0003  0.0004  0.0009  0.0001 </r>
       </set>
       <set comment="band 10">
        <r>  0.0091  0.1232  0.0000  0.0411  0.0026  0.0005  0.0003  0.0015  0.0009 </r>
        <r>  0.0007  0.1150  0.0173  0.0462  0.0004  0.0020  0.0002  0.0007  0.0002 </r>
        <r>  0.0007  0.1150  0.0173  0.0462  0.0004  0.0020  0.0002  0.0007  0.0002 </r>
       </set>
       <set comment="band 11">
        <r>  0.0000  0.0176  0.0804  0.0528  0.0000  0.0006  0.0000  0.0002  0.0001 </r>
        <r>  0.0173  0.0286  0.1199  0.0351  0.0007  0.0002  0.0002  0.0001  0.0003 </r>
        <r>  0.0173  0.0286  0.1199  0.0351  0.0007  0.0002  0.0002  0.0001  0.0003 </r>
       </set>
       <set comment="band 12">
        <r>  0.0104  0.0002  0.0000  0.0001  0.0081  0.0046  0.0040  0.0138  0.0027 </r>
        <r>  0.0016  0.0189  0.1986  0.0411  0.0000  0.0001  0.0001  0.0003  0.0000 </r>
        <r>  0.0016  0.0189  0.1986  0.0411  0.0000  0.0001  0.0001  0.0003  0.0000 </r>
       </set>
       <set comment="band 13">
        <r>  0.0000  0.0001  0.0042  0.0002  0.0009  0.0246  0.0000  0.0082  0.0026 </r>
        <r>  0.0000  0.1711  0.0331  0.0626  0.0004  0.0001  0.0001  0.0001  0.0001 </r>
        <r>  0.0000  0.1711  0.0331  0.0626  0.0004  0.0001  0.0001  0.0001  0.0001 </r>
       </set>
       <set comment="band 14">
        <r>  0.2292  0.0054  0.0000  0.0018  0.0087  0.0001  0.0007  0.0002  0.0029 </r>
        <r>  0.0028  0.0562  0.0365  0.0816  0.0025  0.0009  0.0002  0.0027  0.0009 </r>
        <r>  0.0028  0.0562  0.0365  0.0816  0.0025  0.0009  0.0002  0.0027  0.0009 </r>
       </set>
       <set comment="band 15">
        <r>  0.0000  0.0251  0.0966  0.0752  0.0001  0.0006  0.0000  0.0002  0.0003 </r>
        <r>  0.0291  0.0243  0.0596  0.0086  0.0131  0.0005  0.0002  0.0008  0.0044 </r>
        <r>  0.0291  0.0243  0.0596  0.0086  0.0131  0.0005  0.0002  0.0008  0.0044 </r>
       </set>
       <set comment="band 16">
        <r>  0.0026  0.2448  0.0000  0.0816  0.0000  0.0000  0.0008  0.0001  0.0000 </r>
        <r>  0.0052  0.0577  0.0051  0.0195  0.0009  0.0185  0.0002  0.0068  0.0007 </r>
        <r>  0.0052  0.0577  0.0051  0.0195  0.0009  0.0185  0.0002  0.0068  0.0007 </r>
       </set>
       <set comment="band 17">
        <r>  0.0000  0.0145  0.2023  0.0436  0.0000  0.0012  0.0000  0.0004  0.0000 </r>
        <r>  0.0008  0.0129  0.0190  0.0305  0.0049  0.0056  0.0050  0.0169  0.0017 </r>
        <r>  0.0008  0.0129  0.0190  0.0305  0.0049  0.0056  0.0050  0.0169  0.0017 </r>
       </set>
       <set comment="band 18">
        <r>  0.0000  0.0022  0.0000  0.0007  0.0325  0.0074  0.0355  0.0222  0.0108 </r>
        <r>  0.0004  0.0042  0.0131  0.0032  0.0163  0.0036  0.0120  0.0098  0.0054 </r>
        <r>  0.0004  0.0042  0.0131  0.0032  0.0163  0.0036  0.0120  0.0098  0.0054 </r>
       </set>
       <set comment="band 19">
        <r>  0.0000  0.0027  0.0058  0.0082  0.0000  0.0000  0.0000  0.0000  0.0001 </r>
        <r>  0.0019  0.0077  0.0002  0.0223  0.0022  0.0010  0.0086  0.0029  0.0010 </r>
        <r>  0.0019  0.0077  0.0002  0.0223  0.0022  0.0010  0.0086  0.0029  0.0010 </r>
       </set>
       <set comment="band 20">
        <r>  0.0054  0.0014  0.0000  0.0005  0.0064  0.0000  0.0014  0.0000  0.0021 </r>
        <r>  0.0022  0.0068  0.0007  0.0196  0.0005  0.0006  0.0062  0.0017  0.0008 </r>
        <r>  0.0022  0.0068  0.0007  0.0196  0.0005  0.0006  0.0062  0.0017  0.0008 </r>
       </set>
      </set>
      <set comment="kpoint 26">
       <set comment="band 1">
        <r>  0.0000  0.0000  0.0000  0.0000  0.1453  0.3020  0.0000  0.1007  0.4360 </r>
        <r>  0.0013  0.0001  0.0003  0.0001  0.0000  0.0000  0.0000  0.0000  0.0000 </r>
        <r>  0.0013  0.0001  0.0003  0.0001  0.0000  0.0000  0.0000  0.0000  0.0000 </r>
       </set>
       <set comment="band 2">
        <r>  0.0000  0.0000  0.0000  0.0000  0.3629  0.1173  0.0353  0.3519  0.1210 </r>
        <r>  0.0002  0.0002  0.0000  0.0002  0.0000  0.0000  0.0000  0.0001  0.0000 </r>
        <r>  0.0002  0.0002  0.0000  0.0002  0.0000  0.0000  0.0000  0.0001  0.0000 </r>
       </set>
       <set comment="band 3">
        <r>  0.0000  0.0000  0.0000  0.0000  0.1015  0.4378  0.0000  0.1459  0.3046 </r>
        <r>  0.0001  0.0000  0.0000  0.0000  0.0000  0.0000  0.0000  0.0000  0.0000 </r>
        <r>  0.0001  0.0000  0.0000  0.0000  0.0000  0.0000  0.0000  0.0000  0.0000 </r>
       </set>
       <set comment="band 4">
        <r>  0.0000  0.0000  0.0000  0.0000  0.1858  0.1082  0.3102  0.3246  0.0619 </r>
        <r>  0.0000  0.0000  0.0000  0.0000  0.0000  0.0000  0.0000  0.0000  0.0000 </r>
        <r>  0.0000  0.0000  0.0000  0.0000  0.0000  0.0000  0.0000  0.0000  0.0000 </r>
       </set>
       <set comment="band 5">
        <r>  0.0000  0.0000  0.0000  0.0000  0.1942  0.0219  0.6450  0.0656  0.0647 </r>
        <r>  0.0000  0.0000  0.0000  0.0000  0.0000  0.0000  0.0000  0.0000  0.0000 </r>
        <r>  0.0000  0.0000  0.0000  0.0000  0.0000  0.0000  0.0000  0.0000  0.0000 </r>
       </set>
       <set comment="band 6">
        <r>  0.0889  0.0120  0.0000  0.0040  0.0004  0.0001  0.0000  0.0004  0.0001 </r>
        <r>  0.2872  0.0011  0.0037  0.0004  0.0000  0.0001  0.0000  0.0000  0.0000 </r>
        <r>  0.2872  0.0011  0.0037  0.0004  0.0000  0.0001  0.0000  0.0000  0.0000 </r>
       </set>
       <set comment="band 7">
        <r>  0.0000  0.0004  0.0171  0.0013  0.0009  0.0057  0.0000  0.0019  0.0027 </r>
        <r>  0.3554  0.0003  0.0007  0.0001  0.0000  0.0000  0.0000  0.0000  0.0000 </r>
        <r>  0.3554  0.0003  0.0007  0.0001  0.0000  0.0000  0.0000  0.0000  0.0000 </r>
       </set>
       <set comment="band 8">
        <r>  0.4326  0.0006  0.0000  0.0002  0.0001  0.0002  0.0002  0.0006  0.0000 </r>
        <r>  0.0781  0.0245  0.0237  0.0106  0.0002  0.0013  0.0000  0.0006  0.0005 </r>
        <r>  0.0781  0.0245  0.0237  0.0106  0.0002  0.0013  0.0000  0.0006  0.0005 </r>
       </set>
       <set comment="band 9">
        <r>  0.0000  0.0198  0.0633  0.0594  0.0034  0.0004  0.0000  0.0001  0.0102 </r>
        <r>  0.0047  0.1219  0.0060  0.0446  0.0001  0.0012  0.0009  0.0006  0.0001 </r>
        <r>  0.0047  0.1219  0.0060  0.0446  0.0001  0.0012  0.0009  0.0006  0.0001 </r>
       </set>
       <set comment="band 10">
        <r>  0.0091  0.1156  0.0000  0.0385  0.0005  0.0000  0.0072  0.0001  0.0002 </r>
        <r>  0.0050  0.0324  0.0943  0.0453  0.0003  0.0003  0.0007  0.0008  0.0009 </r>
        <r>  0.0050  0.0324  0.0943  0.0453  0.0003  0.0003  0.0007  0.0008  0.0009 </r>
       </set>
       <set comment="band 11">
        <r>  0.0000  0.0123  0.0891  0.0370  0.0003  0.0026  0.0000  0.0009  0.0009 </r>
        <r>  0.0071  0.0403  0.0797  0.0953  0.0005  0.0002  0.0000  0.0006  0.0009 </r>
        <r>  0.0071  0.0403  0.0797  0.0953  0.0005  0.0002  0.0000  0.0006  0.0009 </r>
       </set>
       <set comment="band 12">
        <r>  0.0046  0.0051  0.0000  0.0017  0.0056  0.0059  0.0015  0.0178  0.0019 </r>
        <r>  0.0017  0.1048  0.0220  0.1223  0.0001  0.0002  0.0001  0.0004  0.0003 </r>
        <r>  0.0017  0.1048  0.0220  0.1223  0.0001  0.0002  0.0001  0.0004  0.0003 </r>
       </set>
       <set comment="band 13">
        <r>  0.0000  0.0027  0.0024  0.0081  0.0016  0.0137  0.0000  0.0046  0.0048 </r>
        <r>  0.0000  0.0263  0.1657  0.0787  0.0001  0.0001  0.0000  0.0002  0.0001 </r>
        <r>  0.0000  0.0263  0.1657  0.0787  0.0001  0.0001  0.0000  0.0002  0.0001 </r>
       </set>
       <set comment="band 14">
        <r>  0.2320  0.0105  0.0000  0.0035  0.0048  0.0000  0.0001  0.0000  0.0016 </r>
        <r>  0.0015  0.0904  0.0469  0.0767  0.0008  0.0016  0.0000  0.0007  0.0019 </r>
        <r>  0.0015  0.0904  0.0469  0.0767  0.0008  0.0016  0.0000  0.0007  0.0019 </r>
       </set>
       <set comment="band 15">
        <r>  0.0000  0.0770  0.0297  0.2311  0.0001  0.0005  0.0000  0.0002  0.0003 </r>
        <r>  0.0194  0.0122  0.0028  0.0351  0.0055  0.0071  0.0004  0.0058  0.0020 </r>
        <r>  0.0194  0.0122  0.0028  0.0351  0.0055  0.0071  0.0004  0.0058  0.0020 </r>
       </set>
       <set comment="band 16">
        <r>  0.0050  0.1503  0.0000  0.0501  0.0002  0.0008  0.0004  0.0024  0.0001 </r>
        <r>  0.0345  0.0169  0.0434  0.0277  0.0015  0.0013  0.0018  0.0027  0.0029 </r>
        <r>  0.0345  0.0169  0.0434  0.0277  0.0015  0.0013  0.0018  0.0027  0.0029 </r>
       </set>
       <set comment="band 17">
        <r>  0.0000  0.0028  0.2634  0.0084  0.0009  0.0003  0.0000  0.0001  0.0027 </r>
        <r>  0.0047  0.0602  0.0098  0.0233  0.0022  0.0072  0.0088  0.0025  0.0046 </r>
        <r>  0.0047  0.0602  0.0098  0.0233  0.0022  0.0072  0.0088  0.0025  0.0046 </r>
       </set>
       <set comment="band 18">
        <r>  0.0000  0.0180  0.0322  0.0540  0.0089  0.0074  0.0000  0.0025  0.0266 </r>
        <r>  0.0012  0.0053  0.0017  0.0046  0.0076  0.0004  0.0054  0.0009  0.0153 </r>
        <r>  0.0012  0.0053  0.0017  0.0046  0.0076  0.0004  0.0054  0.0009  0.0153 </r>
       </set>
       <set comment="band 19">
        <r>  0.0010  0.0225  0.0000  0.0075  0.0000  0.0000  0.0001  0.0000  0.0000 </r>
        <r>  0.0006  0.0013  0.0293  0.0038  0.0005  0.0008  0.0003  0.0009  0.0012 </r>
        <r>  0.0006  0.0013  0.0293  0.0038  0.0005  0.0008  0.0003  0.0009  0.0012 </r>
       </set>
       <set comment="band 20">
        <r>  0.0000  0.0006  0.0003  0.0017  0.0052  0.0185  0.0000  0.0062  0.0156 </r>
        <r>  0.0017  0.0163  0.0119  0.0139  0.0044  0.0018  0.0042  0.0008  0.0111 </r>
        <r>  0.0017  0.0163  0.0119  0.0139  0.0044  0.0018  0.0042  0.0008  0.0111 </r>
       </set>
      </set>
      <set comment="kpoint 27">
       <set comment="band 1">
        <r>  0.0000  0.0000  0.0000  0.0000  0.2002  0.2832  0.0016  0.1668  0.3313 </r>
        <r>  0.0016  0.0000  0.0003  0.0001  0.0000  0.0000  0.0000  0.0000  0.0000 </r>
        <r>  0.0016  0.0000  0.0003  0.0001  0.0000  0.0000  0.0000  0.0000  0.0000 </r>
       </set>
       <set comment="band 2">
        <r>  0.0000  0.0000  0.0000  0.0000  0.2531  0.2256  0.0279  0.3395  0.1421 </r>
        <r>  0.0003  0.0002  0.0001  0.0002  0.0000  0.0001  0.0000  0.0001  0.0000 </r>
        <r>  0.0003  0.0002  0.0001  0.0002  0.0000  0.0001  0.0000  0.0001  0.0000 </r>
       </set>
       <set comment="band 3">
        <r>  0.0000  0.0000  0.0000  0.0000  0.1681  0.2961  0.0113  0.2385  0.2757 </r>
        <r>  0.0001  0.0000  0.0000  0.0000  0.0000  0.0000  0.0000  0.0000  0.0000 </r>
        <r>  0.0001  0.0000  0.0000  0.0000  0.0000  0.0000  0.0000  0.0000  0.0000 </r>
       </set>
       <set comment="band 4">
        <r>  0.0000  0.0000  0.0000  0.0000  0.1710  0.1673  0.2769  0.1989  0.1768 </r>
        <r>  0.0000  0.0000  0.0000  0.0000  0.0000  0.0000  0.0000  0.0000  0.0000 </r>
        <r>  0.0000  0.0000  0.0000  0.0000  0.0000  0.0000  0.0000  0.0000  0.0000 </r>
       </set>
       <set comment="band 5">
        <r>  0.0000  0.0000  0.0000  0.0000  0.1970  0.0147  0.6731  0.0442  0.0627 </r>
        <r>  0.0000  0.0000  0.0000  0.0000  0.0000  0.0000  0.0000  0.0000  0.0000 </r>
        <r>  0.0000  0.0000  0.0000  0.0000  0.0000  0.0000  0.0000  0.0000  0.0000 </r>
       </set>
       <set comment="band 6">
        <r>  0.0705  0.0136  0.0000  0.0067  0.0008  0.0001  0.0000  0.0008  0.0001 </r>
        <r>  0.2993  0.0010  0.0034  0.0005  0.0000  0.0001  0.0000  0.0000  0.0000 </r>
        <r>  0.2993  0.0010  0.0034  0.0005  0.0000  0.0001  0.0000  0.0000  0.0000 </r>
       </set>
       <set comment="band 7">
        <r>  0.0002  0.0005  0.0124  0.0027  0.0015  0.0061  0.0000  0.0030  0.0030 </r>
        <r>  0.3593  0.0002  0.0007  0.0001  0.0000  0.0000  0.0000  0.0000  0.0000 </r>
        <r>  0.3593  0.0002  0.0007  0.0001  0.0000  0.0000  0.0000  0.0000  0.0000 </r>
       </set>
       <set comment="band 8">
        <r>  0.4558  0.0008  0.0000  0.0005  0.0002  0.0001  0.0000  0.0010  0.0000 </r>
        <r>  0.0620  0.0260  0.0142  0.0186  0.0003  0.0013  0.0000  0.0009  0.0005 </r>
        <r>  0.0620  0.0260  0.0142  0.0186  0.0003  0.0013  0.0000  0.0009  0.0005 </r>
       </set>
       <set comment="band 9">
        <r>  0.0002  0.0005  0.0640  0.0879  0.0030  0.0000  0.0005  0.0002  0.0065 </r>
        <r>  0.0041  0.0825  0.0162  0.0657  0.0001  0.0008  0.0007  0.0008  0.0001 </r>
        <r>  0.0041  0.0825  0.0162  0.0657  0.0001  0.0008  0.0007  0.0008  0.0001 </r>
       </set>
       <set comment="band 10">
        <r>  0.0056  0.1424  0.0059  0.0115  0.0001  0.0002  0.0049  0.0003  0.0013 </r>
        <r>  0.0095  0.0591  0.0883  0.0196  0.0002  0.0007  0.0006  0.0006  0.0008 </r>
        <r>  0.0095  0.0591  0.0883  0.0196  0.0002  0.0007  0.0006  0.0006  0.0008 </r>
       </set>
       <set comment="band 11">
        <r>  0.0006  0.0160  0.0851  0.0404  0.0000  0.0022  0.0001  0.0030  0.0014 </r>
        <r>  0.0066  0.0174  0.0549  0.1323  0.0006  0.0003  0.0000  0.0006  0.0010 </r>
        <r>  0.0066  0.0174  0.0549  0.1323  0.0006  0.0003  0.0000  0.0006  0.0010 </r>
       </set>
       <set comment="band 12">
        <r>  0.0073  0.0008  0.0049  0.0020  0.0046  0.0066  0.0019  0.0170  0.0006 </r>
        <r>  0.0012  0.1361  0.0437  0.0644  0.0002  0.0001  0.0001  0.0003  0.0003 </r>
        <r>  0.0012  0.1361  0.0437  0.0644  0.0002  0.0001  0.0001  0.0003  0.0003 </r>
       </set>
       <set comment="band 13">
        <r>  0.0000  0.0009  0.0025  0.0020  0.0019  0.0170  0.0000  0.0030  0.0059 </r>
        <r>  0.0003  0.0310  0.1838  0.0594  0.0001  0.0001  0.0000  0.0001  0.0001 </r>
        <r>  0.0003  0.0310  0.1838  0.0594  0.0001  0.0001  0.0000  0.0001  0.0001 </r>
       </set>
       <set comment="band 14">
        <r>  0.2294  0.0035  0.0000  0.0087  0.0057  0.0002  0.0001  0.0000  0.0006 </r>
        <r>  0.0010  0.0759  0.0381  0.0964  0.0012  0.0015  0.0000  0.0015  0.0011 </r>
        <r>  0.0010  0.0759  0.0381  0.0964  0.0012  0.0015  0.0000  0.0015  0.0011 </r>
       </set>
       <set comment="band 15">
        <r>  0.0022  0.0429  0.0047  0.2465  0.0003  0.0001  0.0000  0.0000  0.0005 </r>
        <r>  0.0174  0.0252  0.0107  0.0190  0.0040  0.0105  0.0001  0.0065  0.0005 </r>
        <r>  0.0174  0.0252  0.0107  0.0190  0.0040  0.0105  0.0001  0.0065  0.0005 </r>
       </set>
       <set comment="band 16">
        <r>  0.0033  0.1856  0.0249  0.0082  0.0001  0.0003  0.0003  0.0017  0.0000 </r>
        <r>  0.0277  0.0365  0.0461  0.0140  0.0029  0.0050  0.0022  0.0016  0.0023 </r>
        <r>  0.0277  0.0365  0.0461  0.0140  0.0029  0.0050  0.0022  0.0016  0.0023 </r>
       </set>
       <set comment="band 17">
        <r>  0.0002  0.0212  0.2772  0.0009  0.0016  0.0003  0.0001  0.0002  0.0017 </r>
        <r>  0.0072  0.0321  0.0112  0.0499  0.0047  0.0027  0.0066  0.0055  0.0055 </r>
        <r>  0.0072  0.0321  0.0112  0.0499  0.0047  0.0027  0.0066  0.0055  0.0055 </r>
       </set>
       <set comment="band 18">
        <r>  0.0002  0.0118  0.0206  0.0424  0.0241  0.0081  0.0086  0.0084  0.0242 </r>
        <r>  0.0001  0.0012  0.0041  0.0108  0.0150  0.0020  0.0099  0.0009  0.0144 </r>
        <r>  0.0001  0.0012  0.0041  0.0108  0.0150  0.0020  0.0099  0.0009  0.0144 </r>
       </set>
       <set comment="band 19">
        <r>  0.0000  0.0169  0.0000  0.0010  0.0001  0.0001  0.0014  0.0019  0.0002 </r>
        <r>  0.0001  0.0037  0.0315  0.0033  0.0007  0.0021  0.0000  0.0024  0.0021 </r>
        <r>  0.0001  0.0037  0.0315  0.0033  0.0007  0.0021  0.0000  0.0024  0.0021 </r>
       </set>
       <set comment="band 20">
        <r>  0.0000  0.0000  0.0018  0.0192  0.0077  0.0035  0.0123  0.0058  0.0001 </r>
        <r>  0.0020  0.0145  0.0132  0.0052  0.0035  0.0004  0.0020  0.0054  0.0022 </r>
        <r>  0.0020  0.0145  0.0132  0.0052  0.0035  0.0004  0.0020  0.0054  0.0022 </r>
       </set>
      </set>
      <set comment="kpoint 28">
       <set comment="band 1">
        <r>  0.0000  0.0000  0.0000  0.0000  0.2461  0.2470  0.0050  0.2363  0.2479 </r>
        <r>  0.0018  0.0000  0.0004  0.0001  0.0000  0.0000  0.0000  0.0000  0.0000 </r>
        <r>  0.0018  0.0000  0.0004  0.0001  0.0000  0.0000  0.0000  0.0000  0.0000 </r>
       </set>
       <set comment="band 2">
        <r>  0.0000  0.0000  0.0000  0.0000  0.1724  0.3447  0.0156  0.3065  0.1487 </r>
        <r>  0.0004  0.0003  0.0001  0.0001  0.0000  0.0001  0.0000  0.0000  0.0000 </r>
        <r>  0.0004  0.0003  0.0001  0.0001  0.0000  0.0001  0.0000  0.0000  0.0000 </r>
       </set>
       <set comment="band 3">
        <r>  0.0000  0.0000  0.0000  0.0000  0.2323  0.2006  0.0326  0.2977  0.2265 </r>
        <r>  0.0001  0.0000  0.0000  0.0000  0.0000  0.0000  0.0000  0.0000  0.0000 </r>
        <r>  0.0001  0.0000  0.0000  0.0000  0.0000  0.0000  0.0000  0.0000  0.0000 </r>
       </set>
       <set comment="band 4">
        <r>  0.0000  0.0000  0.0000  0.0000  0.1565  0.1849  0.2214  0.1137  0.3148 </r>
        <r>  0.0000  0.0000  0.0000  0.0000  0.0000  0.0000  0.0000  0.0000  0.0000 </r>
        <r>  0.0000  0.0000  0.0000  0.0000  0.0000  0.0000  0.0000  0.0000  0.0000 </r>
       </set>
       <set comment="band 5">
        <r>  0.0000  0.0000  0.0000  0.0000  0.1819  0.0097  0.7166  0.0328  0.0510 </r>
        <r>  0.0000  0.0000  0.0000  0.0000  0.0000  0.0000  0.0000  0.0000  0.0000 </r>
        <r>  0.0000  0.0000  0.0000  0.0000  0.0000  0.0000  0.0000  0.0000  0.0000 </r>
       </set>
       <set comment="band 6">
        <r>  0.0492  0.0145  0.0002  0.0098  0.0012  0.0002  0.0000  0.0014  0.0002 </r>
        <r>  0.3140  0.0009  0.0030  0.0005  0.0000  0.0001  0.0000  0.0000  0.0000 </r>
        <r>  0.3140  0.0009  0.0030  0.0005  0.0000  0.0001  0.0000  0.0000  0.0000 </r>
       </set>
       <set comment="band 7">
        <r>  0.0018  0.0006  0.0077  0.0047  0.0022  0.0061  0.0000  0.0040  0.0032 </r>
        <r>  0.3617  0.0001  0.0008  0.0002  0.0000  0.0000  0.0000  0.0000  0.0000 </r>
        <r>  0.3617  0.0001  0.0008  0.0002  0.0000  0.0000  0.0000  0.0000  0.0000 </r>
       </set>
       <set comment="band 8">
        <r>  0.4765  0.0007  0.0000  0.0008  0.0003  0.0000  0.0001  0.0014  0.0000 </r>
        <r>  0.0435  0.0253  0.0077  0.0268  0.0004  0.0012  0.0000  0.0012  0.0005 </r>
        <r>  0.0435  0.0253  0.0077  0.0268  0.0004  0.0012  0.0000  0.0012  0.0005 </r>
       </set>
       <set comment="band 9">
        <r>  0.0000  0.0010  0.0670  0.0917  0.0018  0.0002  0.0004  0.0003  0.0039 </r>
        <r>  0.0060  0.0642  0.0233  0.0699  0.0000  0.0007  0.0006  0.0008  0.0002 </r>
        <r>  0.0060  0.0642  0.0233  0.0699  0.0000  0.0007  0.0006  0.0008  0.0002 </r>
       </set>
       <set comment="band 10">
        <r>  0.0050  0.1521  0.0079  0.0024  0.0006  0.0002  0.0027  0.0011  0.0015 </r>
        <r>  0.0109  0.0754  0.0732  0.0168  0.0003  0.0010  0.0005  0.0006  0.0006 </r>
        <r>  0.0109  0.0754  0.0732  0.0168  0.0003  0.0010  0.0005  0.0006  0.0006 </r>
       </set>
       <set comment="band 11">
        <r>  0.0014  0.0091  0.0844  0.0510  0.0001  0.0024  0.0003  0.0027  0.0013 </r>
        <r>  0.0069  0.0136  0.0536  0.1274  0.0006  0.0004  0.0000  0.0005  0.0009 </r>
        <r>  0.0069  0.0136  0.0536  0.1274  0.0006  0.0004  0.0000  0.0005  0.0009 </r>
       </set>
       <set comment="band 12">
        <r>  0.0082  0.0000  0.0071  0.0009  0.0041  0.0072  0.0021  0.0168  0.0003 </r>
        <r>  0.0008  0.1454  0.0617  0.0372  0.0002  0.0001  0.0001  0.0003  0.0002 </r>
        <r>  0.0008  0.1454  0.0617  0.0372  0.0002  0.0001  0.0001  0.0003  0.0002 </r>
       </set>
       <set comment="band 13">
        <r>  0.0001  0.0003  0.0014  0.0000  0.0025  0.0185  0.0002  0.0030  0.0063 </r>
        <r>  0.0007  0.0287  0.1881  0.0580  0.0001  0.0000  0.0000  0.0000  0.0001 </r>
        <r>  0.0007  0.0287  0.1881  0.0580  0.0001  0.0000  0.0000  0.0000  0.0001 </r>
       </set>
       <set comment="band 14">
        <r>  0.2276  0.0003  0.0000  0.0107  0.0061  0.0003  0.0008  0.0000  0.0000 </r>
        <r>  0.0013  0.0684  0.0310  0.1020  0.0014  0.0014  0.0001  0.0023  0.0007 </r>
        <r>  0.0013  0.0684  0.0310  0.1020  0.0014  0.0014  0.0001  0.0023  0.0007 </r>
       </set>
       <set comment="band 15">
        <r>  0.0040  0.0324  0.0006  0.2242  0.0004  0.0000  0.0001  0.0002  0.0006 </r>
        <r>  0.0164  0.0323  0.0225  0.0111  0.0028  0.0130  0.0007  0.0055  0.0001 </r>
        <r>  0.0164  0.0323  0.0225  0.0111  0.0028  0.0130  0.0007  0.0055  0.0001 </r>
       </set>
       <set comment="band 16">
        <r>  0.0009  0.1694  0.0683  0.0029  0.0001  0.0003  0.0001  0.0008  0.0001 </r>
        <r>  0.0218  0.0490  0.0426  0.0060  0.0054  0.0068  0.0017  0.0015  0.0033 </r>
        <r>  0.0218  0.0490  0.0426  0.0060  0.0054  0.0068  0.0017  0.0015  0.0033 </r>
       </set>
       <set comment="band 17">
        <r>  0.0002  0.0684  0.2382  0.0000  0.0029  0.0007  0.0007  0.0000  0.0010 </r>
        <r>  0.0064  0.0155  0.0135  0.0572  0.0066  0.0007  0.0049  0.0115  0.0033 </r>
        <r>  0.0064  0.0155  0.0135  0.0572  0.0066  0.0007  0.0049  0.0115  0.0033 </r>
       </set>
       <set comment="band 18">
        <r>  0.0000  0.0027  0.0146  0.0221  0.0316  0.0053  0.0264  0.0156  0.0139 </r>
        <r>  0.0001  0.0025  0.0152  0.0122  0.0179  0.0048  0.0114  0.0032  0.0104 </r>
        <r>  0.0001  0.0025  0.0152  0.0122  0.0179  0.0048  0.0114  0.0032  0.0104 </r>
       </set>
       <set comment="band 19">
        <r>  0.0010  0.0111  0.0013  0.0031  0.0011  0.0007  0.0001  0.0017  0.0023 </r>
        <r>  0.0012  0.0055  0.0140  0.0057  0.0003  0.0014  0.0009  0.0039  0.0028 </r>
        <r>  0.0012  0.0055  0.0140  0.0057  0.0003  0.0014  0.0009  0.0039  0.0028 </r>
       </set>
       <set comment="band 20">
        <r>  0.0000  0.0001  0.0020  0.0348  0.0020  0.0016  0.0072  0.0012  0.0014 </r>
        <r>  0.0012  0.0107  0.0158  0.0024  0.0009  0.0001  0.0004  0.0044  0.0021 </r>
        <r>  0.0012  0.0107  0.0158  0.0024  0.0009  0.0001  0.0004  0.0044  0.0021 </r>
       </set>
      </set>
      <set comment="kpoint 29">
       <set comment="band 1">
        <r>  0.0000  0.0000  0.0000  0.0000  0.2857  0.2013  0.0081  0.3024  0.1843 </r>
        <r>  0.0020  0.0000  0.0004  0.0001  0.0000  0.0000  0.0000  0.0000  0.0000 </r>
        <r>  0.0020  0.0000  0.0004  0.0001  0.0000  0.0000  0.0000  0.0000  0.0000 </r>
       </set>
       <set comment="band 2">
        <r>  0.0000  0.0000  0.0000  0.0000  0.1157  0.4487  0.0058  0.2619  0.1556 </r>
        <r>  0.0004  0.0003  0.0001  0.0001  0.0000  0.0001  0.0000  0.0000  0.0000 </r>
        <r>  0.0004  0.0003  0.0001  0.0001  0.0000  0.0001  0.0000  0.0000  0.0000 </r>
       </set>
       <set comment="band 3">
        <r>  0.0000  0.0000  0.0000  0.0000  0.2867  0.1496  0.0502  0.3245  0.1786 </r>
        <r>  0.0001  0.0000  0.0000  0.0000  0.0000  0.0000  0.0000  0.0000  0.0000 </r>
        <r>  0.0001  0.0000  0.0000  0.0000  0.0000  0.0000  0.0000  0.0000  0.0000 </r>
       </set>
       <set comment="band 4">
        <r>  0.0000  0.0000  0.0000  0.0000  0.1561  0.1829  0.1328  0.0735  0.4462 </r>
        <r>  0.0000  0.0000  0.0000  0.0000  0.0000  0.0000  0.0000  0.0000  0.0000 </r>
        <r>  0.0000  0.0000  0.0000  0.0000  0.0000  0.0000  0.0000  0.0000  0.0000 </r>
       </set>
       <set comment="band 5">
        <r>  0.0000  0.0000  0.0000  0.0000  0.1444  0.0043  0.7945  0.0240  0.0247 </r>
        <r>  0.0000  0.0000  0.0000  0.0000  0.0000  0.0000  0.0000  0.0000  0.0000 </r>
        <r>  0.0000  0.0000  0.0000  0.0000  0.0000  0.0000  0.0000  0.0000  0.0000 </r>
       </set>
       <set comment="band 6">
        <r>  0.0260  0.0141  0.0006  0.0136  0.0015  0.0003  0.0000  0.0018  0.0003 </r>
        <r>  0.3303  0.0007  0.0025  0.0003  0.0000  0.0000  0.0000  0.0000  0.0000 </r>
        <r>  0.3303  0.0007  0.0025  0.0003  0.0000  0.0000  0.0000  0.0000  0.0000 </r>
       </set>
       <set comment="band 7">
        <r>  0.0070  0.0010  0.0036  0.0061  0.0030  0.0055  0.0000  0.0052  0.0031 </r>
        <r>  0.3606  0.0000  0.0010  0.0003  0.0000  0.0000  0.0000  0.0000  0.0000 </r>
        <r>  0.3606  0.0000  0.0010  0.0003  0.0000  0.0000  0.0000  0.0000  0.0000 </r>
       </set>
       <set comment="band 8">
        <r>  0.4932  0.0003  0.0000  0.0005  0.0002  0.0001  0.0003  0.0017  0.0000 </r>
        <r>  0.0270  0.0231  0.0043  0.0338  0.0005  0.0011  0.0000  0.0015  0.0005 </r>
        <r>  0.0270  0.0231  0.0043  0.0338  0.0005  0.0011  0.0000  0.0015  0.0005 </r>
       </set>
       <set comment="band 9">
        <r>  0.0000  0.0061  0.0714  0.0869  0.0006  0.0008  0.0002  0.0004  0.0020 </r>
        <r>  0.0085  0.0502  0.0269  0.0755  0.0000  0.0005  0.0005  0.0008  0.0002 </r>
        <r>  0.0085  0.0502  0.0269  0.0755  0.0000  0.0005  0.0005  0.0008  0.0002 </r>
       </set>
       <set comment="band 10">
        <r>  0.0066  0.1545  0.0047  0.0010  0.0017  0.0000  0.0011  0.0026  0.0016 </r>
        <r>  0.0079  0.0911  0.0499  0.0256  0.0003  0.0013  0.0004  0.0007  0.0004 </r>
        <r>  0.0079  0.0911  0.0499  0.0256  0.0003  0.0013  0.0004  0.0007  0.0004 </r>
       </set>
       <set comment="band 11">
        <r>  0.0012  0.0005  0.0895  0.0621  0.0001  0.0027  0.0003  0.0008  0.0008 </r>
        <r>  0.0103  0.0197  0.0680  0.0978  0.0007  0.0004  0.0001  0.0003  0.0007 </r>
        <r>  0.0103  0.0197  0.0680  0.0978  0.0007  0.0004  0.0001  0.0003  0.0007 </r>
       </set>
       <set comment="band 12">
        <r>  0.0071  0.0009  0.0053  0.0000  0.0040  0.0080  0.0018  0.0170  0.0004 </r>
        <r>  0.0005  0.1449  0.0769  0.0265  0.0003  0.0000  0.0001  0.0002  0.0001 </r>
        <r>  0.0005  0.1449  0.0769  0.0265  0.0003  0.0000  0.0001  0.0002  0.0001 </r>
       </set>
       <set comment="band 13">
        <r>  0.0016  0.0000  0.0003  0.0007  0.0031  0.0184  0.0008  0.0035  0.0061 </r>
        <r>  0.0011  0.0230  0.1840  0.0638  0.0000  0.0001  0.0000  0.0000  0.0001 </r>
        <r>  0.0011  0.0230  0.1840  0.0638  0.0000  0.0001  0.0000  0.0000  0.0001 </r>
       </set>
       <set comment="band 14">
        <r>  0.2277  0.0003  0.0000  0.0079  0.0062  0.0002  0.0016  0.0000  0.0002 </r>
        <r>  0.0016  0.0681  0.0281  0.0979  0.0015  0.0013  0.0001  0.0028  0.0005 </r>
        <r>  0.0016  0.0681  0.0281  0.0979  0.0015  0.0013  0.0001  0.0028  0.0005 </r>
       </set>
       <set comment="band 15">
        <r>  0.0035  0.0180  0.0013  0.2096  0.0002  0.0002  0.0001  0.0004  0.0005 </r>
        <r>  0.0177  0.0337  0.0390  0.0085  0.0030  0.0128  0.0013  0.0043  0.0001 </r>
        <r>  0.0177  0.0337  0.0390  0.0085  0.0030  0.0128  0.0013  0.0043  0.0001 </r>
       </set>
       <set comment="band 16">
        <r>  0.0000  0.1889  0.0669  0.0000  0.0000  0.0004  0.0000  0.0001  0.0002 </r>
        <r>  0.0178  0.0504  0.0368  0.0062  0.0055  0.0090  0.0011  0.0026  0.0036 </r>
        <r>  0.0178  0.0504  0.0368  0.0062  0.0055  0.0090  0.0011  0.0026  0.0036 </r>
       </set>
       <set comment="band 17">
        <r>  0.0000  0.0679  0.2371  0.0001  0.0026  0.0014  0.0011  0.0002  0.0003 </r>
        <r>  0.0033  0.0144  0.0107  0.0507  0.0084  0.0003  0.0037  0.0161  0.0026 </r>
        <r>  0.0033  0.0144  0.0107  0.0507  0.0084  0.0003  0.0037  0.0161  0.0026 </r>
       </set>
       <set comment="band 18">
        <r>  0.0001  0.0024  0.0081  0.0118  0.0324  0.0045  0.0325  0.0187  0.0112 </r>
        <r>  0.0003  0.0043  0.0138  0.0090  0.0177  0.0054  0.0114  0.0058  0.0079 </r>
        <r>  0.0003  0.0043  0.0138  0.0090  0.0177  0.0054  0.0114  0.0058  0.0079 </r>
       </set>
       <set comment="band 19">
        <r>  0.0023  0.0031  0.0034  0.0051  0.0030  0.0005  0.0003  0.0012  0.0017 </r>
        <r>  0.0023  0.0059  0.0043  0.0121  0.0004  0.0009  0.0028  0.0035  0.0029 </r>
        <r>  0.0023  0.0059  0.0043  0.0121  0.0004  0.0009  0.0028  0.0035  0.0029 </r>
       </set>
       <set comment="band 20">
        <r>  0.0003  0.0003  0.0005  0.0348  0.0006  0.0025  0.0029  0.0001  0.0012 </r>
        <r>  0.0007  0.0119  0.0200  0.0028  0.0010  0.0012  0.0000  0.0028  0.0013 </r>
        <r>  0.0007  0.0119  0.0200  0.0028  0.0010  0.0012  0.0000  0.0028  0.0013 </r>
       </set>
      </set>
      <set comment="kpoint 30">
       <set comment="band 1">
        <r>  0.0000  0.0000  0.0000  0.0000  0.3234  0.1526  0.0098  0.3607  0.1351 </r>
        <r>  0.0021  0.0000  0.0004  0.0001  0.0000  0.0000  0.0000  0.0000  0.0000 </r>
        <r>  0.0021  0.0000  0.0004  0.0001  0.0000  0.0000  0.0000  0.0000  0.0000 </r>
       </set>
       <set comment="band 2">
        <r>  0.0000  0.0000  0.0000  0.0000  0.0760  0.5280  0.0006  0.2121  0.1709 </r>
        <r>  0.0005  0.0003  0.0001  0.0001  0.0000  0.0001  0.0000  0.0000  0.0000 </r>
        <r>  0.0005  0.0003  0.0001  0.0001  0.0000  0.0001  0.0000  0.0000  0.0000 </r>
       </set>
       <set comment="band 3">
        <r>  0.0000  0.0000  0.0000  0.0000  0.3319  0.1237  0.0595  0.3381  0.1364 </r>
        <r>  0.0001  0.0000  0.0000  0.0000  0.0000  0.0000  0.0000  0.0000  0.0000 </r>
        <r>  0.0001  0.0000  0.0000  0.0000  0.0000  0.0000  0.0000  0.0000  0.0000 </r>
       </set>
       <set comment="band 4">
        <r>  0.0000  0.0000  0.0000  0.0000  0.1766  0.1830  0.0232  0.0617  0.5475 </r>
        <r>  0.0000  0.0000  0.0000  0.0000  0.0000  0.0000  0.0000  0.0000  0.0000 </r>
        <r>  0.0000  0.0000  0.0000  0.0000  0.0000  0.0000  0.0000  0.0000  0.0000 </r>
       </set>
       <set comment="band 5">
        <r>  0.0000  0.0000  0.0000  0.0000  0.0802  0.0000  0.8984  0.0131  0.0000 </r>
        <r>  0.0000  0.0000  0.0000  0.0000  0.0000  0.0000  0.0000  0.0000  0.0000 </r>
        <r>  0.0000  0.0000  0.0000  0.0000  0.0000  0.0000  0.0000  0.0000  0.0000 </r>
       </set>
       <set comment="band 6">
        <r>  0.0045  0.0111  0.0016  0.0200  0.0010  0.0010  0.0000  0.0013  0.0007 </r>
        <r>  0.3446  0.0003  0.0022  0.0001  0.0000  0.0000  0.0000  0.0000  0.0000 </r>
        <r>  0.3446  0.0003  0.0022  0.0001  0.0000  0.0000  0.0000  0.0000  0.0000 </r>
       </set>
       <set comment="band 7">
        <r>  0.0174  0.0029  0.0006  0.0042  0.0043  0.0040  0.0000  0.0071  0.0024 </r>
        <r>  0.3555  0.0001  0.0011  0.0005  0.0000  0.0000  0.0000  0.0001  0.0000 </r>
        <r>  0.3555  0.0001  0.0011  0.0005  0.0000  0.0000  0.0000  0.0001  0.0000 </r>
       </set>
       <set comment="band 8">
        <r>  0.5031  0.0001  0.0000  0.0001  0.0002  0.0003  0.0004  0.0016  0.0001 </r>
        <r>  0.0171  0.0204  0.0028  0.0388  0.0006  0.0010  0.0000  0.0017  0.0005 </r>
        <r>  0.0171  0.0204  0.0028  0.0388  0.0006  0.0010  0.0000  0.0017  0.0005 </r>
       </set>
       <set comment="band 9">
        <r>  0.0000  0.0162  0.0745  0.0761  0.0000  0.0012  0.0000  0.0004  0.0007 </r>
        <r>  0.0101  0.0367  0.0285  0.0850  0.0001  0.0004  0.0004  0.0009  0.0002 </r>
        <r>  0.0101  0.0367  0.0285  0.0850  0.0001  0.0004  0.0004  0.0009  0.0002 </r>
       </set>
       <set comment="band 10">
        <r>  0.0085  0.1353  0.0006  0.0198  0.0029  0.0004  0.0004  0.0032  0.0014 </r>
        <r>  0.0031  0.0985  0.0296  0.0412  0.0004  0.0016  0.0003  0.0007  0.0002 </r>
        <r>  0.0031  0.0985  0.0296  0.0412  0.0004  0.0016  0.0003  0.0007  0.0002 </r>
       </set>
       <set comment="band 11">
        <r>  0.0002  0.0062  0.0947  0.0586  0.0000  0.0022  0.0000  0.0000  0.0003 </r>
        <r>  0.0149  0.0386  0.0837  0.0569  0.0009  0.0004  0.0001  0.0002  0.0005 </r>
        <r>  0.0149  0.0386  0.0837  0.0569  0.0009  0.0004  0.0001  0.0002  0.0005 </r>
       </set>
       <set comment="band 12">
        <r>  0.0024  0.0014  0.0031  0.0007  0.0031  0.0129  0.0006  0.0142  0.0011 </r>
        <r>  0.0003  0.1449  0.0800  0.0308  0.0003  0.0000  0.0001  0.0001  0.0001 </r>
        <r>  0.0003  0.1449  0.0800  0.0308  0.0003  0.0000  0.0001  0.0001  0.0001 </r>
       </set>
       <set comment="band 13">
        <r>  0.0066  0.0003  0.0000  0.0012  0.0047  0.0135  0.0021  0.0071  0.0046 </r>
        <r>  0.0016  0.0128  0.1851  0.0649  0.0000  0.0001  0.0001  0.0001  0.0001 </r>
        <r>  0.0016  0.0128  0.1851  0.0649  0.0000  0.0001  0.0001  0.0001  0.0001 </r>
       </set>
       <set comment="band 14">
        <r>  0.2280  0.0022  0.0000  0.0030  0.0058  0.0000  0.0021  0.0000  0.0011 </r>
        <r>  0.0017  0.0727  0.0283  0.0900  0.0015  0.0012  0.0001  0.0031  0.0005 </r>
        <r>  0.0017  0.0727  0.0283  0.0900  0.0015  0.0012  0.0001  0.0031  0.0005 </r>
       </set>
       <set comment="band 15">
        <r>  0.0009  0.0004  0.0147  0.1776  0.0000  0.0000  0.0001  0.0002  0.0004 </r>
        <r>  0.0237  0.0299  0.0649  0.0096  0.0053  0.0069  0.0016  0.0033  0.0010 </r>
        <r>  0.0237  0.0299  0.0649  0.0096  0.0053  0.0069  0.0016  0.0033  0.0010 </r>
       </set>
       <set comment="band 16">
        <r>  0.0014  0.2457  0.0187  0.0220  0.0000  0.0005  0.0004  0.0002  0.0001 </r>
        <r>  0.0115  0.0471  0.0223  0.0104  0.0018  0.0145  0.0008  0.0059  0.0019 </r>
        <r>  0.0115  0.0471  0.0223  0.0104  0.0018  0.0145  0.0008  0.0059  0.0019 </r>
       </set>
       <set comment="band 17">
        <r>  0.0000  0.0234  0.2741  0.0037  0.0007  0.0022  0.0002  0.0008  0.0000 </r>
        <r>  0.0008  0.0219  0.0046  0.0424  0.0102  0.0018  0.0030  0.0156  0.0033 </r>
        <r>  0.0008  0.0219  0.0046  0.0424  0.0102  0.0018  0.0030  0.0156  0.0033 </r>
       </set>
       <set comment="band 18">
        <r>  0.0004  0.0065  0.0011  0.0056  0.0338  0.0053  0.0349  0.0187  0.0113 </r>
        <r>  0.0007  0.0058  0.0087  0.0047  0.0181  0.0048  0.0113  0.0078  0.0066 </r>
        <r>  0.0007  0.0058  0.0087  0.0047  0.0181  0.0048  0.0113  0.0078  0.0066 </r>
       </set>
       <set comment="band 19">
        <r>  0.0030  0.0003  0.0043  0.0059  0.0043  0.0002  0.0004  0.0004  0.0008 </r>
        <r>  0.0022  0.0070  0.0008  0.0207  0.0003  0.0007  0.0054  0.0033  0.0033 </r>
        <r>  0.0022  0.0070  0.0008  0.0207  0.0003  0.0007  0.0054  0.0033  0.0033 </r>
       </set>
       <set comment="band 20">
        <r>  0.0025  0.0006  0.0000  0.0280  0.0016  0.0031  0.0008  0.0001  0.0001 </r>
        <r>  0.0001  0.0161  0.0184  0.0111  0.0035  0.0055  0.0013  0.0018  0.0002 </r>
        <r>  0.0001  0.0160  0.0184  0.0111  0.0035  0.0055  0.0013  0.0018  0.0002 </r>
       </set>
      </set>
      <set comment="kpoint 31">
       <set comment="band 1">
        <r>  0.0000  0.0000  0.0000  0.0000  0.1213  0.3731  0.0000  0.1244  0.3640 </r>
        <r>  0.0018  0.0000  0.0004  0.0001  0.0000  0.0000  0.0000  0.0000  0.0000 </r>
        <r>  0.0018  0.0000  0.0004  0.0001  0.0000  0.0000  0.0000  0.0000  0.0000 </r>
       </set>
       <set comment="band 2">
        <r>  0.0000  0.0000  0.0000  0.0000  0.2576  0.1557  0.0211  0.4672  0.0859 </r>
        <r>  0.0004  0.0002  0.0001  0.0002  0.0000  0.0000  0.0000  0.0001  0.0000 </r>
        <r>  0.0004  0.0002  0.0001  0.0002  0.0000  0.0000  0.0000  0.0001  0.0000 </r>
       </set>
       <set comment="band 3">
        <r>  0.0000  0.0000  0.0000  0.0000  0.1255  0.3659  0.0000  0.1220  0.3765 </r>
        <r>  0.0000  0.0000  0.0000  0.0000  0.0000  0.0000  0.0000  0.0000  0.0000 </r>
        <r>  0.0000  0.0000  0.0000  0.0000  0.0000  0.0000  0.0000  0.0000  0.0000 </r>
       </set>
       <set comment="band 4">
        <r>  0.0000  0.0000  0.0000  0.0000  0.3036  0.0803  0.2649  0.2409  0.1012 </r>
        <r>  0.0000  0.0000  0.0000  0.0000  0.0000  0.0000  0.0000  0.0000  0.0000 </r>
        <r>  0.0000  0.0000  0.0000  0.0000  0.0000  0.0000  0.0000  0.0000  0.0000 </r>
       </set>
       <set comment="band 5">
        <r>  0.0000  0.0000  0.0000  0.0000  0.1818  0.0111  0.7051  0.0332  0.0606 </r>
        <r>  0.0000  0.0000  0.0000  0.0000  0.0000  0.0000  0.0000  0.0000  0.0000 </r>
        <r>  0.0000  0.0000  0.0000  0.0000  0.0000  0.0000  0.0000  0.0000  0.0000 </r>
       </set>
       <set comment="band 6">
        <r>  0.0516  0.0178  0.0000  0.0059  0.0011  0.0004  0.0000  0.0012  0.0004 </r>
        <r>  0.3126  0.0011  0.0030  0.0004  0.0000  0.0001  0.0000  0.0000  0.0000 </r>
        <r>  0.3126  0.0011  0.0030  0.0004  0.0000  0.0001  0.0000  0.0000  0.0000 </r>
       </set>
       <set comment="band 7">
        <r>  0.0000  0.0014  0.0082  0.0041  0.0013  0.0075  0.0000  0.0025  0.0039 </r>
        <r>  0.3624  0.0001  0.0008  0.0001  0.0000  0.0000  0.0000  0.0000  0.0000 </r>
        <r>  0.3624  0.0001  0.0008  0.0001  0.0000  0.0000  0.0000  0.0000  0.0000 </r>
       </set>
       <set comment="band 8">
        <r>  0.4791  0.0010  0.0000  0.0003  0.0001  0.0003  0.0001  0.0008  0.0000 </r>
        <r>  0.0450  0.0336  0.0080  0.0175  0.0003  0.0016  0.0000  0.0009  0.0007 </r>
        <r>  0.0450  0.0336  0.0080  0.0175  0.0003  0.0016  0.0000  0.0009  0.0007 </r>
       </set>
       <set comment="band 9">
        <r>  0.0000  0.0212  0.0715  0.0636  0.0021  0.0001  0.0000  0.0000  0.0064 </r>
        <r>  0.0005  0.1136  0.0095  0.0398  0.0000  0.0011  0.0006  0.0005  0.0001 </r>
        <r>  0.0005  0.1136  0.0095  0.0398  0.0000  0.0011  0.0006  0.0005  0.0001 </r>
       </set>
       <set comment="band 10">
        <r>  0.0046  0.1232  0.0000  0.0411  0.0000  0.0005  0.0033  0.0015  0.0000 </r>
        <r>  0.0163  0.0168  0.0906  0.0505  0.0002  0.0003  0.0005  0.0010  0.0007 </r>
        <r>  0.0163  0.0168  0.0906  0.0505  0.0002  0.0003  0.0005  0.0010  0.0007 </r>
       </set>
       <set comment="band 11">
        <r>  0.0000  0.0142  0.0964  0.0426  0.0004  0.0041  0.0000  0.0014  0.0011 </r>
        <r>  0.0070  0.0434  0.0422  0.1086  0.0006  0.0002  0.0000  0.0007  0.0012 </r>
        <r>  0.0070  0.0434  0.0422  0.1086  0.0006  0.0002  0.0000  0.0007  0.0012 </r>
       </set>
       <set comment="band 12">
        <r>  0.0094  0.0000  0.0000  0.0000  0.0031  0.0060  0.0023  0.0179  0.0010 </r>
        <r>  0.0000  0.0983  0.0617  0.0818  0.0001  0.0001  0.0002  0.0002  0.0002 </r>
        <r>  0.0000  0.0983  0.0617  0.0818  0.0001  0.0001  0.0002  0.0002  0.0002 </r>
       </set>
       <set comment="band 13">
        <r>  0.0000  0.0000  0.0019  0.0001  0.0022  0.0157  0.0000  0.0052  0.0066 </r>
        <r>  0.0008  0.0225  0.1976  0.0551  0.0000  0.0000  0.0000  0.0000  0.0001 </r>
        <r>  0.0008  0.0225  0.1976  0.0551  0.0000  0.0000  0.0000  0.0000  0.0001 </r>
       </set>
       <set comment="band 14">
        <r>  0.2301  0.0042  0.0000  0.0014  0.0037  0.0000  0.0010  0.0001  0.0012 </r>
        <r>  0.0004  0.0874  0.0309  0.0949  0.0004  0.0024  0.0000  0.0013  0.0010 </r>
        <r>  0.0004  0.0874  0.0309  0.0949  0.0004  0.0024  0.0000  0.0013  0.0010 </r>
       </set>
       <set comment="band 15">
        <r>  0.0000  0.0711  0.0009  0.2132  0.0001  0.0001  0.0000  0.0000  0.0004 </r>
        <r>  0.0131  0.0167  0.0093  0.0224  0.0019  0.0135  0.0005  0.0082  0.0007 </r>
        <r>  0.0131  0.0167  0.0093  0.0224  0.0019  0.0135  0.0005  0.0082  0.0007 </r>
       </set>
       <set comment="band 16">
        <r>  0.0030  0.1529  0.0000  0.0510  0.0000  0.0001  0.0002  0.0003  0.0000 </r>
        <r>  0.0280  0.0195  0.0671  0.0283  0.0010  0.0020  0.0035  0.0054  0.0012 </r>
        <r>  0.0280  0.0195  0.0671  0.0283  0.0010  0.0020  0.0035  0.0054  0.0012 </r>
       </set>
       <set comment="band 17">
        <r>  0.0000  0.0018  0.3296  0.0054  0.0002  0.0001  0.0000  0.0000  0.0007 </r>
        <r>  0.0061  0.0493  0.0082  0.0449  0.0060  0.0043  0.0033  0.0022  0.0097 </r>
        <r>  0.0061  0.0493  0.0082  0.0449  0.0060  0.0043  0.0033  0.0022  0.0097 </r>
       </set>
       <set comment="band 18">
        <r>  0.0000  0.0176  0.0049  0.0528  0.0147  0.0116  0.0000  0.0039  0.0442 </r>
        <r>  0.0002  0.0036  0.0002  0.0100  0.0109  0.0006  0.0120  0.0010  0.0194 </r>
        <r>  0.0002  0.0036  0.0002  0.0100  0.0109  0.0006  0.0120  0.0010  0.0194 </r>
       </set>
       <set comment="band 19">
        <r>  0.0017  0.0008  0.0000  0.0003  0.0045  0.0016  0.0171  0.0049  0.0015 </r>
        <r>  0.0009  0.0056  0.0242  0.0073  0.0032  0.0082  0.0007  0.0031  0.0076 </r>
        <r>  0.0009  0.0056  0.0242  0.0073  0.0032  0.0082  0.0007  0.0031  0.0076 </r>
       </set>
       <set comment="band 20">
        <r>  0.0006  0.0187  0.0000  0.0062  0.0188  0.0001  0.0437  0.0002  0.0063 </r>
        <r>  0.0001  0.0005  0.0009  0.0014  0.0049  0.0053  0.0049  0.0113  0.0123 </r>
        <r>  0.0001  0.0005  0.0009  0.0014  0.0049  0.0053  0.0049  0.0113  0.0123 </r>
       </set>
      </set>
      <set comment="kpoint 32">
       <set comment="band 1">
        <r>  0.0000  0.0000  0.0000  0.0000  0.1776  0.3244  0.0013  0.2075  0.2717 </r>
        <r>  0.0019  0.0000  0.0004  0.0001  0.0000  0.0000  0.0000  0.0000  0.0000 </r>
        <r>  0.0019  0.0000  0.0004  0.0001  0.0000  0.0000  0.0000  0.0000  0.0000 </r>
       </set>
       <set comment="band 2">
        <r>  0.0000  0.0000  0.0000  0.0000  0.1892  0.2710  0.0112  0.3987  0.1170 </r>
        <r>  0.0006  0.0002  0.0001  0.0001  0.0000  0.0001  0.0000  0.0000  0.0000 </r>
        <r>  0.0006  0.0002  0.0001  0.0001  0.0000  0.0001  0.0000  0.0000  0.0000 </r>
       </set>
       <set comment="band 3">
        <r>  0.0000  0.0000  0.0000  0.0000  0.2195  0.2478  0.0120  0.2040  0.3067 </r>
        <r>  0.0000  0.0000  0.0000  0.0000  0.0000  0.0000  0.0000  0.0000  0.0000 </r>
        <r>  0.0000  0.0000  0.0000  0.0000  0.0000  0.0000  0.0000  0.0000  0.0000 </r>
       </set>
       <set comment="band 4">
        <r>  0.0000  0.0000  0.0000  0.0000  0.2560  0.1360  0.1951  0.1521  0.2520 </r>
        <r>  0.0000  0.0000  0.0000  0.0000  0.0000  0.0000  0.0000  0.0000  0.0000 </r>
        <r>  0.0000  0.0000  0.0000  0.0000  0.0000  0.0000  0.0000  0.0000  0.0000 </r>
       </set>
       <set comment="band 5">
        <r>  0.0000  0.0000  0.0000  0.0000  0.1470  0.0071  0.7717  0.0247  0.0413 </r>
        <r>  0.0000  0.0000  0.0000  0.0000  0.0000  0.0000  0.0000  0.0000  0.0000 </r>
        <r>  0.0000  0.0000  0.0000  0.0000  0.0000  0.0000  0.0000  0.0000  0.0000 </r>
       </set>
       <set comment="band 6">
        <r>  0.0314  0.0176  0.0001  0.0086  0.0017  0.0006  0.0000  0.0020  0.0004 </r>
        <r>  0.3275  0.0009  0.0026  0.0003  0.0000  0.0001  0.0000  0.0000  0.0000 </r>
        <r>  0.3275  0.0009  0.0026  0.0003  0.0000  0.0001  0.0000  0.0000  0.0000 </r>
       </set>
       <set comment="band 7">
        <r>  0.0008  0.0018  0.0044  0.0067  0.0019  0.0069  0.0000  0.0034  0.0038 </r>
        <r>  0.3636  0.0000  0.0009  0.0001  0.0000  0.0000  0.0000  0.0000  0.0000 </r>
        <r>  0.3636  0.0000  0.0009  0.0001  0.0000  0.0000  0.0000  0.0000  0.0000 </r>
       </set>
       <set comment="band 8">
        <r>  0.5007  0.0006  0.0000  0.0003  0.0001  0.0000  0.0003  0.0010  0.0000 </r>
        <r>  0.0276  0.0307  0.0040  0.0252  0.0005  0.0014  0.0000  0.0012  0.0007 </r>
        <r>  0.0276  0.0307  0.0040  0.0252  0.0005  0.0014  0.0000  0.0012  0.0007 </r>
       </set>
       <set comment="band 9">
        <r>  0.0000  0.0018  0.0697  0.0890  0.0013  0.0010  0.0001  0.0000  0.0041 </r>
        <r>  0.0024  0.0837  0.0172  0.0578  0.0001  0.0009  0.0005  0.0007  0.0002 </r>
        <r>  0.0024  0.0837  0.0172  0.0578  0.0001  0.0009  0.0005  0.0007  0.0002 </r>
       </set>
       <set comment="band 10">
        <r>  0.0043  0.1489  0.0018  0.0097  0.0007  0.0003  0.0015  0.0034  0.0003 </r>
        <r>  0.0166  0.0492  0.0721  0.0354  0.0002  0.0007  0.0004  0.0008  0.0005 </r>
        <r>  0.0166  0.0492  0.0721  0.0354  0.0002  0.0007  0.0004  0.0008  0.0005 </r>
       </set>
       <set comment="band 11">
        <r>  0.0002  0.0068  0.1019  0.0494  0.0002  0.0039  0.0000  0.0012  0.0011 </r>
        <r>  0.0072  0.0362  0.0376  0.1110  0.0007  0.0003  0.0000  0.0006  0.0011 </r>
        <r>  0.0072  0.0362  0.0376  0.1110  0.0007  0.0003  0.0000  0.0006  0.0011 </r>
       </set>
       <set comment="band 12">
        <r>  0.0080  0.0017  0.0008  0.0002  0.0033  0.0067  0.0020  0.0165  0.0008 </r>
        <r>  0.0002  0.1072  0.0881  0.0484  0.0001  0.0001  0.0002  0.0001  0.0001 </r>
        <r>  0.0002  0.1072  0.0881  0.0484  0.0001  0.0001  0.0002  0.0001  0.0001 </r>
       </set>
       <set comment="band 13">
        <r>  0.0002  0.0001  0.0008  0.0008  0.0026  0.0165  0.0001  0.0049  0.0065 </r>
        <r>  0.0013  0.0229  0.1965  0.0535  0.0000  0.0000  0.0000  0.0000  0.0001 </r>
        <r>  0.0013  0.0229  0.1965  0.0535  0.0000  0.0000  0.0000  0.0000  0.0001 </r>
       </set>
       <set comment="band 14">
        <r>  0.2302  0.0006  0.0000  0.0028  0.0035  0.0001  0.0025  0.0001  0.0002 </r>
        <r>  0.0004  0.0828  0.0227  0.1012  0.0006  0.0022  0.0000  0.0023  0.0005 </r>
        <r>  0.0004  0.0828  0.0227  0.1012  0.0006  0.0022  0.0000  0.0023  0.0005 </r>
       </set>
       <set comment="band 15">
        <r>  0.0006  0.0631  0.0034  0.2000  0.0001  0.0006  0.0000  0.0002  0.0002 </r>
        <r>  0.0125  0.0241  0.0195  0.0127  0.0012  0.0157  0.0011  0.0069  0.0004 </r>
        <r>  0.0125  0.0241  0.0195  0.0127  0.0012  0.0157  0.0011  0.0069  0.0004 </r>
       </set>
       <set comment="band 16">
        <r>  0.0010  0.1675  0.0063  0.0370  0.0000  0.0000  0.0000  0.0000  0.0001 </r>
        <r>  0.0236  0.0272  0.0718  0.0186  0.0017  0.0037  0.0035  0.0066  0.0006 </r>
        <r>  0.0236  0.0272  0.0718  0.0186  0.0017  0.0037  0.0035  0.0066  0.0006 </r>
       </set>
       <set comment="band 17">
        <r>  0.0000  0.0134  0.3277  0.0026  0.0005  0.0004  0.0001  0.0002  0.0000 </r>
        <r>  0.0045  0.0395  0.0071  0.0554  0.0084  0.0023  0.0017  0.0066  0.0079 </r>
        <r>  0.0045  0.0395  0.0071  0.0554  0.0084  0.0023  0.0017  0.0066  0.0079 </r>
       </set>
       <set comment="band 18">
        <r>  0.0014  0.0138  0.0014  0.0171  0.0334  0.0033  0.0268  0.0114  0.0126 </r>
        <r>  0.0007  0.0100  0.0056  0.0062  0.0194  0.0064  0.0097  0.0042  0.0091 </r>
        <r>  0.0007  0.0100  0.0056  0.0062  0.0194  0.0064  0.0097  0.0042  0.0091 </r>
       </set>
       <set comment="band 19">
        <r>  0.0035  0.0067  0.0006  0.0180  0.0023  0.0048  0.0030  0.0010  0.0153 </r>
        <r>  0.0018  0.0030  0.0068  0.0159  0.0005  0.0024  0.0033  0.0048  0.0115 </r>
        <r>  0.0018  0.0030  0.0068  0.0159  0.0005  0.0024  0.0033  0.0048  0.0115 </r>
       </set>
       <set comment="band 20">
        <r>  0.0003  0.0009  0.0009  0.0352  0.0045  0.0000  0.0240  0.0013  0.0215 </r>
        <r>  0.0001  0.0018  0.0049  0.0044  0.0011  0.0037  0.0043  0.0091  0.0163 </r>
        <r>  0.0001  0.0018  0.0049  0.0044  0.0011  0.0037  0.0043  0.0091  0.0163 </r>
       </set>
      </set>
      <set comment="kpoint 33">
       <set comment="band 1">
        <r>  0.0000  0.0000  0.0000  0.0000  0.2440  0.2393  0.0038  0.3117  0.1835 </r>
        <r>  0.0019  0.0000  0.0004  0.0001  0.0000  0.0000  0.0000  0.0000  0.0000 </r>
        <r>  0.0019  0.0000  0.0004  0.0001  0.0000  0.0000  0.0000  0.0000  0.0000 </r>
       </set>
       <set comment="band 2">
        <r>  0.0000  0.0000  0.0000  0.0000  0.1252  0.4047  0.0031  0.2953  0.1583 </r>
        <r>  0.0007  0.0002  0.0001  0.0001  0.0000  0.0001  0.0000  0.0000  0.0000 </r>
        <r>  0.0007  0.0002  0.0001  0.0001  0.0000  0.0001  0.0000  0.0000  0.0000 </r>
       </set>
       <set comment="band 3">
        <r>  0.0000  0.0000  0.0000  0.0000  0.3144  0.1621  0.0329  0.2669  0.2136 </r>
        <r>  0.0000  0.0000  0.0000  0.0000  0.0000  0.0000  0.0000  0.0000  0.0000 </r>
        <r>  0.0000  0.0000  0.0000  0.0000  0.0000  0.0000  0.0000  0.0000  0.0000 </r>
       </set>
       <set comment="band 4">
        <r>  0.0000  0.0000  0.0000  0.0000  0.2149  0.1787  0.0765  0.0971  0.4242 </r>
        <r>  0.0000  0.0000  0.0000  0.0000  0.0000  0.0000  0.0000  0.0000  0.0000 </r>
        <r>  0.0000  0.0000  0.0000  0.0000  0.0000  0.0000  0.0000  0.0000  0.0000 </r>
       </set>
       <set comment="band 5">
        <r>  0.0000  0.0000  0.0000  0.0000  0.0903  0.0017  0.8750  0.0151  0.0097 </r>
        <r>  0.0000  0.0000  0.0000  0.0000  0.0000  0.0000  0.0000  0.0000  0.0000 </r>
        <r>  0.0000  0.0000  0.0000  0.0000  0.0000  0.0000  0.0000  0.0000  0.0000 </r>
       </set>
       <set comment="band 6">
        <r>  0.0120  0.0150  0.0005  0.0127  0.0018  0.0011  0.0000  0.0024  0.0008 </r>
        <r>  0.3422  0.0005  0.0022  0.0002  0.0000  0.0000  0.0000  0.0000  0.0000 </r>
        <r>  0.3422  0.0005  0.0022  0.0002  0.0000  0.0000  0.0000  0.0000  0.0000 </r>
       </set>
       <set comment="band 7">
        <r>  0.0050  0.0032  0.0015  0.0078  0.0028  0.0056  0.0000  0.0046  0.0033 </r>
        <r>  0.3613  0.0000  0.0011  0.0003  0.0000  0.0000  0.0000  0.0000  0.0000 </r>
        <r>  0.3613  0.0000  0.0011  0.0003  0.0000  0.0000  0.0000  0.0000  0.0000 </r>
       </set>
       <set comment="band 8">
        <r>  0.5167  0.0002  0.0000  0.0001  0.0001  0.0000  0.0004  0.0010  0.0000 </r>
        <r>  0.0141  0.0266  0.0020  0.0321  0.0006  0.0013  0.0000  0.0015  0.0006 </r>
        <r>  0.0141  0.0266  0.0020  0.0321  0.0006  0.0013  0.0000  0.0015  0.0006 </r>
       </set>
       <set comment="band 9">
        <r>  0.0000  0.0034  0.0664  0.0930  0.0002  0.0021  0.0000  0.0002  0.0020 </r>
        <r>  0.0079  0.0547  0.0273  0.0720  0.0001  0.0006  0.0004  0.0008  0.0003 </r>
        <r>  0.0079  0.0547  0.0273  0.0720  0.0001  0.0006  0.0004  0.0008  0.0003 </r>
       </set>
       <set comment="band 10">
        <r>  0.0047  0.1502  0.0017  0.0013  0.0023  0.0000  0.0005  0.0051  0.0009 </r>
        <r>  0.0102  0.0754  0.0473  0.0378  0.0003  0.0011  0.0004  0.0007  0.0002 </r>
        <r>  0.0102  0.0754  0.0473  0.0378  0.0003  0.0011  0.0004  0.0007  0.0002 </r>
       </set>
       <set comment="band 11">
        <r>  0.0002  0.0000  0.1092  0.0549  0.0001  0.0037  0.0000  0.0001  0.0007 </r>
        <r>  0.0095  0.0485  0.0438  0.0848  0.0009  0.0004  0.0001  0.0004  0.0009 </r>
        <r>  0.0095  0.0485  0.0438  0.0848  0.0009  0.0004  0.0001  0.0004  0.0009 </r>
       </set>
       <set comment="band 12">
        <r>  0.0042  0.0035  0.0009  0.0014  0.0034  0.0087  0.0010  0.0147  0.0012 </r>
        <r>  0.0007  0.1056  0.1086  0.0350  0.0002  0.0000  0.0002  0.0001  0.0001 </r>
        <r>  0.0007  0.1056  0.1086  0.0350  0.0002  0.0000  0.0002  0.0001  0.0001 </r>
       </set>
       <set comment="band 13">
        <r>  0.0021  0.0007  0.0001  0.0025  0.0034  0.0148  0.0006  0.0063  0.0055 </r>
        <r>  0.0017  0.0200  0.1894  0.0575  0.0000  0.0000  0.0001  0.0001  0.0001 </r>
        <r>  0.0017  0.0200  0.1894  0.0575  0.0000  0.0000  0.0001  0.0001  0.0001 </r>
       </set>
       <set comment="band 14">
        <r>  0.2308  0.0001  0.0000  0.0020  0.0031  0.0000  0.0038  0.0001  0.0001 </r>
        <r>  0.0006  0.0845  0.0174  0.0978  0.0006  0.0020  0.0000  0.0030  0.0003 </r>
        <r>  0.0006  0.0845  0.0174  0.0978  0.0006  0.0020  0.0000  0.0030  0.0003 </r>
       </set>
       <set comment="band 15">
        <r>  0.0009  0.0695  0.0025  0.1836  0.0000  0.0012  0.0001  0.0005  0.0001 </r>
        <r>  0.0126  0.0286  0.0315  0.0092  0.0009  0.0168  0.0016  0.0055  0.0002 </r>
        <r>  0.0126  0.0286  0.0315  0.0092  0.0009  0.0168  0.0016  0.0055  0.0002 </r>
       </set>
       <set comment="band 16">
        <r>  0.0000  0.1735  0.0025  0.0349  0.0000  0.0000  0.0000  0.0005  0.0002 </r>
        <r>  0.0204  0.0234  0.0708  0.0176  0.0013  0.0038  0.0033  0.0097  0.0006 </r>
        <r>  0.0204  0.0234  0.0708  0.0176  0.0013  0.0038  0.0033  0.0097  0.0006 </r>
       </set>
       <set comment="band 17">
        <r>  0.0000  0.0064  0.3290  0.0013  0.0005  0.0010  0.0001  0.0006  0.0001 </r>
        <r>  0.0029  0.0432  0.0028  0.0478  0.0111  0.0024  0.0010  0.0091  0.0059 </r>
        <r>  0.0029  0.0432  0.0028  0.0478  0.0111  0.0024  0.0010  0.0091  0.0059 </r>
       </set>
       <set comment="band 18">
        <r>  0.0023  0.0134  0.0006  0.0087  0.0338  0.0033  0.0336  0.0126  0.0104 </r>
        <r>  0.0009  0.0117  0.0044  0.0057  0.0200  0.0062  0.0097  0.0062  0.0080 </r>
        <r>  0.0009  0.0117  0.0044  0.0057  0.0200  0.0062  0.0097  0.0062  0.0080 </r>
       </set>
       <set comment="band 19">
        <r>  0.0044  0.0022  0.0027  0.0085  0.0063  0.0019  0.0000  0.0013  0.0042 </r>
        <r>  0.0024  0.0056  0.0019  0.0223  0.0002  0.0016  0.0036  0.0042  0.0069 </r>
        <r>  0.0024  0.0056  0.0019  0.0223  0.0002  0.0016  0.0036  0.0042  0.0069 </r>
       </set>
       <set comment="band 20">
        <r>  0.0001  0.0000  0.0041  0.0416  0.0012  0.0024  0.0070  0.0016  0.0160 </r>
        <r>  0.0002  0.0064  0.0114  0.0032  0.0032  0.0082  0.0012  0.0082  0.0107 </r>
        <r>  0.0002  0.0064  0.0114  0.0032  0.0032  0.0082  0.0012  0.0082  0.0107 </r>
       </set>
      </set>
      <set comment="kpoint 34">
       <set comment="band 1">
        <r>  0.0000  0.0000  0.0000  0.0000  0.3152  0.1392  0.0051  0.4177  0.1051 </r>
        <r>  0.0019  0.0001  0.0004  0.0001  0.0000  0.0000  0.0000  0.0000  0.0000 </r>
        <r>  0.0019  0.0001  0.0004  0.0001  0.0000  0.0000  0.0000  0.0000  0.0000 </r>
       </set>
       <set comment="band 2">
        <r>  0.0000  0.0000  0.0000  0.0000  0.0690  0.5329  0.0000  0.1776  0.2070 </r>
        <r>  0.0008  0.0002  0.0001  0.0001  0.0000  0.0001  0.0000  0.0000  0.0000 </r>
        <r>  0.0008  0.0002  0.0001  0.0001  0.0000  0.0001  0.0000  0.0000  0.0000 </r>
       </set>
       <set comment="band 3">
        <r>  0.0000  0.0000  0.0000  0.0000  0.3951  0.1053  0.0419  0.3159  0.1317 </r>
        <r>  0.0000  0.0000  0.0000  0.0000  0.0000  0.0000  0.0000  0.0000  0.0000 </r>
        <r>  0.0000  0.0000  0.0000  0.0000  0.0000  0.0000  0.0000  0.0000  0.0000 </r>
       </set>
       <set comment="band 4">
        <r>  0.0000  0.0000  0.0000  0.0000  0.1786  0.2078  0.0000  0.0693  0.5360 </r>
        <r>  0.0000  0.0000  0.0000  0.0000  0.0000  0.0000  0.0000  0.0000  0.0000 </r>
        <r>  0.0000  0.0000  0.0000  0.0000  0.0000  0.0000  0.0000  0.0000  0.0000 </r>
       </set>
       <set comment="band 5">
        <r>  0.0000  0.0000  0.0000  0.0000  0.0303  0.0017  0.9445  0.0050  0.0101 </r>
        <r>  0.0000  0.0000  0.0000  0.0000  0.0000  0.0000  0.0000  0.0000  0.0000 </r>
        <r>  0.0000  0.0000  0.0000  0.0000  0.0000  0.0000  0.0000  0.0000  0.0000 </r>
       </set>
       <set comment="band 6">
        <r>  0.0000  0.0073  0.0010  0.0218  0.0007  0.0028  0.0000  0.0009  0.0020 </r>
        <r>  0.3506  0.0002  0.0020  0.0002  0.0000  0.0000  0.0000  0.0000  0.0000 </r>
        <r>  0.3506  0.0002  0.0020  0.0002  0.0000  0.0000  0.0000  0.0000  0.0000 </r>
       </set>
       <set comment="band 7">
        <r>  0.0111  0.0085  0.0000  0.0028  0.0047  0.0025  0.0000  0.0076  0.0016 </r>
        <r>  0.3577  0.0001  0.0012  0.0004  0.0000  0.0000  0.0000  0.0000  0.0000 </r>
        <r>  0.3577  0.0001  0.0012  0.0004  0.0000  0.0000  0.0000  0.0000  0.0000 </r>
       </set>
       <set comment="band 8">
        <r>  0.5228  0.0000  0.0000  0.0000  0.0001  0.0002  0.0005  0.0007  0.0000 </r>
        <r>  0.0090  0.0222  0.0014  0.0375  0.0008  0.0011  0.0000  0.0017  0.0006 </r>
        <r>  0.0090  0.0222  0.0014  0.0375  0.0008  0.0011  0.0000  0.0017  0.0006 </r>
       </set>
       <set comment="band 9">
        <r>  0.0000  0.0247  0.0650  0.0740  0.0002  0.0022  0.0000  0.0007  0.0007 </r>
        <r>  0.0110  0.0303  0.0320  0.0897  0.0001  0.0004  0.0003  0.0009  0.0003 </r>
        <r>  0.0110  0.0303  0.0320  0.0897  0.0001  0.0004  0.0003  0.0009  0.0003 </r>
       </set>
       <set comment="band 10">
        <r>  0.0051  0.1117  0.0000  0.0372  0.0033  0.0014  0.0002  0.0042  0.0011 </r>
        <r>  0.0053  0.0809  0.0340  0.0484  0.0003  0.0014  0.0004  0.0007  0.0001 </r>
        <r>  0.0053  0.0809  0.0340  0.0484  0.0003  0.0014  0.0004  0.0007  0.0001 </r>
       </set>
       <set comment="band 11">
        <r>  0.0000  0.0135  0.1137  0.0405  0.0001  0.0022  0.0000  0.0007  0.0002 </r>
        <r>  0.0118  0.0801  0.0496  0.0437  0.0011  0.0006  0.0001  0.0002  0.0006 </r>
        <r>  0.0118  0.0801  0.0496  0.0437  0.0011  0.0006  0.0001  0.0002  0.0006 </r>
       </set>
       <set comment="band 12">
        <r>  0.0000  0.0016  0.0007  0.0049  0.0012  0.0182  0.0000  0.0061  0.0035 </r>
        <r>  0.0008  0.0903  0.1141  0.0502  0.0002  0.0000  0.0001  0.0000  0.0001 </r>
        <r>  0.0008  0.0903  0.1141  0.0502  0.0002  0.0000  0.0001  0.0000  0.0001 </r>
       </set>
       <set comment="band 13">
        <r>  0.0054  0.0031  0.0000  0.0010  0.0067  0.0050  0.0014  0.0151  0.0022 </r>
        <r>  0.0020  0.0285  0.1878  0.0448  0.0000  0.0000  0.0001  0.0001  0.0000 </r>
        <r>  0.0020  0.0285  0.1878  0.0447  0.0000  0.0000  0.0001  0.0001  0.0000 </r>
       </set>
       <set comment="band 14">
        <r>  0.2312  0.0010  0.0000  0.0003  0.0023  0.0000  0.0043  0.0001  0.0008 </r>
        <r>  0.0006  0.0905  0.0158  0.0909  0.0007  0.0017  0.0000  0.0033  0.0002 </r>
        <r>  0.0006  0.0905  0.0158  0.0909  0.0007  0.0017  0.0000  0.0033  0.0002 </r>
       </set>
       <set comment="band 15">
        <r>  0.0008  0.2043  0.0000  0.0681  0.0000  0.0006  0.0002  0.0017  0.0000 </r>
        <r>  0.0118  0.0292  0.0313  0.0134  0.0005  0.0143  0.0015  0.0083  0.0004 </r>
        <r>  0.0118  0.0292  0.0313  0.0134  0.0005  0.0143  0.0015  0.0083  0.0004 </r>
       </set>
       <set comment="band 16">
        <r>  0.0000  0.0475  0.0000  0.1425  0.0000  0.0007  0.0000  0.0002  0.0001 </r>
        <r>  0.0201  0.0196  0.0750  0.0144  0.0010  0.0051  0.0035  0.0093  0.0003 </r>
        <r>  0.0201  0.0196  0.0750  0.0144  0.0010  0.0051  0.0035  0.0093  0.0003 </r>
       </set>
       <set comment="band 17">
        <r>  0.0000  0.0000  0.3319  0.0000  0.0001  0.0015  0.0000  0.0005  0.0003 </r>
        <r>  0.0025  0.0499  0.0006  0.0401  0.0126  0.0038  0.0007  0.0083  0.0051 </r>
        <r>  0.0025  0.0499  0.0006  0.0401  0.0126  0.0038  0.0007  0.0083  0.0051 </r>
       </set>
       <set comment="band 18">
        <r>  0.0026  0.0155  0.0000  0.0052  0.0331  0.0041  0.0349  0.0123  0.0110 </r>
        <r>  0.0009  0.0130  0.0036  0.0044  0.0208  0.0053  0.0098  0.0075  0.0069 </r>
        <r>  0.0009  0.0130  0.0036  0.0044  0.0208  0.0053  0.0098  0.0075  0.0069 </r>
       </set>
       <set comment="band 19">
        <r>  0.0000  0.0065  0.0014  0.0195  0.0012  0.0040  0.0000  0.0013  0.0035 </r>
        <r>  0.0000  0.0105  0.0102  0.0104  0.0081  0.0149  0.0005  0.0071  0.0027 </r>
        <r>  0.0000  0.0102  0.0102  0.0096  0.0082  0.0148  0.0006  0.0069  0.0027 </r>
       </set>
       <set comment="band 20">
        <r>  0.0090  0.0035  0.0002  0.0012  0.0141  0.0000  0.0003  0.0001  0.0052 </r>
        <r>  0.0006  0.0133  0.0000  0.0402  0.0037  0.0013  0.0065  0.0045  0.0085 </r>
        <r>  0.0011  0.0102  0.0000  0.0309  0.0029  0.0012  0.0087  0.0036  0.0066 </r>
       </set>
      </set>
      <set comment="kpoint 35">
       <set comment="band 1">
        <r>  0.0000  0.0000  0.0000  0.0000  0.1024  0.4297  0.0000  0.1432  0.3073 </r>
        <r>  0.0018  0.0000  0.0004  0.0001  0.0000  0.0000  0.0000  0.0000  0.0000 </r>
        <r>  0.0018  0.0000  0.0004  0.0001  0.0000  0.0000  0.0000  0.0000  0.0000 </r>
       </set>
       <set comment="band 2">
        <r>  0.0000  0.0000  0.0000  0.0000  0.2279  0.1692  0.0056  0.5075  0.0760 </r>
        <r>  0.0009  0.0002  0.0002  0.0002  0.0000  0.0000  0.0000  0.0000  0.0000 </r>
        <r>  0.0009  0.0002  0.0002  0.0002  0.0000  0.0000  0.0000  0.0000  0.0000 </r>
       </set>
       <set comment="band 3">
        <r>  0.0000  0.0000  0.0000  0.0000  0.1445  0.3092  0.0000  0.1031  0.4335 </r>
        <r>  0.0000  0.0000  0.0000  0.0000  0.0000  0.0000  0.0000  0.0000  0.0000 </r>
        <r>  0.0000  0.0000  0.0000  0.0000  0.0000  0.0000  0.0000  0.0000  0.0000 </r>
       </set>
       <set comment="band 4">
        <r>  0.0000  0.0000  0.0000  0.0000  0.4335  0.0731  0.1208  0.2193  0.1445 </r>
        <r>  0.0000  0.0000  0.0000  0.0000  0.0000  0.0000  0.0000  0.0000  0.0000 </r>
        <r>  0.0000  0.0000  0.0000  0.0000  0.0000  0.0000  0.0000  0.0000  0.0000 </r>
       </set>
       <set comment="band 5">
        <r>  0.0000  0.0000  0.0000  0.0000  0.0812  0.0046  0.8650  0.0138  0.0271 </r>
        <r>  0.0000  0.0000  0.0000  0.0000  0.0000  0.0000  0.0000  0.0000  0.0000 </r>
        <r>  0.0000  0.0000  0.0000  0.0000  0.0000  0.0000  0.0000  0.0000  0.0000 </r>
       </set>
       <set comment="band 6">
        <r>  0.0152  0.0198  0.0000  0.0066  0.0022  0.0010  0.0000  0.0030  0.0007 </r>
        <r>  0.3411  0.0006  0.0022  0.0002  0.0000  0.0001  0.0000  0.0000  0.0000 </r>
        <r>  0.3411  0.0006  0.0022  0.0002  0.0000  0.0001  0.0000  0.0000  0.0000 </r>
       </set>
       <set comment="band 7">
        <r>  0.0000  0.0031  0.0019  0.0094  0.0014  0.0074  0.0000  0.0025  0.0043 </r>
        <r>  0.3637  0.0000  0.0011  0.0001  0.0000  0.0000  0.0000  0.0000  0.0000 </r>
        <r>  0.3637  0.0000  0.0011  0.0001  0.0000  0.0000  0.0000  0.0000  0.0000 </r>
       </set>
       <set comment="band 8">
        <r>  0.5223  0.0003  0.0000  0.0001  0.0000  0.0002  0.0005  0.0005  0.0000 </r>
        <r>  0.0130  0.0349  0.0017  0.0236  0.0006  0.0016  0.0000  0.0012  0.0008 </r>
        <r>  0.0130  0.0349  0.0017  0.0236  0.0006  0.0016  0.0000  0.0012  0.0008 </r>
       </set>
       <set comment="band 9">
        <r>  0.0000  0.0238  0.0640  0.0715  0.0011  0.0017  0.0000  0.0006  0.0034 </r>
        <r>  0.0017  0.1046  0.0179  0.0368  0.0002  0.0011  0.0004  0.0005  0.0001 </r>
        <r>  0.0017  0.1046  0.0179  0.0368  0.0002  0.0011  0.0004  0.0005  0.0001 </r>
       </set>
       <set comment="band 10">
        <r>  0.0026  0.1159  0.0000  0.0386  0.0006  0.0015  0.0006  0.0045  0.0002 </r>
        <r>  0.0196  0.0307  0.0663  0.0560  0.0001  0.0005  0.0004  0.0010  0.0004 </r>
        <r>  0.0196  0.0307  0.0663  0.0560  0.0001  0.0005  0.0004  0.0010  0.0004 </r>
       </set>
       <set comment="band 11">
        <r>  0.0000  0.0123  0.1158  0.0369  0.0003  0.0033  0.0000  0.0011  0.0008 </r>
        <r>  0.0059  0.0448  0.0249  0.1073  0.0006  0.0002  0.0000  0.0007  0.0012 </r>
        <r>  0.0059  0.0448  0.0249  0.1073  0.0006  0.0002  0.0000  0.0007  0.0012 </r>
       </set>
       <set comment="band 12">
        <r>  0.0050  0.0048  0.0000  0.0016  0.0035  0.0055  0.0012  0.0165  0.0012 </r>
        <r>  0.0010  0.0724  0.1194  0.0553  0.0001  0.0001  0.0002  0.0000  0.0001 </r>
        <r>  0.0010  0.0724  0.1194  0.0553  0.0001  0.0001  0.0002  0.0000  0.0001 </r>
       </set>
       <set comment="band 13">
        <r>  0.0000  0.0010  0.0002  0.0029  0.0022  0.0160  0.0000  0.0053  0.0066 </r>
        <r>  0.0018  0.0291  0.1916  0.0479  0.0000  0.0000  0.0001  0.0000  0.0001 </r>
        <r>  0.0018  0.0291  0.1916  0.0479  0.0000  0.0000  0.0001  0.0000  0.0001 </r>
       </set>
       <set comment="band 14">
        <r>  0.2324  0.0005  0.0000  0.0002  0.0013  0.0000  0.0046  0.0001  0.0004 </r>
        <r>  0.0001  0.0904  0.0121  0.0995  0.0002  0.0031  0.0000  0.0021  0.0004 </r>
        <r>  0.0001  0.0904  0.0121  0.0995  0.0002  0.0031  0.0000  0.0021  0.0004 </r>
       </set>
       <set comment="band 15">
        <r>  0.0000  0.0627  0.0042  0.1880  0.0000  0.0016  0.0000  0.0005  0.0000 </r>
        <r>  0.0127  0.0169  0.0321  0.0160  0.0006  0.0138  0.0017  0.0088  0.0003 </r>
        <r>  0.0127  0.0169  0.0321  0.0160  0.0006  0.0138  0.0017  0.0088  0.0003 </r>
       </set>
       <set comment="band 16">
        <r>  0.0002  0.1580  0.0000  0.0527  0.0000  0.0003  0.0000  0.0009  0.0000 </r>
        <r>  0.0198  0.0163  0.0756  0.0233  0.0002  0.0055  0.0040  0.0087  0.0002 </r>
        <r>  0.0198  0.0163  0.0756  0.0233  0.0002  0.0055  0.0040  0.0087  0.0002 </r>
       </set>
       <set comment="band 17">
        <r>  0.0000  0.0019  0.3522  0.0057  0.0000  0.0000  0.0000  0.0000  0.0000 </r>
        <r>  0.0028  0.0453  0.0047  0.0573  0.0060  0.0056  0.0004  0.0048  0.0101 </r>
        <r>  0.0028  0.0453  0.0047  0.0573  0.0060  0.0056  0.0004  0.0048  0.0101 </r>
       </set>
       <set comment="band 18">
        <r>  0.0089  0.0052  0.0000  0.0017  0.0116  0.0010  0.0440  0.0030  0.0039 </r>
        <r>  0.0010  0.0114  0.0026  0.0173  0.0078  0.0104  0.0018  0.0090  0.0179 </r>
        <r>  0.0010  0.0114  0.0026  0.0173  0.0078  0.0104  0.0018  0.0090  0.0179 </r>
       </set>
       <set comment="band 19">
        <r>  0.0000  0.0171  0.0001  0.0512  0.0175  0.0074  0.0000  0.0025  0.0526 </r>
        <r>  0.0006  0.0080  0.0000  0.0149  0.0128  0.0011  0.0138  0.0024  0.0193 </r>
        <r>  0.0006  0.0080  0.0000  0.0149  0.0128  0.0011  0.0138  0.0024  0.0193 </r>
       </set>
       <set comment="band 20">
        <r>  0.0007  0.0029  0.0000  0.0010  0.0100  0.0017  0.0070  0.0051  0.0033 </r>
        <r>  0.0027  0.0108  0.0030  0.0067  0.0029  0.0035  0.0027  0.0059  0.0060 </r>
        <r>  0.0027  0.0108  0.0030  0.0067  0.0029  0.0035  0.0027  0.0059  0.0060 </r>
       </set>
      </set>
      <set comment="kpoint 36">
       <set comment="band 1">
        <r>  0.0000  0.0000  0.0000  0.0000  0.2052  0.2796  0.0010  0.3188  0.1785 </r>
        <r>  0.0017  0.0001  0.0003  0.0001  0.0000  0.0000  0.0000  0.0000  0.0000 </r>
        <r>  0.0017  0.0001  0.0003  0.0001  0.0000  0.0000  0.0000  0.0000  0.0000 </r>
       </set>
       <set comment="band 2">
        <r>  0.0000  0.0000  0.0000  0.0000  0.1444  0.3623  0.0009  0.3139  0.1640 </r>
        <r>  0.0011  0.0002  0.0002  0.0001  0.0000  0.0000  0.0000  0.0000  0.0000 </r>
        <r>  0.0011  0.0002  0.0002  0.0001  0.0000  0.0000  0.0000  0.0000  0.0000 </r>
       </set>
       <set comment="band 3">
        <r>  0.0000  0.0000  0.0000  0.0000  0.3305  0.1682  0.0120  0.2169  0.2628 </r>
        <r>  0.0000  0.0000  0.0000  0.0000  0.0000  0.0000  0.0000  0.0000  0.0000 </r>
        <r>  0.0000  0.0000  0.0000  0.0000  0.0000  0.0000  0.0000  0.0000  0.0000 </r>
       </set>
       <set comment="band 4">
        <r>  0.0000  0.0000  0.0000  0.0000  0.2809  0.1759  0.0201  0.1317  0.3828 </r>
        <r>  0.0000  0.0000  0.0000  0.0000  0.0000  0.0000  0.0000  0.0000  0.0000 </r>
        <r>  0.0000  0.0000  0.0000  0.0000  0.0000  0.0000  0.0000  0.0000  0.0000 </r>
       </set>
       <set comment="band 5">
        <r>  0.0000  0.0000  0.0000  0.0000  0.0281  0.0002  0.9576  0.0049  0.0010 </r>
        <r>  0.0000  0.0000  0.0000  0.0000  0.0000  0.0000  0.0000  0.0000  0.0000 </r>
        <r>  0.0000  0.0000  0.0000  0.0000  0.0000  0.0000  0.0000  0.0000  0.0000 </r>
       </set>
       <set comment="band 6">
        <r>  0.0028  0.0138  0.0002  0.0117  0.0021  0.0022  0.0000  0.0030  0.0015 </r>
        <r>  0.3520  0.0003  0.0018  0.0001  0.0000  0.0000  0.0000  0.0000  0.0000 </r>
        <r>  0.3520  0.0003  0.0018  0.0001  0.0000  0.0000  0.0000  0.0000  0.0000 </r>
       </set>
       <set comment="band 7">
        <r>  0.0018  0.0066  0.0003  0.0093  0.0025  0.0049  0.0000  0.0041  0.0030 </r>
        <r>  0.3609  0.0000  0.0013  0.0002  0.0000  0.0000  0.0000  0.0000  0.0000 </r>
        <r>  0.3609  0.0000  0.0013  0.0002  0.0000  0.0000  0.0000  0.0000  0.0000 </r>
       </set>
       <set comment="band 8">
        <r>  0.5353  0.0001  0.0000  0.0000  0.0000  0.0000  0.0006  0.0003  0.0000 </r>
        <r>  0.0040  0.0292  0.0005  0.0307  0.0007  0.0014  0.0000  0.0015  0.0007 </r>
        <r>  0.0040  0.0292  0.0005  0.0307  0.0007  0.0014  0.0000  0.0015  0.0007 </r>
       </set>
       <set comment="band 9">
        <r>  0.0000  0.0024  0.0464  0.1085  0.0000  0.0044  0.0000  0.0001  0.0021 </r>
        <r>  0.0098  0.0542  0.0339  0.0676  0.0002  0.0006  0.0004  0.0008  0.0003 </r>
        <r>  0.0098  0.0542  0.0339  0.0676  0.0002  0.0006  0.0004  0.0008  0.0003 </r>
       </set>
       <set comment="band 10">
        <r>  0.0015  0.1456  0.0008  0.0014  0.0027  0.0001  0.0001  0.0068  0.0003 </r>
        <r>  0.0124  0.0658  0.0469  0.0444  0.0002  0.0010  0.0004  0.0007  0.0001 </r>
        <r>  0.0124  0.0658  0.0469  0.0444  0.0002  0.0010  0.0004  0.0007  0.0001 </r>
       </set>
       <set comment="band 11">
        <r>  0.0000  0.0000  0.1354  0.0370  0.0000  0.0027  0.0000  0.0000  0.0005 </r>
        <r>  0.0057  0.0697  0.0207  0.0811  0.0009  0.0004  0.0001  0.0005  0.0009 </r>
        <r>  0.0057  0.0697  0.0207  0.0811  0.0009  0.0004  0.0001  0.0005  0.0009 </r>
       </set>
       <set comment="band 12">
        <r>  0.0012  0.0052  0.0001  0.0038  0.0033  0.0093  0.0003  0.0125  0.0022 </r>
        <r>  0.0016  0.0706  0.1416  0.0408  0.0001  0.0000  0.0001  0.0000  0.0001 </r>
        <r>  0.0016  0.0706  0.1416  0.0408  0.0001  0.0000  0.0001  0.0000  0.0001 </r>
       </set>
       <set comment="band 13">
        <r>  0.0009  0.0027  0.0000  0.0041  0.0035  0.0124  0.0002  0.0085  0.0046 </r>
        <r>  0.0021  0.0292  0.1819  0.0515  0.0000  0.0000  0.0001  0.0001  0.0001 </r>
        <r>  0.0021  0.0292  0.1819  0.0515  0.0000  0.0000  0.0001  0.0001  0.0001 </r>
       </set>
       <set comment="band 14">
        <r>  0.2340  0.0000  0.0000  0.0001  0.0008  0.0000  0.0060  0.0001  0.0000 </r>
        <r>  0.0001  0.0941  0.0052  0.0973  0.0003  0.0026  0.0000  0.0030  0.0002 </r>
        <r>  0.0001  0.0941  0.0052  0.0973  0.0003  0.0026  0.0000  0.0030  0.0002 </r>
       </set>
       <set comment="band 15">
        <r>  0.0001  0.0927  0.0013  0.1511  0.0000  0.0020  0.0000  0.0012  0.0000 </r>
        <r>  0.0136  0.0210  0.0457  0.0123  0.0003  0.0140  0.0023  0.0074  0.0001 </r>
        <r>  0.0136  0.0210  0.0457  0.0123  0.0003  0.0140  0.0023  0.0074  0.0001 </r>
       </set>
       <set comment="band 16">
        <r>  0.0000  0.1396  0.0003  0.0725  0.0000  0.0008  0.0000  0.0017  0.0000 </r>
        <r>  0.0172  0.0154  0.0709  0.0194  0.0001  0.0057  0.0037  0.0112  0.0000 </r>
        <r>  0.0172  0.0154  0.0709  0.0194  0.0001  0.0057  0.0037  0.0112  0.0000 </r>
       </set>
       <set comment="band 17">
        <r>  0.0000  0.0002  0.3595  0.0021  0.0000  0.0002  0.0000  0.0001  0.0001 </r>
        <r>  0.0013  0.0510  0.0017  0.0490  0.0084  0.0058  0.0001  0.0076  0.0065 </r>
        <r>  0.0013  0.0510  0.0017  0.0490  0.0084  0.0058  0.0001  0.0076  0.0065 </r>
       </set>
       <set comment="band 18">
        <r>  0.0077  0.0137  0.0000  0.0037  0.0243  0.0011  0.0377  0.0052  0.0050 </r>
        <r>  0.0006  0.0217  0.0011  0.0097  0.0200  0.0081  0.0055  0.0076  0.0089 </r>
        <r>  0.0006  0.0217  0.0011  0.0097  0.0200  0.0081  0.0055  0.0076  0.0089 </r>
       </set>
       <set comment="band 19">
        <r>  0.0038  0.0039  0.0001  0.0269  0.0085  0.0005  0.0038  0.0004  0.0317 </r>
        <r>  0.0001  0.0001  0.0002  0.0391  0.0027  0.0017  0.0073  0.0089  0.0234 </r>
        <r>  0.0001  0.0001  0.0002  0.0390  0.0027  0.0017  0.0073  0.0089  0.0234 </r>
       </set>
       <set comment="band 20">
        <r>  0.0014  0.0016  0.0019  0.0019  0.0139  0.0043  0.0003  0.0029  0.0042 </r>
        <r>  0.0027  0.0243  0.0017  0.0071  0.0093  0.0105  0.0033  0.0013  0.0044 </r>
        <r>  0.0027  0.0244  0.0017  0.0071  0.0093  0.0105  0.0033  0.0013  0.0044 </r>
       </set>
      </set>
      <set comment="kpoint 37">
       <set comment="band 1">
        <r>  0.0000  0.0000  0.0000  0.0000  0.2572  0.1603  0.0000  0.4811  0.0857 </r>
        <r>  0.0014  0.0001  0.0003  0.0001  0.0000  0.0000  0.0000  0.0000  0.0000 </r>
        <r>  0.0014  0.0001  0.0003  0.0001  0.0000  0.0000  0.0000  0.0000  0.0000 </r>
       </set>
       <set comment="band 2">
        <r>  0.0000  0.0000  0.0000  0.0000  0.0857  0.4811  0.0000  0.1603  0.2572 </r>
        <r>  0.0014  0.0001  0.0003  0.0001  0.0000  0.0000  0.0000  0.0000  0.0000 </r>
        <r>  0.0014  0.0001  0.0003  0.0001  0.0000  0.0000  0.0000  0.0000  0.0000 </r>
       </set>
       <set comment="band 3">
        <r>  0.0000  0.0000  0.0000  0.0000  0.4846  0.0862  0.0000  0.2586  0.1615 </r>
        <r>  0.0000  0.0000  0.0000  0.0000  0.0000  0.0000  0.0000  0.0000  0.0000 </r>
        <r>  0.0000  0.0000  0.0000  0.0000  0.0000  0.0000  0.0000  0.0000  0.0000 </r>
       </set>
       <set comment="band 4">
        <r>  0.0000  0.0000  0.0000  0.0000  0.1615  0.2586  0.0000  0.0862  0.4846 </r>
        <r>  0.0000  0.0000  0.0000  0.0000  0.0000  0.0000  0.0000  0.0000  0.0000 </r>
        <r>  0.0000  0.0000  0.0000  0.0000  0.0000  0.0000  0.0000  0.0000  0.0000 </r>
       </set>
       <set comment="band 5">
        <r>  0.0000  0.0000  0.0000  0.0000  0.0000  0.0000  0.9916  0.0000  0.0000 </r>
        <r>  0.0000  0.0000  0.0000  0.0000  0.0000  0.0000  0.0000  0.0000  0.0000 </r>
        <r>  0.0000  0.0000  0.0000  0.0000  0.0000  0.0000  0.0000  0.0000  0.0000 </r>
       </set>
       <set comment="band 6">
        <r>  0.0000  0.0159  0.0000  0.0054  0.0035  0.0018  0.0000  0.0054  0.0012 </r>
        <r>  0.3593  0.0002  0.0015  0.0002  0.0000  0.0000  0.0000  0.0000  0.0000 </r>
        <r>  0.3572  0.0002  0.0015  0.0002  0.0000  0.0000  0.0000  0.0000  0.0000 </r>
       </set>
       <set comment="band 7">
        <r>  0.0000  0.0054  0.0000  0.0159  0.0012  0.0054  0.0000  0.0018  0.0035 </r>
        <r>  0.3572  0.0002  0.0015  0.0002  0.0000  0.0000  0.0000  0.0000  0.0000 </r>
        <r>  0.3593  0.0002  0.0015  0.0002  0.0000  0.0000  0.0000  0.0000  0.0000 </r>
       </set>
       <set comment="band 8">
        <r>  0.5424  0.0000  0.0000  0.0000  0.0000  0.0000  0.0006  0.0000  0.0000 </r>
        <r>  0.0000  0.0301  0.0000  0.0301  0.0008  0.0015  0.0000  0.0015  0.0008 </r>
        <r>  0.0000  0.0301  0.0000  0.0301  0.0008  0.0015  0.0000  0.0015  0.0008 </r>
       </set>
       <set comment="band 9">
        <r>  0.0000  0.1094  0.0000  0.0365  0.0020  0.0019  0.0000  0.0057  0.0007 </r>
        <r>  0.0140  0.0538  0.0481  0.0538  0.0001  0.0008  0.0004  0.0008  0.0001 </r>
        <r>  0.0140  0.0537  0.0482  0.0537  0.0001  0.0008  0.0004  0.0008  0.0001 </r>
       </set>
       <set comment="band 10">
        <r>  0.0000  0.0365  0.0000  0.1094  0.0007  0.0057  0.0000  0.0019  0.0020 </r>
        <r>  0.0140  0.0537  0.0482  0.0537  0.0001  0.0008  0.0004  0.0008  0.0001 </r>
        <r>  0.0140  0.0538  0.0481  0.0538  0.0001  0.0008  0.0004  0.0008  0.0001 </r>
       </set>
       <set comment="band 11">
        <r>  0.0000  0.0000  0.1841  0.0000  0.0000  0.0000  0.0000  0.0000  0.0000 </r>
        <r>  0.0000  0.0853  0.0000  0.0853  0.0010  0.0004  0.0000  0.0004  0.0010 </r>
        <r>  0.0000  0.0853  0.0000  0.0853  0.0010  0.0004  0.0000  0.0004  0.0010 </r>
       </set>
       <set comment="band 12">
        <r>  0.0000  0.0071  0.0000  0.0024  0.0052  0.0053  0.0000  0.0158  0.0017 </r>
        <r>  0.0021  0.0459  0.1660  0.0459  0.0001  0.0000  0.0001  0.0000  0.0001 </r>
        <r>  0.0021  0.0460  0.1660  0.0460  0.0001  0.0000  0.0001  0.0000  0.0001 </r>
       </set>
       <set comment="band 13">
        <r>  0.0000  0.0024  0.0000  0.0071  0.0017  0.0158  0.0000  0.0053  0.0052 </r>
        <r>  0.0021  0.0460  0.1660  0.0460  0.0001  0.0000  0.0001  0.0000  0.0001 </r>
        <r>  0.0021  0.0459  0.1660  0.0459  0.0001  0.0000  0.0001  0.0000  0.0001 </r>
       </set>
       <set comment="band 14">
        <r>  0.2353  0.0000  0.0000  0.0000  0.0000  0.0000  0.0069  0.0000  0.0000 </r>
        <r>  0.0000  0.0970  0.0000  0.0970  0.0002  0.0029  0.0000  0.0029  0.0002 </r>
        <r>  0.0000  0.0970  0.0000  0.0970  0.0002  0.0029  0.0000  0.0029  0.0002 </r>
       </set>
       <set comment="band 15">
        <r>  0.0000  0.1701  0.0000  0.0567  0.0000  0.0009  0.0000  0.0028  0.0000 </r>
        <r>  0.0152  0.0164  0.0612  0.0164  0.0000  0.0097  0.0031  0.0097  0.0000 </r>
        <r>  0.0152  0.0164  0.0612  0.0164  0.0000  0.0097  0.0031  0.0097  0.0000 </r>
       </set>
       <set comment="band 16">
        <r>  0.0000  0.0567  0.0000  0.1701  0.0000  0.0028  0.0000  0.0009  0.0000 </r>
        <r>  0.0152  0.0164  0.0612  0.0164  0.0000  0.0097  0.0031  0.0097  0.0000 </r>
        <r>  0.0152  0.0164  0.0612  0.0164  0.0000  0.0097  0.0031  0.0097  0.0000 </r>
       </set>
       <set comment="band 17">
        <r>  0.0000  0.0000  0.3715  0.0000  0.0000  0.0000  0.0000  0.0000  0.0000 </r>
        <r>  0.0000  0.0495  0.0000  0.0495  0.0065  0.0080  0.0000  0.0080  0.0065 </r>
        <r>  0.0000  0.0495  0.0000  0.0495  0.0065  0.0080  0.0000  0.0080  0.0065 </r>
       </set>
       <set comment="band 18">
        <r>  0.0152  0.0000  0.0000  0.0000  0.0000  0.0000  0.0450  0.0000  0.0000 </r>
        <r>  0.0000  0.0235  0.0000  0.0235  0.0125  0.0107  0.0000  0.0107  0.0125 </r>
        <r>  0.0000  0.0235  0.0000  0.0235  0.0125  0.0107  0.0000  0.0107  0.0125 </r>
       </set>
       <set comment="band 19">
        <r>  0.0000  0.0112  0.0000  0.0047  0.0383  0.0000  0.0000  0.0000  0.0161 </r>
        <r>  0.0004  0.0314  0.0001  0.0314  0.0194  0.0031  0.0079  0.0031  0.0194 </r>
        <r>  0.0006  0.0192  0.0002  0.0192  0.0119  0.0019  0.0129  0.0019  0.0119 </r>
       </set>
       <set comment="band 20">
        <r>  0.0000  0.0013  0.0039  0.0031  0.0041  0.0000  0.0000  0.0000  0.0096 </r>
        <r>  0.0001  0.0422  0.0001  0.0078  0.0151  0.0105  0.0033  0.0042  0.0012 </r>
        <r>  0.0001  0.0296  0.0000  0.0266  0.0107  0.0079  0.0020  0.0073  0.0095 </r>
       </set>
      </set>
     </set>
    </set>
   </array>
  </projected>
 </calculation>
 <structure name="finalpos" >
  <crystal>
   <varray name="basis" >
    <v>       3.85005267       0.00000000       0.00000000 </v>
    <v>      -1.92502634       3.33424342       0.00000000 </v>
    <v>       0.00000000       0.00000000      18.32253218 </v>
   </varray>
   <i name="volume">    235.20657983 </i>
   <varray name="rec_basis" >
    <v>       0.25973671       0.14995906      -0.00000000 </v>
    <v>      -0.00000000       0.29991811      -0.00000000 </v>
    <v>       0.00000000       0.00000000       0.05457761 </v>
   </varray>
  </crystal>
  <varray name="positions" >
   <v>       0.00000000       0.00000000       0.50000000 </v>
   <v>       0.66666667       0.33333333       0.58740305 </v>
   <v>       0.33333333       0.66666667       0.41259695 </v>
  </varray>
 </structure>
</modeling>
