
     Program PWSCF v.7.5 starts on 22Sep2026 at 21:40:13 

     This program is part of the open-source Quantum ESPRESSO suite
     for quantum simulation of materials; please cite
         "P. Giannozzi et al., J. Phys.:Condens. Matter 21 395502 (2009);
         "P. Giannozzi et al., J. Phys.:Condens. Matter 29 465901 (2017);
         "P. Giannozzi et al., J. Chem. Phys. 152 154105 (2020);
          URL http://www.quantum-espresso.org", 
     in publications or presentations arising from this work. More details at
     http://www.quantum-espresso.org/quote

     Parallel version (MPI), running on     4 processors

     MPI processes distributed on     1 nodes
     8001 MiB available memory on the printing compute node when the environment starts

     Reading input from mass.in

     Current dimensions of program PWSCF are:
     Max number of different atomic species (ntypx) = 10
     Max number of k-points (npk) =  40000
     Max angular momentum in pseudopotentials (lmaxx) =  4

     Atomic positions and unit cell read from directory:
     ./tmp/si.save/


     R & G space division:  proc/nbgrp/npool/nimage =       4
     Subspace diagonalization in iterative solution of the eigenvalue problem:
     a serial algorithm will be used


     Parallelization info
     --------------------
     sticks:   dense  smooth     PW     G-vecs:    dense   smooth      PW
     Min         571     214     63                18093     4156     659
     Max         572     217     64                18095     4157     660
     Sum        2287     859    253                72377    16625    2637

     Using Slab Decomposition



     bravais-lattice index     =            2
     lattice parameter (alat)  =      10.2000  a.u.
     unit-cell volume          =     265.3020 (a.u.)^3
     number of atoms/cell      =            2
     number of atomic types    =            1
     number of electrons       =         8.00
     number of Kohn-Sham states=            8
     kinetic-energy cutoff     =      60.0000  Ry
     charge density cutoff     =     640.0000  Ry
     Exchange-correlation= PBE
                           (   1   4   3   4   0   0   0)

     celldm(1)=  10.200000  celldm(2)=   0.000000  celldm(3)=   0.000000
     celldm(4)=   0.000000  celldm(5)=   0.000000  celldm(6)=   0.000000

     crystal axes: (cart. coord. in units of alat)
               a(1) = (  -0.500000   0.000000   0.500000 )  
               a(2) = (   0.000000   0.500000   0.500000 )  
               a(3) = (  -0.500000   0.500000   0.000000 )  

     reciprocal axes: (cart. coord. in units 2 pi/alat)
               b(1) = ( -1.000000 -1.000000  1.000000 )  
               b(2) = (  1.000000  1.000000  1.000000 )  
               b(3) = ( -1.000000  1.000000 -1.000000 )  


     PseudoPot. # 1 for Si read from file:
     ../pseudo/Si.pbe-n-rrkjus_psl.1.0.0.UPF
     MD5 check sum: fa25574f73a70a4139f2adfbefec430c
     Pseudo is Ultrasoft + core correction, Zval =  4.0
     Generated using &quot;atomic&quot; code by A. Dal Corso  v.6.3
     Using radial grid of 1141 points,  6 beta functions with: 
                l(1) =   0
                l(2) =   0
                l(3) =   1
                l(4) =   1
                l(5) =   2
                l(6) =   2
     Q(r) pseudized with 0 coefficients 


     atomic species   valence    mass     pseudopotential
     Si                4.00    28.08500     Si( 1.00)

     48 Sym. Ops., with inversion, found (24 have fractional translation)


                                    s                        frac. trans.

      isym =  1     identity                                     

 cryst.   s( 1) = (     1          0          0      )
                  (     0          1          0      )
                  (     0          0          1      )

 cart.    s( 1) = (  1.0000000  0.0000000  0.0000000 )
                  (  0.0000000  1.0000000  0.0000000 )
                  (  0.0000000  0.0000000  1.0000000 )


      isym =  2     180 deg rotation - cart. axis [0,0,1]        

 cryst.   s( 2) = (     0          1         -1      )
                  (     1          0         -1      )
                  (     0          0         -1      )

 cart.    s( 2) = ( -1.0000000  0.0000000  0.0000000 )
                  (  0.0000000 -1.0000000  0.0000000 )
                  (  0.0000000  0.0000000  1.0000000 )


      isym =  3     180 deg rotation - cart. axis [0,1,0]        

 cryst.   s( 3) = (    -1          0          0      )
                  (    -1          0          1      )
                  (    -1          1          0      )

 cart.    s( 3) = ( -1.0000000  0.0000000  0.0000000 )
                  (  0.0000000  1.0000000  0.0000000 )
                  (  0.0000000  0.0000000 -1.0000000 )


      isym =  4     180 deg rotation - cart. axis [1,0,0]        

 cryst.   s( 4) = (     0         -1          1      )
                  (     0         -1          0      )
                  (     1         -1          0      )

 cart.    s( 4) = (  1.0000000  0.0000000  0.0000000 )
                  (  0.0000000 -1.0000000  0.0000000 )
                  (  0.0000000  0.0000000 -1.0000000 )


      isym =  5     180 deg rotation - cart. axis [1,1,0]        

 cryst.   s( 5) = (     0         -1          0      )    f =(  0.2500000 )
                  (    -1          0          0      )       (  0.2500000 )
                  (     0          0         -1      )       (  0.2500000 )

 cart.    s( 5) = (  0.0000000  1.0000000  0.0000000 )    f =( -0.2500000 )
                  (  1.0000000  0.0000000  0.0000000 )       (  0.2500000 )
                  (  0.0000000  0.0000000 -1.0000000 )       (  0.2500000 )


      isym =  6     180 deg rotation - cart. axis [1,-1,0]       

 cryst.   s( 6) = (    -1          0          1      )    f =(  0.2500000 )
                  (     0         -1          1      )       (  0.2500000 )
                  (     0          0          1      )       (  0.2500000 )

 cart.    s( 6) = (  0.0000000 -1.0000000  0.0000000 )    f =( -0.2500000 )
                  ( -1.0000000  0.0000000  0.0000000 )       (  0.2500000 )
                  (  0.0000000  0.0000000 -1.0000000 )       (  0.2500000 )


      isym =  7      90 deg rotation - cart. axis [0,0,-1]       

 cryst.   s( 7) = (     0          1          0      )    f =(  0.2500000 )
                  (     0          1         -1      )       (  0.2500000 )
                  (    -1          1          0      )       (  0.2500000 )

 cart.    s( 7) = (  0.0000000  1.0000000  0.0000000 )    f =( -0.2500000 )
                  ( -1.0000000  0.0000000  0.0000000 )       (  0.2500000 )
                  (  0.0000000  0.0000000  1.0000000 )       (  0.2500000 )


      isym =  8      90 deg rotation - cart. axis [0,0,1]        

 cryst.   s( 8) = (     1          0         -1      )    f =(  0.2500000 )
                  (     1          0          0      )       (  0.2500000 )
                  (     1         -1          0      )       (  0.2500000 )

 cart.    s( 8) = (  0.0000000 -1.0000000  0.0000000 )    f =( -0.2500000 )
                  (  1.0000000  0.0000000  0.0000000 )       (  0.2500000 )
                  (  0.0000000  0.0000000  1.0000000 )       (  0.2500000 )


      isym =  9     180 deg rotation - cart. axis [1,0,1]        

 cryst.   s( 9) = (    -1          0          0      )    f =(  0.2500000 )
                  (     0          0         -1      )       (  0.2500000 )
                  (     0         -1          0      )       (  0.2500000 )

 cart.    s( 9) = (  0.0000000  0.0000000  1.0000000 )    f =( -0.2500000 )
                  (  0.0000000 -1.0000000  0.0000000 )       (  0.2500000 )
                  (  1.0000000  0.0000000  0.0000000 )       (  0.2500000 )


      isym = 10     180 deg rotation - cart. axis [-1,0,1]       

 cryst.   s(10) = (     1          0          0      )    f =(  0.2500000 )
                  (     1         -1          0      )       (  0.2500000 )
                  (     1          0         -1      )       (  0.2500000 )

 cart.    s(10) = (  0.0000000  0.0000000 -1.0000000 )    f =( -0.2500000 )
                  (  0.0000000 -1.0000000  0.0000000 )       (  0.2500000 )
                  ( -1.0000000  0.0000000  0.0000000 )       (  0.2500000 )


      isym = 11      90 deg rotation - cart. axis [0,1,0]        

 cryst.   s(11) = (     0          1         -1      )    f =(  0.2500000 )
                  (    -1          1          0      )       (  0.2500000 )
                  (     0          1          0      )       (  0.2500000 )

 cart.    s(11) = (  0.0000000  0.0000000  1.0000000 )    f =( -0.2500000 )
                  (  0.0000000  1.0000000  0.0000000 )       (  0.2500000 )
                  ( -1.0000000  0.0000000  0.0000000 )       (  0.2500000 )


      isym = 12      90 deg rotation - cart. axis [0,-1,0]       

 cryst.   s(12) = (     0         -1          1      )    f =(  0.2500000 )
                  (     0          0          1      )       (  0.2500000 )
                  (    -1          0          1      )       (  0.2500000 )

 cart.    s(12) = (  0.0000000  0.0000000 -1.0000000 )    f =( -0.2500000 )
                  (  0.0000000  1.0000000  0.0000000 )       (  0.2500000 )
                  (  1.0000000  0.0000000  0.0000000 )       (  0.2500000 )


      isym = 13     180 deg rotation - cart. axis [0,1,1]        

 cryst.   s(13) = (    -1          1          0      )    f =(  0.2500000 )
                  (     0          1          0      )       (  0.2500000 )
                  (     0          1         -1      )       (  0.2500000 )

 cart.    s(13) = ( -1.0000000  0.0000000  0.0000000 )    f =( -0.2500000 )
                  (  0.0000000  0.0000000  1.0000000 )       (  0.2500000 )
                  (  0.0000000  1.0000000  0.0000000 )       (  0.2500000 )


      isym = 14     180 deg rotation - cart. axis [0,1,-1]       

 cryst.   s(14) = (     0          0         -1      )    f =(  0.2500000 )
                  (     0         -1          0      )       (  0.2500000 )
                  (    -1          0          0      )       (  0.2500000 )

 cart.    s(14) = ( -1.0000000  0.0000000  0.0000000 )    f =( -0.2500000 )
                  (  0.0000000  0.0000000 -1.0000000 )       (  0.2500000 )
                  (  0.0000000 -1.0000000  0.0000000 )       (  0.2500000 )


      isym = 15      90 deg rotation - cart. axis [-1,0,0]       

 cryst.   s(15) = (     0          0          1      )    f =(  0.2500000 )
                  (    -1          0          1      )       (  0.2500000 )
                  (     0         -1          1      )       (  0.2500000 )

 cart.    s(15) = (  1.0000000  0.0000000  0.0000000 )    f =( -0.2500000 )
                  (  0.0000000  0.0000000  1.0000000 )       (  0.2500000 )
                  (  0.0000000 -1.0000000  0.0000000 )       (  0.2500000 )


      isym = 16      90 deg rotation - cart. axis [1,0,0]        

 cryst.   s(16) = (     1         -1          0      )    f =(  0.2500000 )
                  (     1          0         -1      )       (  0.2500000 )
                  (     1          0          0      )       (  0.2500000 )

 cart.    s(16) = (  1.0000000  0.0000000  0.0000000 )    f =( -0.2500000 )
                  (  0.0000000  0.0000000 -1.0000000 )       (  0.2500000 )
                  (  0.0000000  1.0000000  0.0000000 )       (  0.2500000 )


      isym = 17     120 deg rotation - cart. axis [-1,-1,-1]     

 cryst.   s(17) = (    -1          0          1      )
                  (    -1          1          0      )
                  (    -1          0          0      )

 cart.    s(17) = (  0.0000000  1.0000000  0.0000000 )
                  (  0.0000000  0.0000000  1.0000000 )
                  (  1.0000000  0.0000000  0.0000000 )


      isym = 18     120 deg rotation - cart. axis [-1,1,1]       

 cryst.   s(18) = (     0          1          0      )
                  (     0          0          1      )
                  (     1          0          0      )

 cart.    s(18) = (  0.0000000 -1.0000000  0.0000000 )
                  (  0.0000000  0.0000000  1.0000000 )
                  ( -1.0000000  0.0000000  0.0000000 )


      isym = 19     120 deg rotation - cart. axis [1,1,-1]       

 cryst.   s(19) = (     1          0         -1      )
                  (     0          0         -1      )
                  (     0          1         -1      )

 cart.    s(19) = (  0.0000000  1.0000000  0.0000000 )
                  (  0.0000000  0.0000000 -1.0000000 )
                  ( -1.0000000  0.0000000  0.0000000 )


      isym = 20     120 deg rotation - cart. axis [1,-1,1]       

 cryst.   s(20) = (     0         -1          0      )
                  (     1         -1          0      )
                  (     0         -1          1      )

 cart.    s(20) = (  0.0000000 -1.0000000  0.0000000 )
                  (  0.0000000  0.0000000 -1.0000000 )
                  (  1.0000000  0.0000000  0.0000000 )


      isym = 21     120 deg rotation - cart. axis [1,1,1]        

 cryst.   s(21) = (     0          0         -1      )
                  (     0          1         -1      )
                  (     1          0         -1      )

 cart.    s(21) = (  0.0000000  0.0000000  1.0000000 )
                  (  1.0000000  0.0000000  0.0000000 )
                  (  0.0000000  1.0000000  0.0000000 )


      isym = 22     120 deg rotation - cart. axis [-1,1,-1]      

 cryst.   s(22) = (    -1          1          0      )
                  (    -1          0          0      )
                  (    -1          0          1      )

 cart.    s(22) = (  0.0000000  0.0000000  1.0000000 )
                  ( -1.0000000  0.0000000  0.0000000 )
                  (  0.0000000 -1.0000000  0.0000000 )


      isym = 23     120 deg rotation - cart. axis [1,-1,-1]      

 cryst.   s(23) = (     0          0          1      )
                  (     1          0          0      )
                  (     0          1          0      )

 cart.    s(23) = (  0.0000000  0.0000000 -1.0000000 )
                  ( -1.0000000  0.0000000  0.0000000 )
                  (  0.0000000  1.0000000  0.0000000 )


      isym = 24     120 deg rotation - cart. axis [-1,-1,1]      

 cryst.   s(24) = (     1         -1          0      )
                  (     0         -1          1      )
                  (     0         -1          0      )

 cart.    s(24) = (  0.0000000  0.0000000 -1.0000000 )
                  (  1.0000000  0.0000000  0.0000000 )
                  (  0.0000000 -1.0000000  0.0000000 )


      isym = 25     inversion                                    

 cryst.   s(25) = (    -1          0          0      )    f =(  0.2500000 )
                  (     0         -1          0      )       (  0.2500000 )
                  (     0          0         -1      )       (  0.2500000 )

 cart.    s(25) = ( -1.0000000  0.0000000  0.0000000 )    f =( -0.2500000 )
                  (  0.0000000 -1.0000000  0.0000000 )       (  0.2500000 )
                  (  0.0000000  0.0000000 -1.0000000 )       (  0.2500000 )


      isym = 26     inv. 180 deg rotation - cart. axis [0,0,1]   

 cryst.   s(26) = (     0         -1          1      )    f =(  0.2500000 )
                  (    -1          0          1      )       (  0.2500000 )
                  (     0          0          1      )       (  0.2500000 )

 cart.    s(26) = (  1.0000000  0.0000000  0.0000000 )    f =( -0.2500000 )
                  (  0.0000000  1.0000000  0.0000000 )       (  0.2500000 )
                  (  0.0000000  0.0000000 -1.0000000 )       (  0.2500000 )


      isym = 27     inv. 180 deg rotation - cart. axis [0,1,0]   

 cryst.   s(27) = (     1          0          0      )    f =(  0.2500000 )
                  (     1          0         -1      )       (  0.2500000 )
                  (     1         -1          0      )       (  0.2500000 )

 cart.    s(27) = (  1.0000000  0.0000000  0.0000000 )    f =( -0.2500000 )
                  (  0.0000000 -1.0000000  0.0000000 )       (  0.2500000 )
                  (  0.0000000  0.0000000  1.0000000 )       (  0.2500000 )


      isym = 28     inv. 180 deg rotation - cart. axis [1,0,0]   

 cryst.   s(28) = (     0          1         -1      )    f =(  0.2500000 )
                  (     0          1          0      )       (  0.2500000 )
                  (    -1          1          0      )       (  0.2500000 )

 cart.    s(28) = ( -1.0000000  0.0000000  0.0000000 )    f =( -0.2500000 )
                  (  0.0000000  1.0000000  0.0000000 )       (  0.2500000 )
                  (  0.0000000  0.0000000  1.0000000 )       (  0.2500000 )


      isym = 29     inv. 180 deg rotation - cart. axis [1,1,0]   

 cryst.   s(29) = (     0          1          0      )
                  (     1          0          0      )
                  (     0          0          1      )

 cart.    s(29) = (  0.0000000 -1.0000000  0.0000000 )
                  ( -1.0000000  0.0000000  0.0000000 )
                  (  0.0000000  0.0000000  1.0000000 )


      isym = 30     inv. 180 deg rotation - cart. axis [1,-1,0]  

 cryst.   s(30) = (     1          0         -1      )
                  (     0          1         -1      )
                  (     0          0         -1      )

 cart.    s(30) = (  0.0000000  1.0000000  0.0000000 )
                  (  1.0000000  0.0000000  0.0000000 )
                  (  0.0000000  0.0000000  1.0000000 )


      isym = 31     inv.  90 deg rotation - cart. axis [0,0,-1]  

 cryst.   s(31) = (     0         -1          0      )
                  (     0         -1          1      )
                  (     1         -1          0      )

 cart.    s(31) = (  0.0000000 -1.0000000  0.0000000 )
                  (  1.0000000  0.0000000  0.0000000 )
                  (  0.0000000  0.0000000 -1.0000000 )


      isym = 32     inv.  90 deg rotation - cart. axis [0,0,1]   

 cryst.   s(32) = (    -1          0          1      )
                  (    -1          0          0      )
                  (    -1          1          0      )

 cart.    s(32) = (  0.0000000  1.0000000  0.0000000 )
                  ( -1.0000000  0.0000000  0.0000000 )
                  (  0.0000000  0.0000000 -1.0000000 )


      isym = 33     inv. 180 deg rotation - cart. axis [1,0,1]   

 cryst.   s(33) = (     1          0          0      )
                  (     0          0          1      )
                  (     0          1          0      )

 cart.    s(33) = (  0.0000000  0.0000000 -1.0000000 )
                  (  0.0000000  1.0000000  0.0000000 )
                  ( -1.0000000  0.0000000  0.0000000 )


      isym = 34     inv. 180 deg rotation - cart. axis [-1,0,1]  

 cryst.   s(34) = (    -1          0          0      )
                  (    -1          1          0      )
                  (    -1          0          1      )

 cart.    s(34) = (  0.0000000  0.0000000  1.0000000 )
                  (  0.0000000  1.0000000  0.0000000 )
                  (  1.0000000  0.0000000  0.0000000 )


      isym = 35     inv.  90 deg rotation - cart. axis [0,1,0]   

 cryst.   s(35) = (     0         -1          1      )
                  (     1         -1          0      )
                  (     0         -1          0      )

 cart.    s(35) = (  0.0000000  0.0000000 -1.0000000 )
                  (  0.0000000 -1.0000000  0.0000000 )
                  (  1.0000000  0.0000000  0.0000000 )


      isym = 36     inv.  90 deg rotation - cart. axis [0,-1,0]  

 cryst.   s(36) = (     0          1         -1      )
                  (     0          0         -1      )
                  (     1          0         -1      )

 cart.    s(36) = (  0.0000000  0.0000000  1.0000000 )
                  (  0.0000000 -1.0000000  0.0000000 )
                  ( -1.0000000  0.0000000  0.0000000 )


      isym = 37     inv. 180 deg rotation - cart. axis [0,1,1]   

 cryst.   s(37) = (     1         -1          0      )
                  (     0         -1          0      )
                  (     0         -1          1      )

 cart.    s(37) = (  1.0000000  0.0000000  0.0000000 )
                  (  0.0000000  0.0000000 -1.0000000 )
                  (  0.0000000 -1.0000000  0.0000000 )


      isym = 38     inv. 180 deg rotation - cart. axis [0,1,-1]  

 cryst.   s(38) = (     0          0          1      )
                  (     0          1          0      )
                  (     1          0          0      )

 cart.    s(38) = (  1.0000000  0.0000000  0.0000000 )
                  (  0.0000000  0.0000000  1.0000000 )
                  (  0.0000000  1.0000000  0.0000000 )


      isym = 39     inv.  90 deg rotation - cart. axis [-1,0,0]  

 cryst.   s(39) = (     0          0         -1      )
                  (     1          0         -1      )
                  (     0          1         -1      )

 cart.    s(39) = ( -1.0000000  0.0000000  0.0000000 )
                  (  0.0000000  0.0000000 -1.0000000 )
                  (  0.0000000  1.0000000  0.0000000 )


      isym = 40     inv.  90 deg rotation - cart. axis [1,0,0]   

 cryst.   s(40) = (    -1          1          0      )
                  (    -1          0          1      )
                  (    -1          0          0      )

 cart.    s(40) = ( -1.0000000  0.0000000  0.0000000 )
                  (  0.0000000  0.0000000  1.0000000 )
                  (  0.0000000 -1.0000000  0.0000000 )


      isym = 41     inv. 120 deg rotation - cart. axis [-1,-1,-1]

 cryst.   s(41) = (     1          0         -1      )    f =(  0.2500000 )
                  (     1         -1          0      )       (  0.2500000 )
                  (     1          0          0      )       (  0.2500000 )

 cart.    s(41) = (  0.0000000 -1.0000000  0.0000000 )    f =( -0.2500000 )
                  (  0.0000000  0.0000000 -1.0000000 )       (  0.2500000 )
                  ( -1.0000000  0.0000000  0.0000000 )       (  0.2500000 )


      isym = 42     inv. 120 deg rotation - cart. axis [-1,1,1]  

 cryst.   s(42) = (     0         -1          0      )    f =(  0.2500000 )
                  (     0          0         -1      )       (  0.2500000 )
                  (    -1          0          0      )       (  0.2500000 )

 cart.    s(42) = (  0.0000000  1.0000000  0.0000000 )    f =( -0.2500000 )
                  (  0.0000000  0.0000000 -1.0000000 )       (  0.2500000 )
                  (  1.0000000  0.0000000  0.0000000 )       (  0.2500000 )


      isym = 43     inv. 120 deg rotation - cart. axis [1,1,-1]  

 cryst.   s(43) = (    -1          0          1      )    f =(  0.2500000 )
                  (     0          0          1      )       (  0.2500000 )
                  (     0         -1          1      )       (  0.2500000 )

 cart.    s(43) = (  0.0000000 -1.0000000  0.0000000 )    f =( -0.2500000 )
                  (  0.0000000  0.0000000  1.0000000 )       (  0.2500000 )
                  (  1.0000000  0.0000000  0.0000000 )       (  0.2500000 )


      isym = 44     inv. 120 deg rotation - cart. axis [1,-1,1]  

 cryst.   s(44) = (     0          1          0      )    f =(  0.2500000 )
                  (    -1          1          0      )       (  0.2500000 )
                  (     0          1         -1      )       (  0.2500000 )

 cart.    s(44) = (  0.0000000  1.0000000  0.0000000 )    f =( -0.2500000 )
                  (  0.0000000  0.0000000  1.0000000 )       (  0.2500000 )
                  ( -1.0000000  0.0000000  0.0000000 )       (  0.2500000 )


      isym = 45     inv. 120 deg rotation - cart. axis [1,1,1]   

 cryst.   s(45) = (     0          0          1      )    f =(  0.2500000 )
                  (     0         -1          1      )       (  0.2500000 )
                  (    -1          0          1      )       (  0.2500000 )

 cart.    s(45) = (  0.0000000  0.0000000 -1.0000000 )    f =( -0.2500000 )
                  ( -1.0000000  0.0000000  0.0000000 )       (  0.2500000 )
                  (  0.0000000 -1.0000000  0.0000000 )       (  0.2500000 )


      isym = 46     inv. 120 deg rotation - cart. axis [-1,1,-1] 

 cryst.   s(46) = (     1         -1          0      )    f =(  0.2500000 )
                  (     1          0          0      )       (  0.2500000 )
                  (     1          0         -1      )       (  0.2500000 )

 cart.    s(46) = (  0.0000000  0.0000000 -1.0000000 )    f =( -0.2500000 )
                  (  1.0000000  0.0000000  0.0000000 )       (  0.2500000 )
                  (  0.0000000  1.0000000  0.0000000 )       (  0.2500000 )


      isym = 47     inv. 120 deg rotation - cart. axis [1,-1,-1] 

 cryst.   s(47) = (     0          0         -1      )    f =(  0.2500000 )
                  (    -1          0          0      )       (  0.2500000 )
                  (     0         -1          0      )       (  0.2500000 )

 cart.    s(47) = (  0.0000000  0.0000000  1.0000000 )    f =( -0.2500000 )
                  (  1.0000000  0.0000000  0.0000000 )       (  0.2500000 )
                  (  0.0000000 -1.0000000  0.0000000 )       (  0.2500000 )


      isym = 48     inv. 120 deg rotation - cart. axis [-1,-1,1] 

 cryst.   s(48) = (    -1          1          0      )    f =(  0.2500000 )
                  (     0          1         -1      )       (  0.2500000 )
                  (     0          1          0      )       (  0.2500000 )

 cart.    s(48) = (  0.0000000  0.0000000  1.0000000 )    f =( -0.2500000 )
                  ( -1.0000000  0.0000000  0.0000000 )       (  0.2500000 )
                  (  0.0000000  1.0000000  0.0000000 )       (  0.2500000 )


     point group O_h (m-3m) 
     there are 10 classes
     the character table:

       E     8C3   3C2   6C4   6C2'  i     8S6   3s_h  6S4   6s_d 
A_1g   1.00  1.00  1.00  1.00  1.00  1.00  1.00  1.00  1.00  1.00
A_2g   1.00  1.00  1.00 -1.00 -1.00  1.00  1.00  1.00 -1.00 -1.00
E_g    2.00 -1.00  2.00  0.00  0.00  2.00 -1.00  2.00  0.00  0.00
T_1g   3.00  0.00 -1.00  1.00 -1.00  3.00  0.00 -1.00  1.00 -1.00
T_2g   3.00  0.00 -1.00 -1.00  1.00  3.00  0.00 -1.00 -1.00  1.00
A_1u   1.00  1.00  1.00  1.00  1.00 -1.00 -1.00 -1.00 -1.00 -1.00
A_2u   1.00  1.00  1.00 -1.00 -1.00 -1.00 -1.00 -1.00  1.00  1.00
E_u    2.00 -1.00  2.00  0.00  0.00 -2.00  1.00 -2.00  0.00  0.00
T_1u   3.00  0.00 -1.00  1.00 -1.00 -3.00  0.00  1.00 -1.00  1.00
T_2u   3.00  0.00 -1.00 -1.00  1.00 -3.00  0.00  1.00  1.00 -1.00

     the symmetry operations in each class and the name of the first element:

     E        1
          identity                                               
     8C3     17   19   20   18   24   21   22   23
          120 deg rotation - cart. axis [-1,-1,-1]               
     3C2      2    4    3
          180 deg rotation - cart. axis [0,0,1]                  
     6C4      7    8   15   16   12   11
           90 deg rotation - cart. axis [0,0,-1]                 
     6C2'     5    6   14   13   10    9
          180 deg rotation - cart. axis [1,1,0]                  
     i       25
          inversion                                              
     8S6     41   43   44   42   48   45   46   47
          inv. 120 deg rotation - cart. axis [-1,-1,-1]          
     3s_h    26   28   27
          inv. 180 deg rotation - cart. axis [0,0,1]             
     6S4     31   32   39   40   36   35
          inv.  90 deg rotation - cart. axis [0,0,-1]            
     6s_d    29   30   38   37   34   33
          inv. 180 deg rotation - cart. axis [1,1,0]             

   Cartesian axes

     site n.     atom                  positions (alat units)
         1        Si     tau(   1) = (   0.0000000   0.0000000   0.0000000  )
         2        Si     tau(   2) = (   0.2500000   0.2500000   0.2500000  )

   Crystallographic axes

     site n.     atom                  positions (cryst. coord.)
         1        Si     tau(   1) = (  0.0000000  0.0000000  0.0000000  )
         2        Si     tau(   2) = ( -0.2500000  0.7500000 -0.2500000  )

     number of k points=   101
                       cart. coord. in units 2pi/alat
        k(    1) = (   0.7000000   0.0000000   0.0000000), wk =   0.0198020
        k(    2) = (   0.7025000   0.0000000   0.0000000), wk =   0.0198020
        k(    3) = (   0.7050000   0.0000000   0.0000000), wk =   0.0198020
        k(    4) = (   0.7075000   0.0000000   0.0000000), wk =   0.0198020
        k(    5) = (   0.7100000   0.0000000   0.0000000), wk =   0.0198020
        k(    6) = (   0.7125000   0.0000000   0.0000000), wk =   0.0198020
        k(    7) = (   0.7150000   0.0000000   0.0000000), wk =   0.0198020
        k(    8) = (   0.7175000   0.0000000   0.0000000), wk =   0.0198020
        k(    9) = (   0.7200000   0.0000000   0.0000000), wk =   0.0198020
        k(   10) = (   0.7225000   0.0000000   0.0000000), wk =   0.0198020
        k(   11) = (   0.7250000   0.0000000   0.0000000), wk =   0.0198020
        k(   12) = (   0.7275000   0.0000000   0.0000000), wk =   0.0198020
        k(   13) = (   0.7300000   0.0000000   0.0000000), wk =   0.0198020
        k(   14) = (   0.7325000   0.0000000   0.0000000), wk =   0.0198020
        k(   15) = (   0.7350000   0.0000000   0.0000000), wk =   0.0198020
        k(   16) = (   0.7375000   0.0000000   0.0000000), wk =   0.0198020
        k(   17) = (   0.7400000   0.0000000   0.0000000), wk =   0.0198020
        k(   18) = (   0.7425000   0.0000000   0.0000000), wk =   0.0198020
        k(   19) = (   0.7450000   0.0000000   0.0000000), wk =   0.0198020
        k(   20) = (   0.7475000   0.0000000   0.0000000), wk =   0.0198020
        k(   21) = (   0.7500000   0.0000000   0.0000000), wk =   0.0198020
        k(   22) = (   0.7525000   0.0000000   0.0000000), wk =   0.0198020
        k(   23) = (   0.7550000   0.0000000   0.0000000), wk =   0.0198020
        k(   24) = (   0.7575000   0.0000000   0.0000000), wk =   0.0198020
        k(   25) = (   0.7600000   0.0000000   0.0000000), wk =   0.0198020
        k(   26) = (   0.7625000   0.0000000   0.0000000), wk =   0.0198020
        k(   27) = (   0.7650000   0.0000000   0.0000000), wk =   0.0198020
        k(   28) = (   0.7675000   0.0000000   0.0000000), wk =   0.0198020
        k(   29) = (   0.7700000   0.0000000   0.0000000), wk =   0.0198020
        k(   30) = (   0.7725000   0.0000000   0.0000000), wk =   0.0198020
        k(   31) = (   0.7750000   0.0000000   0.0000000), wk =   0.0198020
        k(   32) = (   0.7775000   0.0000000   0.0000000), wk =   0.0198020
        k(   33) = (   0.7800000   0.0000000   0.0000000), wk =   0.0198020
        k(   34) = (   0.7825000   0.0000000   0.0000000), wk =   0.0198020
        k(   35) = (   0.7850000   0.0000000   0.0000000), wk =   0.0198020
        k(   36) = (   0.7875000   0.0000000   0.0000000), wk =   0.0198020
        k(   37) = (   0.7900000   0.0000000   0.0000000), wk =   0.0198020
        k(   38) = (   0.7925000   0.0000000   0.0000000), wk =   0.0198020
        k(   39) = (   0.7950000   0.0000000   0.0000000), wk =   0.0198020
        k(   40) = (   0.7975000   0.0000000   0.0000000), wk =   0.0198020
        k(   41) = (   0.8000000   0.0000000   0.0000000), wk =   0.0198020
        k(   42) = (   0.8025000   0.0000000   0.0000000), wk =   0.0198020
        k(   43) = (   0.8050000   0.0000000   0.0000000), wk =   0.0198020
        k(   44) = (   0.8075000   0.0000000   0.0000000), wk =   0.0198020
        k(   45) = (   0.8100000   0.0000000   0.0000000), wk =   0.0198020
        k(   46) = (   0.8125000   0.0000000   0.0000000), wk =   0.0198020
        k(   47) = (   0.8150000   0.0000000   0.0000000), wk =   0.0198020
        k(   48) = (   0.8175000   0.0000000   0.0000000), wk =   0.0198020
        k(   49) = (   0.8200000   0.0000000   0.0000000), wk =   0.0198020
        k(   50) = (   0.8225000   0.0000000   0.0000000), wk =   0.0198020
        k(   51) = (   0.8250000   0.0000000   0.0000000), wk =   0.0198020
        k(   52) = (   0.8275000   0.0000000   0.0000000), wk =   0.0198020
        k(   53) = (   0.8300000   0.0000000   0.0000000), wk =   0.0198020
        k(   54) = (   0.8325000   0.0000000   0.0000000), wk =   0.0198020
        k(   55) = (   0.8350000   0.0000000   0.0000000), wk =   0.0198020
        k(   56) = (   0.8375000   0.0000000   0.0000000), wk =   0.0198020
        k(   57) = (   0.8400000   0.0000000   0.0000000), wk =   0.0198020
        k(   58) = (   0.8425000   0.0000000   0.0000000), wk =   0.0198020
        k(   59) = (   0.8450000   0.0000000   0.0000000), wk =   0.0198020
        k(   60) = (   0.8475000   0.0000000   0.0000000), wk =   0.0198020
        k(   61) = (   0.8500000   0.0000000   0.0000000), wk =   0.0198020
        k(   62) = (   0.8525000   0.0000000   0.0000000), wk =   0.0198020
        k(   63) = (   0.8550000   0.0000000   0.0000000), wk =   0.0198020
        k(   64) = (   0.8575000   0.0000000   0.0000000), wk =   0.0198020
        k(   65) = (   0.8600000   0.0000000   0.0000000), wk =   0.0198020
        k(   66) = (   0.8625000   0.0000000   0.0000000), wk =   0.0198020
        k(   67) = (   0.8650000   0.0000000   0.0000000), wk =   0.0198020
        k(   68) = (   0.8675000   0.0000000   0.0000000), wk =   0.0198020
        k(   69) = (   0.8700000   0.0000000   0.0000000), wk =   0.0198020
        k(   70) = (   0.8725000   0.0000000   0.0000000), wk =   0.0198020
        k(   71) = (   0.8750000   0.0000000   0.0000000), wk =   0.0198020
        k(   72) = (   0.8775000   0.0000000   0.0000000), wk =   0.0198020
        k(   73) = (   0.8800000   0.0000000   0.0000000), wk =   0.0198020
        k(   74) = (   0.8825000   0.0000000   0.0000000), wk =   0.0198020
        k(   75) = (   0.8850000   0.0000000   0.0000000), wk =   0.0198020
        k(   76) = (   0.8875000   0.0000000   0.0000000), wk =   0.0198020
        k(   77) = (   0.8900000   0.0000000   0.0000000), wk =   0.0198020
        k(   78) = (   0.8925000   0.0000000   0.0000000), wk =   0.0198020
        k(   79) = (   0.8950000   0.0000000   0.0000000), wk =   0.0198020
        k(   80) = (   0.8975000   0.0000000   0.0000000), wk =   0.0198020
        k(   81) = (   0.9000000   0.0000000   0.0000000), wk =   0.0198020
        k(   82) = (   0.9025000   0.0000000   0.0000000), wk =   0.0198020
        k(   83) = (   0.9050000   0.0000000   0.0000000), wk =   0.0198020
        k(   84) = (   0.9075000   0.0000000   0.0000000), wk =   0.0198020
        k(   85) = (   0.9100000   0.0000000   0.0000000), wk =   0.0198020
        k(   86) = (   0.9125000   0.0000000   0.0000000), wk =   0.0198020
        k(   87) = (   0.9150000   0.0000000   0.0000000), wk =   0.0198020
        k(   88) = (   0.9175000   0.0000000   0.0000000), wk =   0.0198020
        k(   89) = (   0.9200000   0.0000000   0.0000000), wk =   0.0198020
        k(   90) = (   0.9225000   0.0000000   0.0000000), wk =   0.0198020
        k(   91) = (   0.9250000   0.0000000   0.0000000), wk =   0.0198020
        k(   92) = (   0.9275000   0.0000000   0.0000000), wk =   0.0198020
        k(   93) = (   0.9300000   0.0000000   0.0000000), wk =   0.0198020
        k(   94) = (   0.9325000   0.0000000   0.0000000), wk =   0.0198020
        k(   95) = (   0.9350000   0.0000000   0.0000000), wk =   0.0198020
        k(   96) = (   0.9375000   0.0000000   0.0000000), wk =   0.0198020
        k(   97) = (   0.9400000   0.0000000   0.0000000), wk =   0.0198020
        k(   98) = (   0.9425000   0.0000000   0.0000000), wk =   0.0198020
        k(   99) = (   0.9450000   0.0000000   0.0000000), wk =   0.0198020
        k(  100) = (   0.9475000   0.0000000   0.0000000), wk =   0.0198020
        k(  101) = (   0.9500000   0.0000000   0.0000000), wk =   0.0198020

                       cryst. coord.
        k(    1) = (  -0.3500000   0.0000000  -0.3500000), wk =   0.0198020
        k(    2) = (  -0.3512500   0.0000000  -0.3512500), wk =   0.0198020
        k(    3) = (  -0.3525000   0.0000000  -0.3525000), wk =   0.0198020
        k(    4) = (  -0.3537500   0.0000000  -0.3537500), wk =   0.0198020
        k(    5) = (  -0.3550000   0.0000000  -0.3550000), wk =   0.0198020
        k(    6) = (  -0.3562500   0.0000000  -0.3562500), wk =   0.0198020
        k(    7) = (  -0.3575000   0.0000000  -0.3575000), wk =   0.0198020
        k(    8) = (  -0.3587500   0.0000000  -0.3587500), wk =   0.0198020
        k(    9) = (  -0.3600000   0.0000000  -0.3600000), wk =   0.0198020
        k(   10) = (  -0.3612500   0.0000000  -0.3612500), wk =   0.0198020
        k(   11) = (  -0.3625000   0.0000000  -0.3625000), wk =   0.0198020
        k(   12) = (  -0.3637500   0.0000000  -0.3637500), wk =   0.0198020
        k(   13) = (  -0.3650000   0.0000000  -0.3650000), wk =   0.0198020
        k(   14) = (  -0.3662500   0.0000000  -0.3662500), wk =   0.0198020
        k(   15) = (  -0.3675000   0.0000000  -0.3675000), wk =   0.0198020
        k(   16) = (  -0.3687500   0.0000000  -0.3687500), wk =   0.0198020
        k(   17) = (  -0.3700000   0.0000000  -0.3700000), wk =   0.0198020
        k(   18) = (  -0.3712500   0.0000000  -0.3712500), wk =   0.0198020
        k(   19) = (  -0.3725000   0.0000000  -0.3725000), wk =   0.0198020
        k(   20) = (  -0.3737500   0.0000000  -0.3737500), wk =   0.0198020
        k(   21) = (  -0.3750000   0.0000000  -0.3750000), wk =   0.0198020
        k(   22) = (  -0.3762500   0.0000000  -0.3762500), wk =   0.0198020
        k(   23) = (  -0.3775000   0.0000000  -0.3775000), wk =   0.0198020
        k(   24) = (  -0.3787500   0.0000000  -0.3787500), wk =   0.0198020
        k(   25) = (  -0.3800000   0.0000000  -0.3800000), wk =   0.0198020
        k(   26) = (  -0.3812500   0.0000000  -0.3812500), wk =   0.0198020
        k(   27) = (  -0.3825000   0.0000000  -0.3825000), wk =   0.0198020
        k(   28) = (  -0.3837500   0.0000000  -0.3837500), wk =   0.0198020
        k(   29) = (  -0.3850000   0.0000000  -0.3850000), wk =   0.0198020
        k(   30) = (  -0.3862500   0.0000000  -0.3862500), wk =   0.0198020
        k(   31) = (  -0.3875000   0.0000000  -0.3875000), wk =   0.0198020
        k(   32) = (  -0.3887500   0.0000000  -0.3887500), wk =   0.0198020
        k(   33) = (  -0.3900000   0.0000000  -0.3900000), wk =   0.0198020
        k(   34) = (  -0.3912500   0.0000000  -0.3912500), wk =   0.0198020
        k(   35) = (  -0.3925000   0.0000000  -0.3925000), wk =   0.0198020
        k(   36) = (  -0.3937500   0.0000000  -0.3937500), wk =   0.0198020
        k(   37) = (  -0.3950000   0.0000000  -0.3950000), wk =   0.0198020
        k(   38) = (  -0.3962500   0.0000000  -0.3962500), wk =   0.0198020
        k(   39) = (  -0.3975000   0.0000000  -0.3975000), wk =   0.0198020
        k(   40) = (  -0.3987500   0.0000000  -0.3987500), wk =   0.0198020
        k(   41) = (  -0.4000000   0.0000000  -0.4000000), wk =   0.0198020
        k(   42) = (  -0.4012500   0.0000000  -0.4012500), wk =   0.0198020
        k(   43) = (  -0.4025000   0.0000000  -0.4025000), wk =   0.0198020
        k(   44) = (  -0.4037500   0.0000000  -0.4037500), wk =   0.0198020
        k(   45) = (  -0.4050000   0.0000000  -0.4050000), wk =   0.0198020
        k(   46) = (  -0.4062500   0.0000000  -0.4062500), wk =   0.0198020
        k(   47) = (  -0.4075000   0.0000000  -0.4075000), wk =   0.0198020
        k(   48) = (  -0.4087500   0.0000000  -0.4087500), wk =   0.0198020
        k(   49) = (  -0.4100000   0.0000000  -0.4100000), wk =   0.0198020
        k(   50) = (  -0.4112500   0.0000000  -0.4112500), wk =   0.0198020
        k(   51) = (  -0.4125000   0.0000000  -0.4125000), wk =   0.0198020
        k(   52) = (  -0.4137500   0.0000000  -0.4137500), wk =   0.0198020
        k(   53) = (  -0.4150000   0.0000000  -0.4150000), wk =   0.0198020
        k(   54) = (  -0.4162500   0.0000000  -0.4162500), wk =   0.0198020
        k(   55) = (  -0.4175000   0.0000000  -0.4175000), wk =   0.0198020
        k(   56) = (  -0.4187500   0.0000000  -0.4187500), wk =   0.0198020
        k(   57) = (  -0.4200000   0.0000000  -0.4200000), wk =   0.0198020
        k(   58) = (  -0.4212500   0.0000000  -0.4212500), wk =   0.0198020
        k(   59) = (  -0.4225000   0.0000000  -0.4225000), wk =   0.0198020
        k(   60) = (  -0.4237500   0.0000000  -0.4237500), wk =   0.0198020
        k(   61) = (  -0.4250000   0.0000000  -0.4250000), wk =   0.0198020
        k(   62) = (  -0.4262500   0.0000000  -0.4262500), wk =   0.0198020
        k(   63) = (  -0.4275000   0.0000000  -0.4275000), wk =   0.0198020
        k(   64) = (  -0.4287500   0.0000000  -0.4287500), wk =   0.0198020
        k(   65) = (  -0.4300000   0.0000000  -0.4300000), wk =   0.0198020
        k(   66) = (  -0.4312500   0.0000000  -0.4312500), wk =   0.0198020
        k(   67) = (  -0.4325000   0.0000000  -0.4325000), wk =   0.0198020
        k(   68) = (  -0.4337500   0.0000000  -0.4337500), wk =   0.0198020
        k(   69) = (  -0.4350000   0.0000000  -0.4350000), wk =   0.0198020
        k(   70) = (  -0.4362500   0.0000000  -0.4362500), wk =   0.0198020
        k(   71) = (  -0.4375000   0.0000000  -0.4375000), wk =   0.0198020
        k(   72) = (  -0.4387500   0.0000000  -0.4387500), wk =   0.0198020
        k(   73) = (  -0.4400000   0.0000000  -0.4400000), wk =   0.0198020
        k(   74) = (  -0.4412500   0.0000000  -0.4412500), wk =   0.0198020
        k(   75) = (  -0.4425000   0.0000000  -0.4425000), wk =   0.0198020
        k(   76) = (  -0.4437500   0.0000000  -0.4437500), wk =   0.0198020
        k(   77) = (  -0.4450000   0.0000000  -0.4450000), wk =   0.0198020
        k(   78) = (  -0.4462500   0.0000000  -0.4462500), wk =   0.0198020
        k(   79) = (  -0.4475000   0.0000000  -0.4475000), wk =   0.0198020
        k(   80) = (  -0.4487500   0.0000000  -0.4487500), wk =   0.0198020
        k(   81) = (  -0.4500000   0.0000000  -0.4500000), wk =   0.0198020
        k(   82) = (  -0.4512500   0.0000000  -0.4512500), wk =   0.0198020
        k(   83) = (  -0.4525000   0.0000000  -0.4525000), wk =   0.0198020
        k(   84) = (  -0.4537500   0.0000000  -0.4537500), wk =   0.0198020
        k(   85) = (  -0.4550000   0.0000000  -0.4550000), wk =   0.0198020
        k(   86) = (  -0.4562500   0.0000000  -0.4562500), wk =   0.0198020
        k(   87) = (  -0.4575000   0.0000000  -0.4575000), wk =   0.0198020
        k(   88) = (  -0.4587500   0.0000000  -0.4587500), wk =   0.0198020
        k(   89) = (  -0.4600000   0.0000000  -0.4600000), wk =   0.0198020
        k(   90) = (  -0.4612500   0.0000000  -0.4612500), wk =   0.0198020
        k(   91) = (  -0.4625000   0.0000000  -0.4625000), wk =   0.0198020
        k(   92) = (  -0.4637500   0.0000000  -0.4637500), wk =   0.0198020
        k(   93) = (  -0.4650000   0.0000000  -0.4650000), wk =   0.0198020
        k(   94) = (  -0.4662500   0.0000000  -0.4662500), wk =   0.0198020
        k(   95) = (  -0.4675000   0.0000000  -0.4675000), wk =   0.0198020
        k(   96) = (  -0.4687500   0.0000000  -0.4687500), wk =   0.0198020
        k(   97) = (  -0.4700000   0.0000000  -0.4700000), wk =   0.0198020
        k(   98) = (  -0.4712500   0.0000000  -0.4712500), wk =   0.0198020
        k(   99) = (  -0.4725000   0.0000000  -0.4725000), wk =   0.0198020
        k(  100) = (  -0.4737500   0.0000000  -0.4737500), wk =   0.0198020
        k(  101) = (  -0.4750000   0.0000000  -0.4750000), wk =   0.0198020

     Dense  grid:    72377 G-vectors     FFT dimensions: (  60,  60,  60)

     Smooth grid:    16625 G-vectors     FFT dimensions: (  36,  36,  36)

     Dynamical RAM for                 wfc:       0.06 MB

     Dynamical RAM for     wfc (w. buffer):       0.06 MB

     Dynamical RAM for           str. fact:       0.28 MB

     Dynamical RAM for           local pot:       0.00 MB

     Dynamical RAM for          nlocal pot:       0.29 MB

     Dynamical RAM for                qrad:       2.03 MB

     Dynamical RAM for          rho,v,vnew:       2.06 MB

     Dynamical RAM for           G-vectors:       1.07 MB

     Dynamical RAM for          h,s,v(r/c):       0.01 MB

     Dynamical RAM for          <psi|beta>:       0.00 MB

     Dynamical RAM for                 psi:       0.13 MB

     Dynamical RAM for                hpsi:       0.13 MB

     Dynamical RAM for                spsi:       0.13 MB

     Dynamical RAM for      wfcinit/wfcrot:       0.13 MB

     Dynamical RAM for           addusdens:      51.91 MB

     Estimated static dynamical RAM per process >       8.40 MB

     Estimated max dynamical RAM per process >      60.31 MB

     Estimated total dynamical RAM >     241.22 MB

     The potential is recalculated from file :
     ./tmp/si.save/charge-density

     Starting wfcs are    8 randomized atomic wfcs

     Band Structure Calculation
     Davidson diagonalization with overlap

     Computing kpt #:     1  of   101
     total cpu time spent up to now is        1.1 secs

     Computing kpt #:     2  of   101
     total cpu time spent up to now is        1.3 secs

     Computing kpt #:     3  of   101
     total cpu time spent up to now is        1.5 secs

     Computing kpt #:     4  of   101
     total cpu time spent up to now is        1.6 secs

     Computing kpt #:     5  of   101
     total cpu time spent up to now is        1.8 secs

     Computing kpt #:     6  of   101
     total cpu time spent up to now is        1.9 secs

     Computing kpt #:     7  of   101
     total cpu time spent up to now is        2.1 secs

     Computing kpt #:     8  of   101
     total cpu time spent up to now is        2.3 secs

     Computing kpt #:     9  of   101
     total cpu time spent up to now is        2.4 secs

     Computing kpt #:    10  of   101
     total cpu time spent up to now is        2.6 secs

     Computing kpt #:    11  of   101
     total cpu time spent up to now is        2.8 secs

     Computing kpt #:    12  of   101
     total cpu time spent up to now is        2.9 secs

     Computing kpt #:    13  of   101
     total cpu time spent up to now is        3.1 secs

     Computing kpt #:    14  of   101
     total cpu time spent up to now is        3.3 secs

     Computing kpt #:    15  of   101
     total cpu time spent up to now is        3.4 secs

     Computing kpt #:    16  of   101
     total cpu time spent up to now is        3.6 secs

     Computing kpt #:    17  of   101
     total cpu time spent up to now is        3.8 secs

     Computing kpt #:    18  of   101
     total cpu time spent up to now is        3.9 secs

     Computing kpt #:    19  of   101
     total cpu time spent up to now is        4.1 secs

     Computing kpt #:    20  of   101
     total cpu time spent up to now is        4.3 secs

     Computing kpt #:    21  of   101
     total cpu time spent up to now is        4.4 secs

     Computing kpt #:    22  of   101
     total cpu time spent up to now is        4.6 secs

     Computing kpt #:    23  of   101
     total cpu time spent up to now is        4.8 secs

     Computing kpt #:    24  of   101
     total cpu time spent up to now is        4.9 secs

     Computing kpt #:    25  of   101
     total cpu time spent up to now is        5.1 secs

     Computing kpt #:    26  of   101
     total cpu time spent up to now is        5.3 secs

     Computing kpt #:    27  of   101
     total cpu time spent up to now is        5.4 secs

     Computing kpt #:    28  of   101
     total cpu time spent up to now is        5.6 secs

     Computing kpt #:    29  of   101
     total cpu time spent up to now is        5.8 secs

     Computing kpt #:    30  of   101
     total cpu time spent up to now is        5.9 secs

     Computing kpt #:    31  of   101
     total cpu time spent up to now is        6.1 secs

     Computing kpt #:    32  of   101
     total cpu time spent up to now is        6.3 secs

     Computing kpt #:    33  of   101
     total cpu time spent up to now is        6.5 secs

     Computing kpt #:    34  of   101
     total cpu time spent up to now is        6.6 secs

     Computing kpt #:    35  of   101
     total cpu time spent up to now is        6.8 secs

     Computing kpt #:    36  of   101
     total cpu time spent up to now is        7.0 secs

     Computing kpt #:    37  of   101
     total cpu time spent up to now is        7.1 secs

     Computing kpt #:    38  of   101
     total cpu time spent up to now is        7.3 secs

     Computing kpt #:    39  of   101
     total cpu time spent up to now is        7.5 secs

     Computing kpt #:    40  of   101
     total cpu time spent up to now is        7.7 secs

     Computing kpt #:    41  of   101
     total cpu time spent up to now is        7.8 secs

     Computing kpt #:    42  of   101
     total cpu time spent up to now is        8.0 secs

     Computing kpt #:    43  of   101
     total cpu time spent up to now is        8.2 secs

     Computing kpt #:    44  of   101
     total cpu time spent up to now is        8.3 secs

     Computing kpt #:    45  of   101
     total cpu time spent up to now is        8.5 secs

     Computing kpt #:    46  of   101
     total cpu time spent up to now is        8.7 secs

     Computing kpt #:    47  of   101
     total cpu time spent up to now is        8.9 secs

     Computing kpt #:    48  of   101
     total cpu time spent up to now is        9.0 secs

     Computing kpt #:    49  of   101
     total cpu time spent up to now is        9.2 secs

     Computing kpt #:    50  of   101
     total cpu time spent up to now is        9.4 secs

     Computing kpt #:    51  of   101
     total cpu time spent up to now is        9.6 secs

     Computing kpt #:    52  of   101
     total cpu time spent up to now is        9.8 secs

     Computing kpt #:    53  of   101
     total cpu time spent up to now is        9.9 secs

     Computing kpt #:    54  of   101
     total cpu time spent up to now is       10.1 secs

     Computing kpt #:    55  of   101
     total cpu time spent up to now is       10.3 secs

     Computing kpt #:    56  of   101
     total cpu time spent up to now is       10.5 secs

     Computing kpt #:    57  of   101
     total cpu time spent up to now is       10.7 secs

     Computing kpt #:    58  of   101
     total cpu time spent up to now is       10.9 secs

     Computing kpt #:    59  of   101
     total cpu time spent up to now is       11.0 secs

     Computing kpt #:    60  of   101
     total cpu time spent up to now is       11.2 secs

     Computing kpt #:    61  of   101
     total cpu time spent up to now is       11.4 secs

     Computing kpt #:    62  of   101
     total cpu time spent up to now is       11.6 secs

     Computing kpt #:    63  of   101
     total cpu time spent up to now is       11.8 secs

     Computing kpt #:    64  of   101
     total cpu time spent up to now is       12.0 secs

     Computing kpt #:    65  of   101
     total cpu time spent up to now is       12.1 secs

     Computing kpt #:    66  of   101
     total cpu time spent up to now is       12.3 secs

     Computing kpt #:    67  of   101
     total cpu time spent up to now is       12.5 secs

     Computing kpt #:    68  of   101
     total cpu time spent up to now is       12.7 secs

     Computing kpt #:    69  of   101
     total cpu time spent up to now is       12.9 secs

     Computing kpt #:    70  of   101
     total cpu time spent up to now is       13.1 secs

     Computing kpt #:    71  of   101
     total cpu time spent up to now is       13.3 secs

     Computing kpt #:    72  of   101
     total cpu time spent up to now is       13.5 secs

     Computing kpt #:    73  of   101
     total cpu time spent up to now is       13.7 secs

     Computing kpt #:    74  of   101
     total cpu time spent up to now is       13.9 secs

     Computing kpt #:    75  of   101
     total cpu time spent up to now is       14.1 secs

     Computing kpt #:    76  of   101
     total cpu time spent up to now is       14.3 secs

     Computing kpt #:    77  of   101
     total cpu time spent up to now is       14.5 secs

     Computing kpt #:    78  of   101
     total cpu time spent up to now is       14.7 secs

     Computing kpt #:    79  of   101
     total cpu time spent up to now is       14.9 secs

     Computing kpt #:    80  of   101
     total cpu time spent up to now is       15.1 secs

     Computing kpt #:    81  of   101
     total cpu time spent up to now is       15.3 secs

     Computing kpt #:    82  of   101
     total cpu time spent up to now is       15.5 secs

     Computing kpt #:    83  of   101
     total cpu time spent up to now is       15.7 secs

     Computing kpt #:    84  of   101
     total cpu time spent up to now is       15.9 secs

     Computing kpt #:    85  of   101
     total cpu time spent up to now is       16.1 secs

     Computing kpt #:    86  of   101
     total cpu time spent up to now is       16.3 secs

     Computing kpt #:    87  of   101
     total cpu time spent up to now is       16.5 secs

     Computing kpt #:    88  of   101
     total cpu time spent up to now is       16.7 secs

     Computing kpt #:    89  of   101
     total cpu time spent up to now is       16.9 secs

     Computing kpt #:    90  of   101
     total cpu time spent up to now is       17.1 secs

     Computing kpt #:    91  of   101
     total cpu time spent up to now is       17.3 secs

     Computing kpt #:    92  of   101
     total cpu time spent up to now is       17.5 secs

     Computing kpt #:    93  of   101
     total cpu time spent up to now is       17.7 secs

     Computing kpt #:    94  of   101
     total cpu time spent up to now is       17.9 secs

     Computing kpt #:    95  of   101
     total cpu time spent up to now is       18.1 secs

     Computing kpt #:    96  of   101
     total cpu time spent up to now is       18.3 secs

     Computing kpt #:    97  of   101
     total cpu time spent up to now is       18.5 secs

     Computing kpt #:    98  of   101
     total cpu time spent up to now is       18.7 secs

     Computing kpt #:    99  of   101
     total cpu time spent up to now is       18.9 secs

     Computing kpt #:   100  of   101
     total cpu time spent up to now is       19.1 secs

     Computing kpt #:   101  of   101
     total cpu time spent up to now is       19.3 secs

     ethr =  1.00E-13,  avg # of iterations = 40.2

     total cpu time spent up to now is       19.3 secs

     End of band structure calculation

          k = 0.7000 0.0000 0.0000 (  2080 PWs)   bands (ev):

    -3.5666   1.0667   3.8511   3.8511   7.0436   8.1701  14.0542  14.0542

          k = 0.7025 0.0000 0.0000 (  2080 PWs)   bands (ev):

    -3.5518   1.0443   3.8452   3.8452   7.0400   8.1561  14.0778  14.0778

          k = 0.7050 0.0000 0.0000 (  2072 PWs)   bands (ev):

    -3.5369   1.0219   3.8394   3.8394   7.0364   8.1422  14.1014  14.1014

          k = 0.7075 0.0000 0.0000 (  2072 PWs)   bands (ev):

    -3.5220   0.9995   3.8336   3.8336   7.0329   8.1284  14.1250  14.1250

          k = 0.7100 0.0000 0.0000 (  2072 PWs)   bands (ev):

    -3.5071   0.9772   3.8279   3.8279   7.0294   8.1147  14.1486  14.1486

          k = 0.7125 0.0000 0.0000 (  2072 PWs)   bands (ev):

    -3.4921   0.9548   3.8222   3.8222   7.0261   8.1011  14.1722  14.1722

          k = 0.7150 0.0000 0.0000 (  2072 PWs)   bands (ev):

    -3.4770   0.9325   3.8165   3.8165   7.0227   8.0875  14.1959  14.1959

          k = 0.7175 0.0000 0.0000 (  2072 PWs)   bands (ev):

    -3.4619   0.9102   3.8109   3.8109   7.0194   8.0741  14.2196  14.2196

          k = 0.7200 0.0000 0.0000 (  2076 PWs)   bands (ev):

    -3.4468   0.8879   3.8053   3.8053   7.0162   8.0607  14.2432  14.2432

          k = 0.7225 0.0000 0.0000 (  2076 PWs)   bands (ev):

    -3.4316   0.8656   3.7998   3.7998   7.0131   8.0474  14.2669  14.2669

          k = 0.7250 0.0000 0.0000 (  2076 PWs)   bands (ev):

    -3.4164   0.8433   3.7944   3.7944   7.0100   8.0341  14.2906  14.2906

          k = 0.7275 0.0000 0.0000 (  2076 PWs)   bands (ev):

    -3.4011   0.8210   3.7890   3.7890   7.0069   8.0210  14.3143  14.3143

          k = 0.7300 0.0000 0.0000 (  2076 PWs)   bands (ev):

    -3.3858   0.7988   3.7836   3.7836   7.0040   8.0079  14.3380  14.3380

          k = 0.7325 0.0000 0.0000 (  2076 PWs)   bands (ev):

    -3.3704   0.7765   3.7783   3.7783   7.0010   7.9949  14.3618  14.3618

          k = 0.7350 0.0000 0.0000 (  2076 PWs)   bands (ev):

    -3.3550   0.7543   3.7730   3.7730   6.9982   7.9820  14.3855  14.3855

          k = 0.7375 0.0000 0.0000 (  2076 PWs)   bands (ev):

    -3.3395   0.7321   3.7678   3.7678   6.9954   7.9692  14.4093  14.4093

          k = 0.7400 0.0000 0.0000 (  2076 PWs)   bands (ev):

    -3.3240   0.7099   3.7626   3.7626   6.9927   7.9564  14.4330  14.4330

          k = 0.7425 0.0000 0.0000 (  2076 PWs)   bands (ev):

    -3.3085   0.6877   3.7575   3.7575   6.9900   7.9438  14.4568  14.4568

          k = 0.7450 0.0000 0.0000 (  2076 PWs)   bands (ev):

    -3.2929   0.6655   3.7524   3.7524   6.9874   7.9312  14.4806  14.4806

          k = 0.7475 0.0000 0.0000 (  2084 PWs)   bands (ev):

    -3.2772   0.6434   3.7474   3.7474   6.9849   7.9187  14.5044  14.5044

          k = 0.7500 0.0000 0.0000 (  2084 PWs)   bands (ev):

    -3.2616   0.6212   3.7424   3.7424   6.9824   7.9063  14.5282  14.5282

          k = 0.7525 0.0000 0.0000 (  2084 PWs)   bands (ev):

    -3.2458   0.5991   3.7375   3.7375   6.9800   7.8939  14.5520  14.5520

          k = 0.7550 0.0000 0.0000 (  2080 PWs)   bands (ev):

    -3.2300   0.5770   3.7326   3.7326   6.9776   7.8817  14.5759  14.5759

          k = 0.7575 0.0000 0.0000 (  2080 PWs)   bands (ev):

    -3.2142   0.5549   3.7278   3.7278   6.9753   7.8695  14.5997  14.5997

          k = 0.7600 0.0000 0.0000 (  2080 PWs)   bands (ev):

    -3.1984   0.5328   3.7230   3.7230   6.9731   7.8574  14.6236  14.6236

          k = 0.7625 0.0000 0.0000 (  2080 PWs)   bands (ev):

    -3.1825   0.5107   3.7182   3.7182   6.9709   7.8454  14.6474  14.6474

          k = 0.7650 0.0000 0.0000 (  2080 PWs)   bands (ev):

    -3.1665   0.4887   3.7136   3.7136   6.9688   7.8335  14.6713  14.6713

          k = 0.7675 0.0000 0.0000 (  2080 PWs)   bands (ev):

    -3.1505   0.4667   3.7089   3.7089   6.9668   7.8217  14.6952  14.6952

          k = 0.7700 0.0000 0.0000 (  2084 PWs)   bands (ev):

    -3.1345   0.4447   3.7043   3.7043   6.9648   7.8099  14.7191  14.7191

          k = 0.7725 0.0000 0.0000 (  2084 PWs)   bands (ev):

    -3.1184   0.4227   3.6998   3.6998   6.9629   7.7982  14.7430  14.7430

          k = 0.7750 0.0000 0.0000 (  2084 PWs)   bands (ev):

    -3.1023   0.4007   3.6953   3.6953   6.9610   7.7866  14.7669  14.7669

          k = 0.7775 0.0000 0.0000 (  2084 PWs)   bands (ev):

    -3.0861   0.3787   3.6908   3.6908   6.9592   7.7751  14.7908  14.7908

          k = 0.7800 0.0000 0.0000 (  2084 PWs)   bands (ev):

    -3.0699   0.3568   3.6864   3.6864   6.9575   7.7637  14.8147  14.8147

          k = 0.7825 0.0000 0.0000 (  2084 PWs)   bands (ev):

    -3.0536   0.3349   3.6821   3.6821   6.9558   7.7523  14.8386  14.8386

          k = 0.7850 0.0000 0.0000 (  2084 PWs)   bands (ev):

    -3.0373   0.3130   3.6778   3.6778   6.9542   7.7410  14.8626  14.8626

          k = 0.7875 0.0000 0.0000 (  2084 PWs)   bands (ev):

    -3.0209   0.2911   3.6735   3.6735   6.9527   7.7298  14.8865  14.8865

          k = 0.7900 0.0000 0.0000 (  2084 PWs)   bands (ev):

    -3.0046   0.2692   3.6693   3.6693   6.9512   7.7187  14.9105  14.9105

          k = 0.7925 0.0000 0.0000 (  2084 PWs)   bands (ev):

    -2.9881   0.2474   3.6652   3.6652   6.9498   7.7077  14.9344  14.9344

          k = 0.7950 0.0000 0.0000 (  2084 PWs)   bands (ev):

    -2.9716   0.2255   3.6611   3.6611   6.9485   7.6968  14.9584  14.9584

          k = 0.7975 0.0000 0.0000 (  2084 PWs)   bands (ev):

    -2.9551   0.2037   3.6570   3.6570   6.9472   7.6859  14.9824  14.9824

          k = 0.8000 0.0000 0.0000 (  2084 PWs)   bands (ev):

    -2.9386   0.1819   3.6530   3.6530   6.9460   7.6751  15.0063  15.0063

          k = 0.8025 0.0000 0.0000 (  2084 PWs)   bands (ev):

    -2.9219   0.1601   3.6491   3.6491   6.9449   7.6644  15.0303  15.0303

          k = 0.8050 0.0000 0.0000 (  2084 PWs)   bands (ev):

    -2.9053   0.1384   3.6452   3.6452   6.9438   7.6538  15.0543  15.0543

          k = 0.8075 0.0000 0.0000 (  2084 PWs)   bands (ev):

    -2.8886   0.1166   3.6413   3.6413   6.9428   7.6433  15.0783  15.0783

          k = 0.8100 0.0000 0.0000 (  2084 PWs)   bands (ev):

    -2.8719   0.0949   3.6375   3.6375   6.9418   7.6328  15.1023  15.1023

          k = 0.8125 0.0000 0.0000 (  2084 PWs)   bands (ev):

    -2.8551   0.0732   3.6337   3.6337   6.9409   7.6224  15.1263  15.1263

          k = 0.8150 0.0000 0.0000 (  2084 PWs)   bands (ev):

    -2.8383   0.0516   3.6300   3.6300   6.9401   7.6121  15.1503  15.1503

          k = 0.8175 0.0000 0.0000 (  2084 PWs)   bands (ev):

    -2.8214   0.0299   3.6264   3.6264   6.9394   7.6019  15.1743  15.1743

          k = 0.8200 0.0000 0.0000 (  2092 PWs)   bands (ev):

    -2.8045   0.0083   3.6227   3.6227   6.9387   7.5918  15.1983  15.1983

          k = 0.8225 0.0000 0.0000 (  2092 PWs)   bands (ev):

    -2.7875  -0.0133   3.6192   3.6192   6.9381   7.5817  15.2223  15.2223

          k = 0.8250 0.0000 0.0000 (  2092 PWs)   bands (ev):

    -2.7706  -0.0349   3.6157   3.6157   6.9375   7.5718  15.2463  15.2463

          k = 0.8275 0.0000 0.0000 (  2092 PWs)   bands (ev):

    -2.7535  -0.0565   3.6122   3.6122   6.9370   7.5619  15.2703  15.2703

          k = 0.8300 0.0000 0.0000 (  2100 PWs)   bands (ev):

    -2.7364  -0.0781   3.6088   3.6088   6.9366   7.5521  15.2943  15.2943

          k = 0.8325 0.0000 0.0000 (  2100 PWs)   bands (ev):

    -2.7193  -0.0996   3.6054   3.6054   6.9363   7.5424  15.3183  15.3183

          k = 0.8350 0.0000 0.0000 (  2100 PWs)   bands (ev):

    -2.7022  -0.1211   3.6021   3.6021   6.9360   7.5327  15.3423  15.3423

          k = 0.8375 0.0000 0.0000 (  2096 PWs)   bands (ev):

    -2.6850  -0.1426   3.5988   3.5988   6.9358   7.5232  15.3663  15.3663

          k = 0.8400 0.0000 0.0000 (  2088 PWs)   bands (ev):

    -2.6677  -0.1640   3.5956   3.5956   6.9356   7.5137  15.3903  15.3903

          k = 0.8425 0.0000 0.0000 (  2088 PWs)   bands (ev):

    -2.6504  -0.1855   3.5924   3.5924   6.9355   7.5043  15.4143  15.4143

          k = 0.8450 0.0000 0.0000 (  2088 PWs)   bands (ev):

    -2.6331  -0.2069   3.5893   3.5893   6.9355   7.4949  15.4383  15.4383

          k = 0.8475 0.0000 0.0000 (  2088 PWs)   bands (ev):

    -2.6158  -0.2283   3.5863   3.5863   6.9356   7.4857  15.4623  15.4623

          k = 0.8500 0.0000 0.0000 (  2088 PWs)   bands (ev):

    -2.5983  -0.2497   3.5832   3.5832   6.9357   7.4765  15.4863  15.4863

          k = 0.8525 0.0000 0.0000 (  2088 PWs)   bands (ev):

    -2.5809  -0.2710   3.5803   3.5803   6.9359   7.4675  15.5102  15.5102

          k = 0.8550 0.0000 0.0000 (  2088 PWs)   bands (ev):

    -2.5634  -0.2923   3.5773   3.5773   6.9361   7.4585  15.5342  15.5342

          k = 0.8575 0.0000 0.0000 (  2088 PWs)   bands (ev):

    -2.5459  -0.3136   3.5745   3.5745   6.9365   7.4496  15.5581  15.5581

          k = 0.8600 0.0000 0.0000 (  2088 PWs)   bands (ev):

    -2.5283  -0.3349   3.5717   3.5717   6.9369   7.4407  15.5820  15.5820

          k = 0.8625 0.0000 0.0000 (  2088 PWs)   bands (ev):

    -2.5107  -0.3562   3.5689   3.5689   6.9373   7.4320  15.6059  15.6059

          k = 0.8650 0.0000 0.0000 (  2088 PWs)   bands (ev):

    -2.4930  -0.3774   3.5662   3.5662   6.9378   7.4233  15.6298  15.6298

          k = 0.8675 0.0000 0.0000 (  2088 PWs)   bands (ev):

    -2.4754  -0.3986   3.5635   3.5635   6.9384   7.4147  15.6537  15.6537

          k = 0.8700 0.0000 0.0000 (  2080 PWs)   bands (ev):

    -2.4576  -0.4198   3.5609   3.5609   6.9391   7.4062  15.6776  15.6776

          k = 0.8725 0.0000 0.0000 (  2080 PWs)   bands (ev):

    -2.4399  -0.4409   3.5583   3.5583   6.9398   7.3977  15.7014  15.7014

          k = 0.8750 0.0000 0.0000 (  2080 PWs)   bands (ev):

    -2.4220  -0.4621   3.5558   3.5558   6.9406   7.3894  15.7252  15.7252

          k = 0.8775 0.0000 0.0000 (  2080 PWs)   bands (ev):

    -2.4042  -0.4832   3.5533   3.5533   6.9415   7.3811  15.7490  15.7490

          k = 0.8800 0.0000 0.0000 (  2080 PWs)   bands (ev):

    -2.3863  -0.5043   3.5509   3.5509   6.9425   7.3729  15.7728  15.7728

          k = 0.8825 0.0000 0.0000 (  2080 PWs)   bands (ev):

    -2.3684  -0.5253   3.5485   3.5485   6.9435   7.3648  15.7965  15.7965

          k = 0.8850 0.0000 0.0000 (  2080 PWs)   bands (ev):

    -2.3504  -0.5463   3.5462   3.5462   6.9445   7.3567  15.8202  15.8202

          k = 0.8875 0.0000 0.0000 (  2080 PWs)   bands (ev):

    -2.3324  -0.5673   3.5439   3.5439   6.9457   7.3488  15.8439  15.8439

          k = 0.8900 0.0000 0.0000 (  2080 PWs)   bands (ev):

    -2.3143  -0.5883   3.5417   3.5417   6.9469   7.3409  15.8675  15.8675

          k = 0.8925 0.0000 0.0000 (  2080 PWs)   bands (ev):

    -2.2963  -0.6093   3.5395   3.5395   6.9482   7.3331  15.8911  15.8911

          k = 0.8950 0.0000 0.0000 (  2080 PWs)   bands (ev):

    -2.2781  -0.6302   3.5374   3.5374   6.9496   7.3254  15.9146  15.9146

          k = 0.8975 0.0000 0.0000 (  2080 PWs)   bands (ev):

    -2.2600  -0.6511   3.5353   3.5353   6.9510   7.3177  15.9381  15.9381

          k = 0.9000 0.0000 0.0000 (  2080 PWs)   bands (ev):

    -2.2418  -0.6720   3.5333   3.5333   6.9525   7.3102  15.9615  15.9615

          k = 0.9025 0.0000 0.0000 (  2080 PWs)   bands (ev):

    -2.2235  -0.6928   3.5313   3.5313   6.9541   7.3027  15.9848  15.9848

          k = 0.9050 0.0000 0.0000 (  2080 PWs)   bands (ev):

    -2.2052  -0.7137   3.5293   3.5293   6.9557   7.2953  16.0081  16.0081

          k = 0.9075 0.0000 0.0000 (  2080 PWs)   bands (ev):

    -2.1869  -0.7344   3.5275   3.5275   6.9574   7.2880  16.0313  16.0313

          k = 0.9100 0.0000 0.0000 (  2080 PWs)   bands (ev):

    -2.1686  -0.7552   3.5256   3.5256   6.9592   7.2807  16.0545  16.0545

          k = 0.9125 0.0000 0.0000 (  2080 PWs)   bands (ev):

    -2.1502  -0.7760   3.5239   3.5239   6.9611   7.2735  16.0775  16.0775

          k = 0.9150 0.0000 0.0000 (  2080 PWs)   bands (ev):

    -2.1317  -0.7967   3.5221   3.5221   6.9630   7.2665  16.1005  16.1005

          k = 0.9175 0.0000 0.0000 (  2080 PWs)   bands (ev):

    -2.1133  -0.8174   3.5205   3.5205   6.9650   7.2594  16.1233  16.1233

          k = 0.9200 0.0000 0.0000 (  2080 PWs)   bands (ev):

    -2.0947  -0.8380   3.5188   3.5188   6.9670   7.2525  16.1461  16.1461

          k = 0.9225 0.0000 0.0000 (  2080 PWs)   bands (ev):

    -2.0762  -0.8586   3.5173   3.5173   6.9692   7.2457  16.1687  16.1687

          k = 0.9250 0.0000 0.0000 (  2080 PWs)   bands (ev):

    -2.0576  -0.8792   3.5157   3.5157   6.9714   7.2389  16.1912  16.1912

          k = 0.9275 0.0000 0.0000 (  2080 PWs)   bands (ev):

    -2.0390  -0.8998   3.5143   3.5143   6.9737   7.2322  16.2136  16.2136

          k = 0.9300 0.0000 0.0000 (  2080 PWs)   bands (ev):

    -2.0203  -0.9204   3.5128   3.5128   6.9760   7.2256  16.2358  16.2358

          k = 0.9325 0.0000 0.0000 (  2080 PWs)   bands (ev):

    -2.0016  -0.9409   3.5114   3.5114   6.9784   7.2190  16.2578  16.2578

          k = 0.9350 0.0000 0.0000 (  2080 PWs)   bands (ev):

    -1.9829  -0.9614   3.5101   3.5101   6.9809   7.2125  16.2796  16.2796

          k = 0.9375 0.0000 0.0000 (  2080 PWs)   bands (ev):

    -1.9641  -0.9818   3.5088   3.5088   6.9835   7.2062  16.3013  16.3013

          k = 0.9400 0.0000 0.0000 (  2080 PWs)   bands (ev):

    -1.9453  -1.0022   3.5076   3.5076   6.9861   7.1998  16.3227  16.3227

          k = 0.9425 0.0000 0.0000 (  2080 PWs)   bands (ev):

    -1.9265  -1.0226   3.5064   3.5064   6.9888   7.1936  16.3439  16.3439

          k = 0.9450 0.0000 0.0000 (  2080 PWs)   bands (ev):

    -1.9076  -1.0430   3.5053   3.5053   6.9916   7.1875  16.3648  16.3648

          k = 0.9475 0.0000 0.0000 (  2080 PWs)   bands (ev):

    -1.8887  -1.0633   3.5042   3.5042   6.9945   7.1814  16.3853  16.3853

          k = 0.9500 0.0000 0.0000 (  2084 PWs)   bands (ev):

    -1.8697  -1.0837   3.5032   3.5032   6.9974   7.1754  16.4056  16.4056

     Writing all to output data dir ./tmp/si.save/ :
     XML data file, pseudopotentials, collected wavefunctions

     init_run     :      0.76s CPU      0.80s WALL (       1 calls)
     electrons    :     17.66s CPU     18.38s WALL (       1 calls)

     Called by init_run:
     wfcinit      :      0.00s CPU      0.00s WALL (       1 calls)
     wfcinit:atom :      0.01s CPU      0.01s WALL (     101 calls)
     wfcinit:wfcr :      0.46s CPU      0.48s WALL (     101 calls)
     potinit      :      0.15s CPU      0.16s WALL (       1 calls)
     hinit0       :      0.31s CPU      0.31s WALL (       1 calls)

     Called by electrons:
     c_bands      :     17.66s CPU     18.38s WALL (       1 calls)
     v_of_rho     :      0.03s CPU      0.03s WALL (       1 calls)
     v_h          :      0.00s CPU      0.00s WALL (       1 calls)
     v_xc         :      0.02s CPU      0.03s WALL (       1 calls)
     newd         :      0.07s CPU      0.09s WALL (       1 calls)

     Called by c_bands:
     init_us_2    :      0.02s CPU      0.03s WALL (     101 calls)
     cegterg      :     17.06s CPU     17.74s WALL (     247 calls)

     Called by sum_band:

     Called by *egterg:
     cdiaghg      :      0.48s CPU      0.49s WALL (    4159 calls)
     cegterg:over :      1.32s CPU      1.34s WALL (    4058 calls)
     cegterg:upda :      0.66s CPU      0.66s WALL (    4058 calls)
     cegterg:last :      1.68s CPU      1.69s WALL (    2986 calls)
     h_psi        :     11.19s CPU     11.84s WALL (    4406 calls)
     s_psi        :      1.70s CPU      1.72s WALL (    4406 calls)
     g_psi        :      0.07s CPU      0.07s WALL (    4058 calls)

     Called by h_psi:
     h_psi:calbec :      1.59s CPU      1.68s WALL (    4406 calls)
     vloc_psi     :      7.99s CPU      8.50s WALL (    4406 calls)
                                        0.00s GPU  (    4406 calls)
     add_vuspsi   :      1.57s CPU      1.61s WALL (    4406 calls)

     General routines
     calbec       :      1.58s CPU      1.67s WALL (    4406 calls)
     fft          :      0.20s CPU      0.20s WALL (      13 calls)
     ffts         :      0.12s CPU      0.12s WALL (       1 calls)
     fftw         :      7.16s CPU      7.62s WALL (   50326 calls)
     interpolate  :      0.12s CPU      0.12s WALL (       1 calls)
     davcio       :      0.01s CPU      0.01s WALL (     202 calls)

     Parallel routines

     PWSCF        :     18.61s CPU     19.43s WALL


   This run was terminated on:  21:40:32  22Sep2026            

=------------------------------------------------------------------------------=
   JOB DONE.
=------------------------------------------------------------------------------=
