
     Program PWSCF v.7.5 starts on 22Sep2026 at 23:26:23 

     This program is part of the open-source Quantum ESPRESSO suite
     for quantum simulation of materials; please cite
         "P. Giannozzi et al., J. Phys.:Condens. Matter 21 395502 (2009);
         "P. Giannozzi et al., J. Phys.:Condens. Matter 29 465901 (2017);
         "P. Giannozzi et al., J. Chem. Phys. 152 154105 (2020);
          URL http://www.quantum-espresso.org", 
     in publications or presentations arising from this work. More details at
     http://www.quantum-espresso.org/quote

     Parallel version (MPI), running on     8 processors

     MPI processes distributed on     1 nodes
     2403 MiB available memory on the printing compute node when the environment starts
 
     Reading input from si.bands.in

     Current dimensions of program PWSCF are:
     Max number of different atomic species (ntypx) = 10
     Max number of k-points (npk) =  40000
     Max angular momentum in pseudopotentials (lmaxx) =  4

     Atomic positions and unit cell read from directory:
     ./tmp/si.save/
 
 
     R & G space division:  proc/nbgrp/npool/nimage =       8
     Subspace diagonalization in iterative solution of the eigenvalue problem:
     a serial algorithm will be used

 
     Parallelization info
     --------------------
     sticks:   dense  smooth     PW     G-vecs:    dense   smooth      PW
     Min          72      72     21                 1147     1147     183
     Max          73      73     22                 1149     1149     185
     Sum         583     583    169                 9185     9185    1471
 
     Using Slab Decomposition
 


     bravais-lattice index     =            0
     lattice parameter (alat)  =      10.2000  a.u.
     unit-cell volume          =     265.3020 (a.u.)^3
     number of atoms/cell      =            2
     number of atomic types    =            1
     number of electrons       =         8.00
     number of Kohn-Sham states=            8
     kinetic-energy cutoff     =      40.0000  Ry
     charge density cutoff     =     160.0000  Ry
     Exchange-correlation= SLA  PZ   NOGX NOGC
                           (   1   1   0   0   0   0   0)

     celldm(1)=  10.200000  celldm(2)=   0.000000  celldm(3)=   0.000000
     celldm(4)=   0.000000  celldm(5)=   0.000000  celldm(6)=   0.000000

     crystal axes: (cart. coord. in units of alat)
               a(1) = (  -0.500000   0.000000   0.500000 )  
               a(2) = (   0.000000   0.500000   0.500000 )  
               a(3) = (  -0.500000   0.500000   0.000000 )  

     reciprocal axes: (cart. coord. in units 2 pi/alat)
               b(1) = ( -1.000000 -1.000000  1.000000 )  
               b(2) = (  1.000000  1.000000  1.000000 )  
               b(3) = ( -1.000000  1.000000 -1.000000 )  


     PseudoPot. # 1 for Si read from file:
     ../pseudo/Si.pz-vbc.UPF
     MD5 check sum: 9f25e6ff280f3123e9b3a84715b2e9c9
     Pseudo is Norm-conserving, Zval =  4.0
     Generated by new atomic code, or converted to UPF format
     Using radial grid of  431 points,  2 beta functions with: 
                l(1) =   0
                l(2) =   1

     atomic species   valence    mass     pseudopotential
     Si                4.00    28.08550     Si( 1.00)

     No symmetry found


                                    s                        frac. trans.

      isym =  1     identity                                     

 cryst.   s( 1) = (     1          0          0      )
                  (     0          1          0      )
                  (     0          0          1      )

 cart.    s( 1) = (  1.0000000  0.0000000  0.0000000 )
                  (  0.0000000  1.0000000  0.0000000 )
                  (  0.0000000  0.0000000  1.0000000 )


   Cartesian axes

     site n.     atom                  positions (alat units)
         1        Si     tau(   1) = (   0.0000000   0.0000000   0.0000000  )
         2        Si     tau(   2) = (  -0.7500000   0.7500000   0.7500000  )

   Crystallographic axes

     site n.     atom                  positions (cryst. coord.)
         1        Si     tau(   1) = (  0.0000000  0.0000000  0.0000000  )
         2        Si     tau(   2) = (  0.7500000  0.7500000  0.7500000  )

     number of k points=    40
                       cart. coord. in units 2pi/alat
        k(    1) = (   0.0000000   0.0000000   0.0000000), wk =   0.0500000
        k(    2) = (  -0.0833333   0.0000000   0.0000000), wk =   0.0500000
        k(    3) = (  -0.1666667   0.0000000   0.0000000), wk =   0.0500000
        k(    4) = (  -0.2500000   0.0000000   0.0000000), wk =   0.0500000
        k(    5) = (  -0.3333333   0.0000000   0.0000000), wk =   0.0500000
        k(    6) = (  -0.4166667   0.0000000   0.0000000), wk =   0.0500000
        k(    7) = (  -0.5000000   0.0000000   0.0000000), wk =   0.0500000
        k(    8) = (  -0.5833333   0.0000000   0.0000000), wk =   0.0500000
        k(    9) = (  -0.6666667   0.0000000   0.0000000), wk =   0.0500000
        k(   10) = (  -0.7500000   0.0000000   0.0000000), wk =   0.0500000
        k(   11) = (  -0.8333333   0.0000000   0.0000000), wk =   0.0500000
        k(   12) = (  -0.9166667   0.0000000   0.0000000), wk =   0.0500000
        k(   13) = (  -1.0000000   0.0000000   0.0000000), wk =   0.0500000
        k(   14) = (  -1.0000000   0.0833333   0.0000000), wk =   0.0500000
        k(   15) = (  -1.0000000   0.1666667   0.0000000), wk =   0.0500000
        k(   16) = (  -1.0000000   0.2500000   0.0000000), wk =   0.0500000
        k(   17) = (  -1.0000000   0.3333333   0.0000000), wk =   0.0500000
        k(   18) = (  -1.0000000   0.4166667   0.0000000), wk =   0.0500000
        k(   19) = (  -1.0000000   0.5000000   0.0000000), wk =   0.0500000
        k(   20) = (  -0.9444444   0.5000000   0.0555556), wk =   0.0500000
        k(   21) = (  -0.8888889   0.5000000   0.1111111), wk =   0.0500000
        k(   22) = (  -0.8333333   0.5000000   0.1666667), wk =   0.0500000
        k(   23) = (  -0.7777778   0.5000000   0.2222222), wk =   0.0500000
        k(   24) = (  -0.7222222   0.5000000   0.2777778), wk =   0.0500000
        k(   25) = (  -0.6666667   0.5000000   0.3333333), wk =   0.0500000
        k(   26) = (  -0.6111111   0.5000000   0.3888889), wk =   0.0500000
        k(   27) = (  -0.5555556   0.5000000   0.4444444), wk =   0.0500000
        k(   28) = (  -0.5000000   0.5000000   0.5000000), wk =   0.0500000
        k(   29) = (  -0.4583333   0.4583333   0.4583333), wk =   0.0500000
        k(   30) = (  -0.4166667   0.4166667   0.4166667), wk =   0.0500000
        k(   31) = (  -0.3750000   0.3750000   0.3750000), wk =   0.0500000
        k(   32) = (  -0.3333333   0.3333333   0.3333333), wk =   0.0500000
        k(   33) = (  -0.2916667   0.2916667   0.2916667), wk =   0.0500000
        k(   34) = (  -0.2500000   0.2500000   0.2500000), wk =   0.0500000
        k(   35) = (  -0.2083333   0.2083333   0.2083333), wk =   0.0500000
        k(   36) = (  -0.1666667   0.1666667   0.1666667), wk =   0.0500000
        k(   37) = (  -0.1250000   0.1250000   0.1250000), wk =   0.0500000
        k(   38) = (  -0.0833333   0.0833333   0.0833333), wk =   0.0500000
        k(   39) = (  -0.0416667   0.0416667   0.0416667), wk =   0.0500000
        k(   40) = (   0.0000000   0.0000000   0.0000000), wk =   0.0500000

                       cryst. coord.
        k(    1) = (   0.0000000   0.0000000   0.0000000), wk =   0.0500000
        k(    2) = (   0.0416667   0.0000000   0.0416667), wk =   0.0500000
        k(    3) = (   0.0833333   0.0000000   0.0833333), wk =   0.0500000
        k(    4) = (   0.1250000   0.0000000   0.1250000), wk =   0.0500000
        k(    5) = (   0.1666667   0.0000000   0.1666667), wk =   0.0500000
        k(    6) = (   0.2083333   0.0000000   0.2083333), wk =   0.0500000
        k(    7) = (   0.2500000   0.0000000   0.2500000), wk =   0.0500000
        k(    8) = (   0.2916667   0.0000000   0.2916667), wk =   0.0500000
        k(    9) = (   0.3333333   0.0000000   0.3333333), wk =   0.0500000
        k(   10) = (   0.3750000   0.0000000   0.3750000), wk =   0.0500000
        k(   11) = (   0.4166667   0.0000000   0.4166667), wk =   0.0500000
        k(   12) = (   0.4583333   0.0000000   0.4583333), wk =   0.0500000
        k(   13) = (   0.5000000   0.0000000   0.5000000), wk =   0.0500000
        k(   14) = (   0.5000000   0.0416667   0.5416667), wk =   0.0500000
        k(   15) = (   0.5000000   0.0833333   0.5833333), wk =   0.0500000
        k(   16) = (   0.5000000   0.1250000   0.6250000), wk =   0.0500000
        k(   17) = (   0.5000000   0.1666667   0.6666667), wk =   0.0500000
        k(   18) = (   0.5000000   0.2083333   0.7083333), wk =   0.0500000
        k(   19) = (   0.5000000   0.2500000   0.7500000), wk =   0.0500000
        k(   20) = (   0.5000000   0.2777778   0.7222222), wk =   0.0500000
        k(   21) = (   0.5000000   0.3055556   0.6944444), wk =   0.0500000
        k(   22) = (   0.5000000   0.3333333   0.6666667), wk =   0.0500000
        k(   23) = (   0.5000000   0.3611111   0.6388889), wk =   0.0500000
        k(   24) = (   0.5000000   0.3888889   0.6111111), wk =   0.0500000
        k(   25) = (   0.5000000   0.4166667   0.5833333), wk =   0.0500000
        k(   26) = (   0.5000000   0.4444444   0.5555556), wk =   0.0500000
        k(   27) = (   0.5000000   0.4722222   0.5277778), wk =   0.0500000
        k(   28) = (   0.5000000   0.5000000   0.5000000), wk =   0.0500000
        k(   29) = (   0.4583333   0.4583333   0.4583333), wk =   0.0500000
        k(   30) = (   0.4166667   0.4166667   0.4166667), wk =   0.0500000
        k(   31) = (   0.3750000   0.3750000   0.3750000), wk =   0.0500000
        k(   32) = (   0.3333333   0.3333333   0.3333333), wk =   0.0500000
        k(   33) = (   0.2916667   0.2916667   0.2916667), wk =   0.0500000
        k(   34) = (   0.2500000   0.2500000   0.2500000), wk =   0.0500000
        k(   35) = (   0.2083333   0.2083333   0.2083333), wk =   0.0500000
        k(   36) = (   0.1666667   0.1666667   0.1666667), wk =   0.0500000
        k(   37) = (   0.1250000   0.1250000   0.1250000), wk =   0.0500000
        k(   38) = (   0.0833333   0.0833333   0.0833333), wk =   0.0500000
        k(   39) = (   0.0416667   0.0416667   0.0416667), wk =   0.0500000
        k(   40) = (   0.0000000   0.0000000   0.0000000), wk =   0.0500000

     Dense  grid:     9185 G-vectors     FFT dimensions: (  30,  30,  30)

     Dynamical RAM for                 wfc:       0.02 MB

     Dynamical RAM for     wfc (w. buffer):       0.02 MB

     Dynamical RAM for           str. fact:       0.02 MB

     Dynamical RAM for           local pot:       0.00 MB

     Dynamical RAM for          nlocal pot:       0.02 MB

     Dynamical RAM for                qrad:       0.09 MB

     Dynamical RAM for          rho,v,vnew:       0.13 MB

     Dynamical RAM for           G-vectors:       0.07 MB

     Dynamical RAM for          h,s,v(r/c):       0.00 MB

     Dynamical RAM for          <psi|beta>:       0.00 MB

     Dynamical RAM for      wfcinit/wfcrot:       0.04 MB

     Estimated static dynamical RAM per process >       0.52 MB

     Estimated max dynamical RAM per process >       0.56 MB

     Estimated total dynamical RAM >       4.45 MB

     The potential is recalculated from file :
     ./tmp/si.save/charge-density

     Starting wfcs are    8 randomized atomic wfcs

     Band Structure Calculation
     CG style diagonalization

     Computing kpt #:     1  of    40
     total cpu time spent up to now is        0.1 secs

     Computing kpt #:     2  of    40
     total cpu time spent up to now is        0.1 secs

     Computing kpt #:     3  of    40
     total cpu time spent up to now is        0.1 secs

     Computing kpt #:     4  of    40
     total cpu time spent up to now is        0.1 secs

     Computing kpt #:     5  of    40
     total cpu time spent up to now is        0.1 secs

     Computing kpt #:     6  of    40
     total cpu time spent up to now is        0.2 secs

     Computing kpt #:     7  of    40
     total cpu time spent up to now is        0.2 secs

     Computing kpt #:     8  of    40
     total cpu time spent up to now is        0.2 secs

     Computing kpt #:     9  of    40
     total cpu time spent up to now is        0.2 secs

     Computing kpt #:    10  of    40
     total cpu time spent up to now is        0.2 secs

     Computing kpt #:    11  of    40
     total cpu time spent up to now is        0.2 secs

     Computing kpt #:    12  of    40
     total cpu time spent up to now is        0.2 secs

     Computing kpt #:    13  of    40
     total cpu time spent up to now is        0.3 secs

     Computing kpt #:    14  of    40
     total cpu time spent up to now is        0.3 secs

     Computing kpt #:    15  of    40
     total cpu time spent up to now is        0.3 secs

     Computing kpt #:    16  of    40
     total cpu time spent up to now is        0.3 secs

     Computing kpt #:    17  of    40
     total cpu time spent up to now is        0.3 secs

     Computing kpt #:    18  of    40
     total cpu time spent up to now is        0.3 secs

     Computing kpt #:    19  of    40
     total cpu time spent up to now is        0.4 secs

     Computing kpt #:    20  of    40
     total cpu time spent up to now is        0.4 secs

     Computing kpt #:    21  of    40
     total cpu time spent up to now is        0.4 secs

     Computing kpt #:    22  of    40
     total cpu time spent up to now is        0.4 secs

     Computing kpt #:    23  of    40
     total cpu time spent up to now is        0.5 secs

     Computing kpt #:    24  of    40
     total cpu time spent up to now is        0.5 secs

     Computing kpt #:    25  of    40
     total cpu time spent up to now is        0.5 secs

     Computing kpt #:    26  of    40
     total cpu time spent up to now is        0.5 secs

     Computing kpt #:    27  of    40
     total cpu time spent up to now is        0.5 secs

     Computing kpt #:    28  of    40
     total cpu time spent up to now is        0.6 secs

     Computing kpt #:    29  of    40
     total cpu time spent up to now is        0.6 secs

     Computing kpt #:    30  of    40
     total cpu time spent up to now is        0.6 secs

     Computing kpt #:    31  of    40
     total cpu time spent up to now is        0.6 secs

     Computing kpt #:    32  of    40
     total cpu time spent up to now is        0.6 secs

     Computing kpt #:    33  of    40
     total cpu time spent up to now is        0.6 secs

     Computing kpt #:    34  of    40
     total cpu time spent up to now is        0.7 secs

     Computing kpt #:    35  of    40
     total cpu time spent up to now is        0.7 secs

     Computing kpt #:    36  of    40
     total cpu time spent up to now is        0.7 secs

     Computing kpt #:    37  of    40
     total cpu time spent up to now is        0.7 secs

     Computing kpt #:    38  of    40
     total cpu time spent up to now is        0.7 secs

     Computing kpt #:    39  of    40
     total cpu time spent up to now is        0.8 secs

     Computing kpt #:    40  of    40
     total cpu time spent up to now is        0.8 secs

     ethr =  1.00E-10,  avg # of iterations = 15.3

     total cpu time spent up to now is        0.8 secs

     End of band structure calculation

          k = 0.0000 0.0000 0.0000 (  1139 PWs)   bands (ev):

    -5.8212   6.2300   6.2300   6.2300   8.8001   8.8001   8.8001   9.7035

          k =-0.0833 0.0000 0.0000 (  1135 PWs)   bands (ev):

    -5.7903   6.0369   6.1020   6.1020   8.7216   8.9652   8.9652   9.8896

          k =-0.1667 0.0000 0.0000 (  1147 PWs)   bands (ev):

    -5.6978   5.5528   5.7911   5.7911   8.5107   9.3868   9.3868  10.3201

          k =-0.2500 0.0000 0.0000 (  1151 PWs)   bands (ev):

    -5.5440   4.9205   5.4075   5.4075   8.2205   9.9534   9.9534  10.6859

          k =-0.3333 0.0000 0.0000 (  1138 PWs)   bands (ev):

    -5.3294   4.2204   5.0146   5.0146   7.9014  10.5413  10.5994  10.5994

          k =-0.4167 0.0000 0.0000 (  1134 PWs)   bands (ev):

    -5.0550   3.4881   4.6424   4.6424   7.5892   9.9722  11.2926  11.2926

          k =-0.5000 0.0000 0.0000 (  1118 PWs)   bands (ev):

    -4.7219   2.7406   4.3058   4.3058   7.3072   9.3170  12.0163  12.0163

          k =-0.5833 0.0000 0.0000 (  1126 PWs)   bands (ev):

    -4.3316   1.9870   4.0131   4.0131   7.0708   8.6976  12.7614  12.7614

          k =-0.6667 0.0000 0.0000 (  1118 PWs)   bands (ev):

    -3.8861   1.2354   3.7691   3.7691   6.8904   8.1521  13.5233  13.5233

          k =-0.7500 0.0000 0.0000 (  1126 PWs)   bands (ev):

    -3.3877   0.4926   3.5769   3.5769   6.7734   7.6938  14.2990  14.2990

          k =-0.8333 0.0000 0.0000 (  1138 PWs)   bands (ev):

    -2.8397  -0.2338   3.4384   3.4384   6.7259   7.3263  15.0845  15.0845

          k =-0.9167 0.0000 0.0000 (  1138 PWs)   bands (ev):

    -2.2453  -0.9367   3.3548   3.3548   6.7529   7.0491  15.8597  15.8597

          k =-1.0000 0.0000 0.0000 (  1138 PWs)   bands (ev):

    -1.6092  -1.6092   3.3269   3.3269   6.8592   6.8592  16.3844  16.3844

          k =-1.0000 0.0833 0.0000 (  1134 PWs)   bands (ev):

    -1.5984  -1.5984   3.2336   3.2336   7.0291   7.0291  16.0676  16.0676

          k =-1.0000 0.1667 0.0000 (  1134 PWs)   bands (ev):

    -1.5680  -1.5680   3.0050   3.0050   7.4886   7.4886  15.1665  15.1665

          k =-1.0000 0.2500 0.0000 (  1134 PWs)   bands (ev):

    -1.5247  -1.5247   2.7352   2.7352   8.1472   8.1472  14.0924  14.0924

          k =-1.0000 0.3333 0.0000 (  1138 PWs)   bands (ev):

    -1.4791  -1.4791   2.4970   2.4970   8.9357   8.9357  13.0051  13.0051

          k =-1.0000 0.4167 0.0000 (  1134 PWs)   bands (ev):

    -1.4441  -1.4441   2.3363   2.3363   9.7975   9.7975  11.9659  11.9659

          k =-1.0000 0.5000 0.0000 (  1144 PWs)   bands (ev):

    -1.4309  -1.4309   2.2798   2.2798  10.4450  10.4450  11.2595  11.2595

          k =-0.9444 0.5000 0.0556 (  1136 PWs)   bands (ev):

    -1.7976  -1.0833   2.0589   2.6027  10.1115  10.4681  11.2606  11.6804

          k =-0.8889 0.5000 0.1111 (  1134 PWs)   bands (ev):

    -2.1522  -0.8036   1.9934   2.9880   9.7888  10.1417  11.7197  12.2031

          k =-0.8333 0.5000 0.1667 (  1138 PWs)   bands (ev):

    -2.4766  -0.6405   2.1336   3.4047   9.5335   9.7884  12.3099  12.7698

          k =-0.7778 0.5000 0.2222 (  1134 PWs)   bands (ev):

    -2.7606  -0.5993   2.4832   3.8246   9.3632   9.4582  12.6916  12.9773

          k =-0.7222 0.5000 0.2778 (  1130 PWs)   bands (ev):

    -2.9982  -0.6369   2.9925   4.2179   9.1470   9.2877  11.6481  13.6991

          k =-0.6667 0.5000 0.3333 (  1128 PWs)   bands (ev):

    -3.1859  -0.7043   3.5971   4.5545   8.8245   9.3072  10.7332  14.2796

          k =-0.6111 0.5000 0.3889 (  1134 PWs)   bands (ev):

    -3.3213  -0.7691   4.2280   4.8085   8.4362   9.4000  10.0497  14.2256

          k =-0.5556 0.5000 0.4444 (  1142 PWs)   bands (ev):

    -3.4030  -0.8135   4.7750   4.9644   8.0055   9.5106   9.6726  13.9519

          k =-0.5000 0.5000 0.5000 (  1158 PWs)   bands (ev):

    -3.4304  -0.8291   5.0166   5.0166   7.7891   9.5610   9.5610  13.8232

          k =-0.4583 0.4583 0.4583 (  1143 PWs)   bands (ev):

    -3.5304  -0.6856   5.0291   5.0291   7.8033   9.5760   9.5760  13.8467

          k =-0.4167 0.4167 0.4167 (  1149 PWs)   bands (ev):

    -3.7793  -0.3066   5.0668   5.0668   7.8457   9.6181   9.6181  13.9123

          k =-0.3750 0.3750 0.3750 (  1143 PWs)   bands (ev):

    -4.0931   0.2229   5.1294   5.1294   7.9160   9.6779   9.6779  13.9971

          k =-0.3333 0.3333 0.3333 (  1149 PWs)   bands (ev):

    -4.4182   0.8477   5.2166   5.2166   8.0130   9.7380   9.7380  14.0156

          k =-0.2917 0.2917 0.2917 (  1131 PWs)   bands (ev):

    -4.7276   1.5382   5.3273   5.3273   8.1350   9.7717   9.7717  13.7391

          k =-0.2500 0.2500 0.2500 (  1131 PWs)   bands (ev):

    -5.0076   2.2764   5.4598   5.4598   8.2783   9.7462   9.7462  13.1498

          k =-0.2083 0.2083 0.2083 (  1134 PWs)   bands (ev):

    -5.2512   3.0487   5.6104   5.6104   8.4374   9.6385   9.6385  12.4512

          k =-0.1667 0.1667 0.1667 (  1137 PWs)   bands (ev):

    -5.4541   3.8402   5.7728   5.7728   8.6015   9.4542   9.4542  11.7224

          k =-0.1250 0.1250 0.1250 (  1137 PWs)   bands (ev):

    -5.6138   4.6289   5.9364   5.9364   8.7521   9.2296   9.2296  10.9992

          k =-0.0833 0.0833 0.0833 (  1140 PWs)   bands (ev):

    -5.7287   5.3727   6.0839   6.0839   8.8540   9.0143   9.0143  10.3367

          k =-0.0417 0.0417 0.0417 (  1139 PWs)   bands (ev):

    -5.7981   5.9750   6.1904   6.1904   8.8527   8.8578   8.8578   9.8612

          k = 0.0000 0.0000 0.0000 (  1139 PWs)   bands (ev):

    -5.8212   6.2300   6.2300   6.2300   8.8001   8.8001   8.8001   9.7035

     Writing all to output data dir ./tmp/si.save/ :
     XML data file, pseudopotentials, collected wavefunctions
 
     init_run     :      0.00s CPU      0.01s WALL (       1 calls)
     electrons    :      0.62s CPU      0.73s WALL (       1 calls)

     Called by init_run:
     wfcinit      :      0.00s CPU      0.00s WALL (       1 calls)
     wfcinit:atom :      0.00s CPU      0.00s WALL (      40 calls)
     wfcinit:wfcr :      0.03s CPU      0.03s WALL (      40 calls)
     potinit      :      0.00s CPU      0.00s WALL (       1 calls)
     hinit0       :      0.00s CPU      0.00s WALL (       1 calls)

     Called by electrons:
     c_bands      :      0.62s CPU      0.72s WALL (       1 calls)
     v_of_rho     :      0.00s CPU      0.00s WALL (       1 calls)
     v_h          :      0.00s CPU      0.00s WALL (       1 calls)
     v_xc         :      0.00s CPU      0.00s WALL (       1 calls)

     Called by c_bands:
     init_us_2    :      0.00s CPU      0.00s WALL (      40 calls)
     ccgdiagg     :      0.59s CPU      0.68s WALL (      40 calls)
     wfcrot       :      0.03s CPU      0.03s WALL (      40 calls)

     Called by sum_band:

     Called by *cgdiagg:
     h_psi        :      0.48s CPU      0.55s WALL (    4945 calls)

     Called by h_psi:
     h_psi:calbec :      0.04s CPU      0.04s WALL (    4945 calls)
     vloc_psi     :      0.39s CPU      0.45s WALL (    4945 calls)
                                        0.00s GPU  (    4945 calls)
     add_vuspsi   :      0.02s CPU      0.02s WALL (    4945 calls)
     hs_1psi      :      0.48s CPU      0.56s WALL (    4905 calls)
     s_1psi       :      0.04s CPU      0.04s WALL (    4905 calls)

     General routines
     calbec       :      0.04s CPU      0.05s WALL (    9850 calls)
     fft          :      0.00s CPU      0.00s WALL (       3 calls)
     fftw         :      0.35s CPU      0.40s WALL (   10450 calls)
     davcio       :      0.00s CPU      0.00s WALL (      80 calls)
 
     Parallel routines
 
     PWSCF        :      0.65s CPU      0.79s WALL

 
   This run was terminated on:  23:26:24  22Sep2026            

=------------------------------------------------------------------------------=
   JOB DONE.
=------------------------------------------------------------------------------=
