
     Program PWSCF v.7.5 starts on 23Sep2026 at  0: 9:27 

     This program is part of the open-source Quantum ESPRESSO suite
     for quantum simulation of materials; please cite
         "P. Giannozzi et al., J. Phys.:Condens. Matter 21 395502 (2009);
         "P. Giannozzi et al., J. Phys.:Condens. Matter 29 465901 (2017);
         "P. Giannozzi et al., J. Chem. Phys. 152 154105 (2020);
          URL http://www.quantum-espresso.org", 
     in publications or presentations arising from this work. More details at
     http://www.quantum-espresso.org/quote

     Parallel version (MPI), running on     8 processors

     MPI processes distributed on     1 nodes
     2597 MiB available memory on the printing compute node when the environment starts
 
     Reading input from mos2.scf.in

     Current dimensions of program PWSCF are:
     Max number of different atomic species (ntypx) = 10
     Max number of k-points (npk) =  40000
     Max angular momentum in pseudopotentials (lmaxx) =  4
     file Mo.pbe-spn-rrkjus_psl.1.0.0.UPF: wavefunction(s)  4S renormalized
     Message from routine setup:
     using ibrav=0 with symmetry is DISCOURAGED, use correct ibrav instead
 
     K-points division:     npool     =       4
     R & G space division:  proc/nbgrp/npool/nimage =       2
     Subspace diagonalization in iterative solution of the eigenvalue problem:
     a serial algorithm will be used

 
     Parallelization info
     --------------------
     sticks:   dense  smooth     PW     G-vecs:    dense   smooth      PW
     Min         594     297     84               148026    52397    8374
     Max         595     298     85               148049    52404    8377
     Sum        1189     595    169               296075   104801   16751
 
     Using Slab Decomposition
 


     bravais-lattice index     =            0
     lattice parameter (alat)  =       6.0145  a.u.
     unit-cell volume          =    1668.8655 (a.u.)^3
     number of atoms/cell      =            3
     number of atomic types    =            2
     number of electrons       =        26.00
     number of Kohn-Sham states=           16
     kinetic-energy cutoff     =      60.0000  Ry
     charge density cutoff     =     480.0000  Ry
     scf convergence threshold =      1.0E-12
     mixing beta               =       0.3000
     number of iterations used =            8  plain     mixing
     Exchange-correlation= PBE
                           (   1   4   3   4   0   0   0)

     celldm(1)=   6.014484  celldm(2)=   0.000000  celldm(3)=   0.000000
     celldm(4)=   0.000000  celldm(5)=   0.000000  celldm(6)=   0.000000

     crystal axes: (cart. coord. in units of alat)
               a(1) = (   1.000000   0.000000   0.000000 )  
               a(2) = (  -0.500000   0.866025   0.000000 )  
               a(3) = (   0.000000   0.000000   8.857182 )  

     reciprocal axes: (cart. coord. in units 2 pi/alat)
               b(1) = (  1.000000  0.577350  0.000000 )  
               b(2) = (  0.000000  1.154701  0.000000 )  
               b(3) = (  0.000000  0.000000  0.112903 )  


     PseudoPot. # 1 for Mo read from file:
     ../pseudo/Mo.pbe-spn-rrkjus_psl.1.0.0.UPF
     MD5 check sum: 03f09b12e49601d1a456a78ce8b2d514
     Pseudo is Ultrasoft + core correction, Zval = 14.0
     Generated using &quot;atomic&quot; code by A. Dal Corso  v.6.3
     Using radial grid of 1229 points,  6 beta functions with: 
                l(1) =   0
                l(2) =   0
                l(3) =   1
                l(4) =   1
                l(5) =   2
                l(6) =   2
     Q(r) pseudized with 0 coefficients 


     PseudoPot. # 2 for S  read from file:
     ../pseudo/S.pbe-n-rrkjus_psl.1.0.0.UPF
     MD5 check sum: 9d0fe39aa2a799ea84730884c9b010f4
     Pseudo is Ultrasoft + core correction, Zval =  6.0
     Generated using &quot;atomic&quot; code by A. Dal Corso  v.6.3
     Using radial grid of 1151 points,  6 beta functions with: 
                l(1) =   0
                l(2) =   0
                l(3) =   1
                l(4) =   1
                l(5) =   2
                l(6) =   2
     Q(r) pseudized with 0 coefficients 


     atomic species   valence    mass     pseudopotential
     Mo               14.00    95.95000     Mo( 1.00)
     S                 6.00    32.06000     S ( 1.00)

     12 Sym. Ops. (no inversion) found


                                    s                        frac. trans.

      isym =  1     identity                                     

 cryst.   s( 1) = (     1          0          0      )
                  (     0          1          0      )
                  (     0          0          1      )

 cart.    s( 1) = (  1.0000000  0.0000000  0.0000000 )
                  (  0.0000000  1.0000000  0.0000000 )
                  (  0.0000000  0.0000000  1.0000000 )


      isym =  2     180 deg rotation - cart. axis [0,1,0]        

 cryst.   s( 2) = (    -1          0          0      )
                  (     1          1          0      )
                  (     0          0         -1      )

 cart.    s( 2) = ( -1.0000000 -0.0000000  0.0000000 )
                  (  0.0000000  1.0000000  0.0000000 )
                  (  0.0000000  0.0000000 -1.0000000 )


      isym =  3     120 deg rotation - cryst. axis [0,0,1]       

 cryst.   s( 3) = (     0          1          0      )
                  (    -1         -1          0      )
                  (     0          0          1      )

 cart.    s( 3) = ( -0.5000000 -0.8660254  0.0000000 )
                  (  0.8660254 -0.5000000  0.0000000 )
                  (  0.0000000  0.0000000  1.0000000 )


      isym =  4     120 deg rotation - cryst. axis [0,0,-1]      

 cryst.   s( 4) = (    -1         -1          0      )
                  (     1          0          0      )
                  (     0          0          1      )

 cart.    s( 4) = ( -0.5000000  0.8660254  0.0000000 )
                  ( -0.8660254 -0.5000000  0.0000000 )
                  (  0.0000000  0.0000000  1.0000000 )


      isym =  5     180 deg rotation - cryst. axis [1,-1,0]      

 cryst.   s( 5) = (     0         -1          0      )
                  (    -1          0          0      )
                  (     0          0         -1      )

 cart.    s( 5) = (  0.5000000 -0.8660254  0.0000000 )
                  ( -0.8660254 -0.5000000  0.0000000 )
                  (  0.0000000  0.0000000 -1.0000000 )


      isym =  6     180 deg rotation - cryst. axis [2,1,0]       

 cryst.   s( 6) = (     1          1          0      )
                  (     0         -1          0      )
                  (     0          0         -1      )

 cart.    s( 6) = (  0.5000000  0.8660254  0.0000000 )
                  (  0.8660254 -0.5000000  0.0000000 )
                  (  0.0000000  0.0000000 -1.0000000 )


      isym =  7     inv. 180 deg rotation - cart. axis [0,0,1]   

 cryst.   s( 7) = (     1          0          0      )
                  (     0          1          0      )
                  (     0          0         -1      )

 cart.    s( 7) = (  1.0000000  0.0000000  0.0000000 )
                  (  0.0000000  1.0000000  0.0000000 )
                  (  0.0000000  0.0000000 -1.0000000 )


      isym =  8     inv. 180 deg rotation - cart. axis [1,0,0]   

 cryst.   s( 8) = (    -1          0          0      )
                  (     1          1          0      )
                  (     0          0          1      )

 cart.    s( 8) = ( -1.0000000 -0.0000000  0.0000000 )
                  (  0.0000000  1.0000000  0.0000000 )
                  (  0.0000000  0.0000000  1.0000000 )


      isym =  9     inv.  60 deg rotation - cryst. axis [0,0,1]  

 cryst.   s( 9) = (    -1         -1          0      )
                  (     1          0          0      )
                  (     0          0         -1      )

 cart.    s( 9) = ( -0.5000000  0.8660254  0.0000000 )
                  ( -0.8660254 -0.5000000  0.0000000 )
                  (  0.0000000  0.0000000 -1.0000000 )


      isym = 10     inv.  60 deg rotation - cryst. axis [0,0,-1] 

 cryst.   s(10) = (     0          1          0      )
                  (    -1         -1          0      )
                  (     0          0         -1      )

 cart.    s(10) = ( -0.5000000 -0.8660254  0.0000000 )
                  (  0.8660254 -0.5000000  0.0000000 )
                  (  0.0000000  0.0000000 -1.0000000 )


      isym = 11     inv. 180 deg rotation - cryst. axis [0,1,0]  

 cryst.   s(11) = (     1          1          0      )
                  (     0         -1          0      )
                  (     0          0          1      )

 cart.    s(11) = (  0.5000000  0.8660254  0.0000000 )
                  (  0.8660254 -0.5000000  0.0000000 )
                  (  0.0000000  0.0000000  1.0000000 )


      isym = 12     inv. 180 deg rotation - cryst. axis [1,1,0]  

 cryst.   s(12) = (     0         -1          0      )
                  (    -1          0          0      )
                  (     0          0          1      )

 cart.    s(12) = (  0.5000000 -0.8660254  0.0000000 )
                  ( -0.8660254 -0.5000000  0.0000000 )
                  (  0.0000000  0.0000000  1.0000000 )


   Cartesian axes

     site n.     atom                  positions (alat units)
         1        Mo     tau(   1) = (   0.0000000   0.0000000   4.4285909  )
         2        S      tau(   2) = (   0.5000000   0.2886751   4.9202777  )
         3        S      tau(   3) = (   0.5000000   0.2886751   3.9369041  )

   Crystallographic axes

     site n.     atom                  positions (cryst. coord.)
         1        Mo     tau(   1) = (  0.0000000  0.0000000  0.5000000  )
         2        S      tau(   2) = (  0.6666667  0.3333333  0.5555128  )
         3        S      tau(   3) = (  0.6666667  0.3333333  0.4444872  )

     number of k points=    19
                       cart. coord. in units 2pi/alat
        k(    1) = (   0.0000000   0.0000000   0.0000000), wk =   0.0138889
        k(    2) = (   0.0000000   0.0962250   0.0000000), wk =   0.0833333
        k(    3) = (   0.0000000   0.1924501   0.0000000), wk =   0.0833333
        k(    4) = (   0.0000000   0.2886751   0.0000000), wk =   0.0833333
        k(    5) = (   0.0000000   0.3849002   0.0000000), wk =   0.0833333
        k(    6) = (   0.0000000   0.4811252   0.0000000), wk =   0.0833333
        k(    7) = (   0.0000000  -0.5773503   0.0000000), wk =   0.0416667
        k(    8) = (   0.0833333   0.1443376   0.0000000), wk =   0.0833333
        k(    9) = (   0.0833333   0.2405626   0.0000000), wk =   0.1666667
        k(   10) = (   0.0833333   0.3367877   0.0000000), wk =   0.1666667
        k(   11) = (   0.0833333   0.4330127   0.0000000), wk =   0.1666667
        k(   12) = (   0.0833333   0.5292377   0.0000000), wk =   0.1666667
        k(   13) = (   0.1666667   0.2886751   0.0000000), wk =   0.0833333
        k(   14) = (   0.1666667   0.3849002   0.0000000), wk =   0.1666667
        k(   15) = (   0.1666667   0.4811252   0.0000000), wk =   0.1666667
        k(   16) = (   0.1666667   0.5773503   0.0000000), wk =   0.0833333
        k(   17) = (   0.2500000   0.4330127   0.0000000), wk =   0.0833333
        k(   18) = (   0.2500000   0.5292377   0.0000000), wk =   0.1666667
        k(   19) = (   0.3333333   0.5773503   0.0000000), wk =   0.0277778

                       cryst. coord.
        k(    1) = (   0.0000000   0.0000000   0.0000000), wk =   0.0138889
        k(    2) = (   0.0000000   0.0833333   0.0000000), wk =   0.0833333
        k(    3) = (   0.0000000   0.1666667   0.0000000), wk =   0.0833333
        k(    4) = (   0.0000000   0.2500000   0.0000000), wk =   0.0833333
        k(    5) = (   0.0000000   0.3333333   0.0000000), wk =   0.0833333
        k(    6) = (   0.0000000   0.4166667   0.0000000), wk =   0.0833333
        k(    7) = (   0.0000000  -0.5000000   0.0000000), wk =   0.0416667
        k(    8) = (   0.0833333   0.0833333   0.0000000), wk =   0.0833333
        k(    9) = (   0.0833333   0.1666667   0.0000000), wk =   0.1666667
        k(   10) = (   0.0833333   0.2500000   0.0000000), wk =   0.1666667
        k(   11) = (   0.0833333   0.3333333   0.0000000), wk =   0.1666667
        k(   12) = (   0.0833333   0.4166667   0.0000000), wk =   0.1666667
        k(   13) = (   0.1666667   0.1666667   0.0000000), wk =   0.0833333
        k(   14) = (   0.1666667   0.2500000   0.0000000), wk =   0.1666667
        k(   15) = (   0.1666667   0.3333333   0.0000000), wk =   0.1666667
        k(   16) = (   0.1666667   0.4166667   0.0000000), wk =   0.0833333
        k(   17) = (   0.2500000   0.2500000   0.0000000), wk =   0.0833333
        k(   18) = (   0.2500000   0.3333333   0.0000000), wk =   0.1666667
        k(   19) = (   0.3333333   0.3333333   0.0000000), wk =   0.0277778

     Dense  grid:   296075 G-vectors     FFT dimensions: (  45,  45, 375)

     Smooth grid:   104801 G-vectors     FFT dimensions: (  30,  30, 270)

     Dynamical RAM for                 wfc:       1.60 MB

     Dynamical RAM for     wfc (w. buffer):       9.59 MB

     Dynamical RAM for           str. fact:       4.52 MB

     Dynamical RAM for           local pot:       0.00 MB

     Dynamical RAM for          nlocal pot:       5.40 MB

     Dynamical RAM for                qrad:       3.52 MB

     Dynamical RAM for          rho,v,vnew:      15.49 MB

     Dynamical RAM for               rhoin:       5.16 MB

     Dynamical RAM for            rho*nmix:      36.14 MB

     Dynamical RAM for           G-vectors:       8.87 MB

     Dynamical RAM for          h,s,v(r/c):       0.01 MB

     Dynamical RAM for          <psi|beta>:       0.01 MB

     Dynamical RAM for      wfcinit/wfcrot:       3.20 MB

     Dynamical RAM for           addusdens:     107.87 MB

     Dynamical RAM for          addusforce:     108.44 MB

     Dynamical RAM for         addusstress:     114.36 MB

     Estimated static dynamical RAM per process >      73.85 MB

     Estimated max dynamical RAM per process >     224.36 MB

     Estimated total dynamical RAM >       1.54 GB

     Initial potential from superposition of free atoms

     starting charge      25.9991, renormalised to      26.0000

     negative rho (up, down):  4.090E-04 0.000E+00
     Starting wfcs are   18 randomized atomic wfcs

     total cpu time spent up to now is        3.6 secs

     Self-consistent Calculation

     iteration #  1     ecut=    60.00 Ry     beta= 0.30
     CG style diagonalization

---- Real-time Memory Report at c_bands before calling an iterative solver
           216 MiB given to the printing process from OS
             0 MiB allocation reported by mallinfo(arena+hblkhd)
          1776 MiB available memory on the node where the printing process lives
------------------
     ethr =  1.00E-10,  avg # of iterations = 33.6

     negative rho (up, down):  4.335E-04 0.000E+00

     total cpu time spent up to now is      105.7 secs

     total energy              =    -181.56804779 Ry
     estimated scf accuracy    <       0.11966227 Ry

     iteration #  2     ecut=    60.00 Ry     beta= 0.30
     CG style diagonalization

---- Real-time Memory Report at c_bands before calling an iterative solver
           254 MiB given to the printing process from OS
             0 MiB allocation reported by mallinfo(arena+hblkhd)
          1959 MiB available memory on the node where the printing process lives
------------------
     ethr =  4.60E-04,  avg # of iterations =  3.5

     negative rho (up, down):  4.487E-04 0.000E+00

     total cpu time spent up to now is      118.0 secs

     total energy              =    -181.57474514 Ry
     estimated scf accuracy    <       0.03292485 Ry

     iteration #  3     ecut=    60.00 Ry     beta= 0.30
     CG style diagonalization

---- Real-time Memory Report at c_bands before calling an iterative solver
           259 MiB given to the printing process from OS
             0 MiB allocation reported by mallinfo(arena+hblkhd)
          1733 MiB available memory on the node where the printing process lives
------------------
     ethr =  1.27E-04,  avg # of iterations =  3.3

     negative rho (up, down):  4.598E-04 0.000E+00

     total cpu time spent up to now is      128.9 secs

     total energy              =    -181.57857825 Ry
     estimated scf accuracy    <       0.00981506 Ry

     iteration #  4     ecut=    60.00 Ry     beta= 0.30
     CG style diagonalization

---- Real-time Memory Report at c_bands before calling an iterative solver
           263 MiB given to the printing process from OS
             0 MiB allocation reported by mallinfo(arena+hblkhd)
          1905 MiB available memory on the node where the printing process lives
------------------
     ethr =  3.78E-05,  avg # of iterations =  3.6

     negative rho (up, down):  4.744E-04 0.000E+00

     total cpu time spent up to now is      140.9 secs

     total energy              =    -181.57920207 Ry
     estimated scf accuracy    <       0.00198933 Ry

     iteration #  5     ecut=    60.00 Ry     beta= 0.30
     CG style diagonalization

---- Real-time Memory Report at c_bands before calling an iterative solver
           267 MiB given to the printing process from OS
             0 MiB allocation reported by mallinfo(arena+hblkhd)
          1709 MiB available memory on the node where the printing process lives
------------------
     ethr =  7.65E-06,  avg # of iterations =  3.9

     negative rho (up, down):  4.737E-04 0.000E+00

     total cpu time spent up to now is      154.4 secs

     total energy              =    -181.57944997 Ry
     estimated scf accuracy    <       0.00150807 Ry

     iteration #  6     ecut=    60.00 Ry     beta= 0.30
     CG style diagonalization

---- Real-time Memory Report at c_bands before calling an iterative solver
           270 MiB given to the printing process from OS
             0 MiB allocation reported by mallinfo(arena+hblkhd)
          1710 MiB available memory on the node where the printing process lives
------------------
     ethr =  5.80E-06,  avg # of iterations =  3.2

     negative rho (up, down):  4.735E-04 0.000E+00

     total cpu time spent up to now is      164.9 secs

     total energy              =    -181.57957119 Ry
     estimated scf accuracy    <       0.00007380 Ry

     iteration #  7     ecut=    60.00 Ry     beta= 0.30
     CG style diagonalization

---- Real-time Memory Report at c_bands before calling an iterative solver
           274 MiB given to the printing process from OS
             0 MiB allocation reported by mallinfo(arena+hblkhd)
          1616 MiB available memory on the node where the printing process lives
------------------
     ethr =  2.84E-07,  avg # of iterations =  4.7

     negative rho (up, down):  4.742E-04 0.000E+00

     total cpu time spent up to now is      181.3 secs

     total energy              =    -181.57962537 Ry
     estimated scf accuracy    <       0.00014645 Ry

     iteration #  8     ecut=    60.00 Ry     beta= 0.30
     CG style diagonalization

---- Real-time Memory Report at c_bands before calling an iterative solver
           279 MiB given to the printing process from OS
             0 MiB allocation reported by mallinfo(arena+hblkhd)
          1475 MiB available memory on the node where the printing process lives
------------------
     ethr =  2.84E-07,  avg # of iterations =  3.0

     negative rho (up, down):  4.751E-04 0.000E+00

     total cpu time spent up to now is      188.7 secs

     total energy              =    -181.57961584 Ry
     estimated scf accuracy    <       0.00006265 Ry

     iteration #  9     ecut=    60.00 Ry     beta= 0.30
     CG style diagonalization

---- Real-time Memory Report at c_bands before calling an iterative solver
           282 MiB given to the printing process from OS
             0 MiB allocation reported by mallinfo(arena+hblkhd)
          2329 MiB available memory on the node where the printing process lives
------------------
     ethr =  2.41E-07,  avg # of iterations =  3.3

     negative rho (up, down):  4.759E-04 0.000E+00

     total cpu time spent up to now is      199.0 secs

     total energy              =    -181.57962013 Ry
     estimated scf accuracy    <       0.00000497 Ry

     iteration # 10     ecut=    60.00 Ry     beta= 0.30
     CG style diagonalization

---- Real-time Memory Report at c_bands before calling an iterative solver
           286 MiB given to the printing process from OS
             0 MiB allocation reported by mallinfo(arena+hblkhd)
          1859 MiB available memory on the node where the printing process lives
------------------
     ethr =  1.91E-08,  avg # of iterations =  4.1

     negative rho (up, down):  4.765E-04 0.000E+00

     total cpu time spent up to now is      211.4 secs

     total energy              =    -181.57962174 Ry
     estimated scf accuracy    <       0.00000005 Ry

     iteration # 11     ecut=    60.00 Ry     beta= 0.30
     CG style diagonalization

---- Real-time Memory Report at c_bands before calling an iterative solver
           288 MiB given to the printing process from OS
             0 MiB allocation reported by mallinfo(arena+hblkhd)
          2544 MiB available memory on the node where the printing process lives
------------------
     ethr =  1.82E-10,  avg # of iterations =  5.3

     negative rho (up, down):  4.769E-04 0.000E+00

     total cpu time spent up to now is      226.6 secs

     total energy              =    -181.57962178 Ry
     estimated scf accuracy    <       0.00000008 Ry

     iteration # 12     ecut=    60.00 Ry     beta= 0.30
     CG style diagonalization

---- Real-time Memory Report at c_bands before calling an iterative solver
           290 MiB given to the printing process from OS
             0 MiB allocation reported by mallinfo(arena+hblkhd)
          1862 MiB available memory on the node where the printing process lives
------------------
     ethr =  1.82E-10,  avg # of iterations =  4.9

     negative rho (up, down):  4.773E-04 0.000E+00

     total cpu time spent up to now is      241.2 secs

     total energy              =    -181.57962177 Ry
     estimated scf accuracy    <       0.00000056 Ry

     iteration # 13     ecut=    60.00 Ry     beta= 0.30
     CG style diagonalization

---- Real-time Memory Report at c_bands before calling an iterative solver
           291 MiB given to the printing process from OS
             0 MiB allocation reported by mallinfo(arena+hblkhd)
          1828 MiB available memory on the node where the printing process lives
------------------
     ethr =  1.82E-10,  avg # of iterations =  4.4

     negative rho (up, down):  4.776E-04 0.000E+00

     total cpu time spent up to now is      254.2 secs

     total energy              =    -181.57962182 Ry
     estimated scf accuracy    <       0.00000001 Ry

     iteration # 14     ecut=    60.00 Ry     beta= 0.30
     CG style diagonalization

---- Real-time Memory Report at c_bands before calling an iterative solver
           293 MiB given to the printing process from OS
             0 MiB allocation reported by mallinfo(arena+hblkhd)
          1968 MiB available memory on the node where the printing process lives
------------------
     ethr =  4.45E-11,  avg # of iterations =  3.3

     negative rho (up, down):  4.778E-04 0.000E+00

     total cpu time spent up to now is      264.6 secs

     total energy              =    -181.57962182 Ry
     estimated scf accuracy    <          1.1E-09 Ry

     iteration # 15     ecut=    60.00 Ry     beta= 0.30
     CG style diagonalization

---- Real-time Memory Report at c_bands before calling an iterative solver
           295 MiB given to the printing process from OS
             0 MiB allocation reported by mallinfo(arena+hblkhd)
          1786 MiB available memory on the node where the printing process lives
------------------
     ethr =  4.22E-12,  avg # of iterations =  4.9

     negative rho (up, down):  4.779E-04 0.000E+00

     total cpu time spent up to now is      278.4 secs

     total energy              =    -181.57962183 Ry
     estimated scf accuracy    <          6.7E-10 Ry

     iteration # 16     ecut=    60.00 Ry     beta= 0.30
     CG style diagonalization

---- Real-time Memory Report at c_bands before calling an iterative solver
           296 MiB given to the printing process from OS
             0 MiB allocation reported by mallinfo(arena+hblkhd)
          2046 MiB available memory on the node where the printing process lives
------------------
     ethr =  2.59E-12,  avg # of iterations =  3.0

     negative rho (up, down):  4.780E-04 0.000E+00

     total cpu time spent up to now is      287.8 secs

     total energy              =    -181.57962183 Ry
     estimated scf accuracy    <          5.4E-10 Ry

     iteration # 17     ecut=    60.00 Ry     beta= 0.30
     CG style diagonalization

---- Real-time Memory Report at c_bands before calling an iterative solver
           297 MiB given to the printing process from OS
             0 MiB allocation reported by mallinfo(arena+hblkhd)
          2490 MiB available memory on the node where the printing process lives
------------------
     ethr =  2.08E-12,  avg # of iterations =  3.4

     negative rho (up, down):  4.783E-04 0.000E+00

     total cpu time spent up to now is      297.0 secs

     End of self-consistent calculation

          k = 0.0000 0.0000 0.0000 ( 13229 PWs)   bands (ev):

   -63.2952 -37.4368 -37.2301 -37.2301 -16.4869 -15.1903  -8.0094  -5.0068
    -5.0068  -4.1856  -3.9024  -3.9024  -2.4215   0.3506   0.3506   0.5912

     occupation numbers 
     1.0000   1.0000   1.0000   1.0000   1.0000   1.0000   1.0000   1.0000
     1.0000   1.0000   1.0000   1.0000   1.0000   0.0000   0.0000   0.0000

          k = 0.0000 0.0962 0.0000 ( 13181 PWs)   bands (ev):

   -63.2926 -37.4318 -37.2555 -37.2359 -16.3848 -15.1480  -7.8924  -5.2354
    -4.9000  -4.6687  -4.0654  -3.5776  -2.4726   0.2167   0.3142   0.4761

     occupation numbers 
     1.0000   1.0000   1.0000   1.0000   1.0000   1.0000   1.0000   1.0000
     1.0000   1.0000   1.0000   1.0000   1.0000   0.0000   0.0000   0.0000

          k = 0.0000 0.1925 0.0000 ( 13147 PWs)   bands (ev):

   -63.2858 -37.4182 -37.3245 -37.2517 -16.0943 -15.0278  -7.5980  -5.7610
    -5.3127  -4.6022  -4.4495  -3.4911  -2.7041  -0.1177   0.1622   0.2086

     occupation numbers 
     1.0000   1.0000   1.0000   1.0000   1.0000   1.0000   1.0000   1.0000
     1.0000   1.0000   1.0000   1.0000   1.0000   0.0000   0.0000   0.0000

          k = 0.0000 0.2887 0.0000 ( 13127 PWs)   bands (ev):

   -63.2764 -37.4175 -37.3996 -37.2731 -15.6646 -14.8512  -7.3851  -6.2113
    -5.9689  -4.8804  -4.1848  -3.7363  -3.1307  -0.2450  -0.0571   0.4856

     occupation numbers 
     1.0000   1.0000   1.0000   1.0000   1.0000   1.0000   1.0000   1.0000
     1.0000   1.0000   1.0000   1.0000   1.0000   0.0000   0.0000   0.0000

          k = 0.0000 0.3849 0.0000 ( 13121 PWs)   bands (ev):

   -63.2671 -37.5092 -37.3809 -37.2945 -15.1828 -14.6572  -7.6297  -6.5761
    -6.3020  -5.2431  -4.0341  -3.7674  -3.3767  -0.1991  -0.0792   0.9738

     occupation numbers 
     1.0000   1.0000   1.0000   1.0000   1.0000   1.0000   1.0000   1.0000
     1.0000   1.0000   1.0000   1.0000   1.0000   0.0000   0.0000   0.0000

          k = 0.0000 0.4811 0.0000 ( 13083 PWs)   bands (ev):

   -63.2602 -37.5755 -37.3672 -37.3101 -14.7825 -14.5013  -8.0053  -7.0202
    -6.3930  -5.4786  -4.2228  -3.4780  -3.2082  -0.1984   0.1894   1.3356

     occupation numbers 
     1.0000   1.0000   1.0000   1.0000   1.0000   1.0000   1.0000   1.0000
     1.0000   1.0000   1.0000   1.0000   1.0000   0.0000   0.0000   0.0000

          k = 0.0000-0.5774 0.0000 ( 13092 PWs)   bands (ev):

   -63.2577 -37.5996 -37.3621 -37.3158 -14.6221 -14.4407  -8.1654  -7.1846
    -6.4656  -5.5598  -4.2833  -3.3796  -3.0432  -0.1682   0.3398   1.4530

     occupation numbers 
     1.0000   1.0000   1.0000   1.0000   1.0000   1.0000   1.0000   1.0000
     1.0000   1.0000   1.0000   1.0000   1.0000   0.0000   0.0000   0.0000

          k = 0.0833 0.1443 0.0000 ( 13163 PWs)   bands (ev):

   -63.2879 -37.4225 -37.3014 -37.2480 -16.1884 -15.0666  -7.6831  -5.6053
    -5.0963  -4.7059  -4.4445  -3.3883  -2.6147  -0.0202   0.0761   0.2724

     occupation numbers 
     1.0000   1.0000   1.0000   1.0000   1.0000   1.0000   1.0000   1.0000
     1.0000   1.0000   1.0000   1.0000   1.0000   0.0000   0.0000   0.0000

          k = 0.0833 0.2406 0.0000 ( 13120 PWs)   bands (ev):

   -63.2798 -37.4064 -37.3791 -37.2699 -15.8273 -14.9172  -7.3982  -6.0780
    -5.6384  -4.9867  -4.3969  -3.4191  -2.9565  -0.3121   0.0525   0.1527

     occupation numbers 
     1.0000   1.0000   1.0000   1.0000   1.0000   1.0000   1.0000   1.0000
     1.0000   1.0000   1.0000   1.0000   1.0000   0.0000   0.0000   0.0000

          k = 0.0833 0.3368 0.0000 ( 13132 PWs)   bands (ev):

   -63.2705 -37.4675 -37.3877 -37.2953 -15.3680 -14.7288  -7.4222  -6.2882
    -6.2581  -5.3460  -4.1511  -3.7115  -3.2543  -0.3734   0.0062   0.5494

     occupation numbers 
     1.0000   1.0000   1.0000   1.0000   1.0000   1.0000   1.0000   1.0000
     1.0000   1.0000   1.0000   1.0000   1.0000   0.0000   0.0000   0.0000

          k = 0.0833 0.4330 0.0000 ( 13078 PWs)   bands (ev):

   -63.2623 -37.5430 -37.3715 -37.3172 -14.9190 -14.5485  -7.7656  -6.8764
    -6.2875  -5.5121  -4.0390  -4.0304  -3.1519  -0.2381   0.1155   1.0309

     occupation numbers 
     1.0000   1.0000   1.0000   1.0000   1.0000   1.0000   1.0000   1.0000
     1.0000   1.0000   1.0000   1.0000   1.0000   0.0000   0.0000   0.0000

          k = 0.0833 0.5292 0.0000 ( 13058 PWs)   bands (ev):

   -63.2576 -37.5862 -37.3621 -37.3298 -14.6292 -14.4354  -8.0270  -7.2188
    -6.4079  -5.5676  -4.2407  -3.9041  -2.9122  -0.1564   0.3384   1.4252

     occupation numbers 
     1.0000   1.0000   1.0000   1.0000   1.0000   1.0000   1.0000   1.0000
     1.0000   1.0000   1.0000   1.0000   1.0000   0.0000   0.0000   0.0000

          k = 0.1667 0.2887 0.0000 ( 13151 PWs)   bands (ev):

   -63.2718 -37.4461 -37.3902 -37.3017 -15.4342 -14.7536  -7.3186  -6.2215
    -6.0654  -5.5820  -4.3689  -3.4562  -3.1943  -0.4802   0.0607   0.2575

     occupation numbers 
     1.0000   1.0000   1.0000   1.0000   1.0000   1.0000   1.0000   1.0000
     1.0000   1.0000   1.0000   1.0000   1.0000   0.0000   0.0000   0.0000

          k = 0.1667 0.3849 0.0000 ( 13103 PWs)   bands (ev):

   -63.2636 -37.5091 -37.3740 -37.3369 -14.9985 -14.5720  -7.5064  -6.7565
    -6.1278  -5.6872  -4.6375  -3.7561  -3.1512  -0.3322   0.1418   0.5830

     occupation numbers 
     1.0000   1.0000   1.0000   1.0000   1.0000   1.0000   1.0000   1.0000
     1.0000   1.0000   1.0000   1.0000   1.0000   0.0000   0.0000   0.0000

          k = 0.1667 0.4811 0.0000 ( 13062 PWs)   bands (ev):

   -63.2576 -37.5535 -37.3637 -37.3622 -14.6431 -14.4246  -7.7026  -7.2815
    -6.2293  -5.6059  -4.7625  -4.1210  -2.9028  -0.2007   0.3761   0.9248

     occupation numbers 
     1.0000   1.0000   1.0000   1.0000   1.0000   1.0000   1.0000   1.0000
     1.0000   1.0000   1.0000   1.0000   1.0000   0.0000   0.0000   0.0000

          k = 0.1667 0.5774 0.0000 ( 13036 PWs)   bands (ev):

   -63.2554 -37.5695 -37.3737 -37.3578 -14.5031 -14.3669  -7.7740  -7.4722
    -6.3482  -5.5354  -4.7595  -4.2957  -2.7261  -0.2789   0.6221   1.0771

     occupation numbers 
     1.0000   1.0000   1.0000   1.0000   1.0000   1.0000   1.0000   1.0000
     1.0000   1.0000   1.0000   1.0000   1.0000   0.0000   0.0000   0.0000

          k = 0.2500 0.4330 0.0000 ( 13077 PWs)   bands (ev):

   -63.2577 -37.5317 -37.3862 -37.3622 -14.6500 -14.4192  -7.5064  -7.3105
    -6.0083  -5.6336  -5.3125  -4.0456  -2.9249  -0.2402   0.4037   0.6803

     occupation numbers 
     1.0000   1.0000   1.0000   1.0000   1.0000   1.0000   1.0000   1.0000
     1.0000   1.0000   1.0000   1.0000   1.0000   0.0000   0.0000   0.0000

          k = 0.2500 0.5292 0.0000 ( 13034 PWs)   bands (ev):

   -63.2542 -37.5363 -37.4230 -37.3553 -14.4344 -14.3220  -7.6521  -7.3793
    -6.2171  -5.6136  -5.4391  -4.3759  -2.6151  -0.4978   0.7320   0.8655

     occupation numbers 
     1.0000   1.0000   1.0000   1.0000   1.0000   1.0000   1.0000   1.0000
     1.0000   1.0000   1.0000   1.0000   1.0000   0.0000   0.0000   0.0000

          k = 0.3333 0.5774 0.0000 ( 12990 PWs)   bands (ev):

   -63.2528 -37.5086 -37.4662 -37.3528 -14.3568 -14.2814  -7.7975  -6.9852
    -6.4675  -5.9570  -5.2815  -4.5632  -2.4239  -0.7371   0.6393   1.1197

     occupation numbers 
     1.0000   1.0000   1.0000   1.0000   1.0000   1.0000   1.0000   1.0000
     1.0000   1.0000   1.0000   1.0000   1.0000   0.0000   0.0000   0.0000

     highest occupied, lowest unoccupied level (ev):    -2.4215   -0.7371

!    total energy              =    -181.57962183 Ry
     estimated scf accuracy    <          9.8E-13 Ry

     The total energy is the sum of the following terms:
     one-electron contribution =   -1796.51137873 Ry
     hartree contribution      =     897.09757805 Ry
     xc contribution           =     -29.68769626 Ry
     ewald contribution        =     747.52187511 Ry

     convergence has been achieved in  17 iterations

     negative rho (up, down):  4.783E-04 0.000E+00

     Forces acting on atoms (cartesian axes, Ry/au):

     atom    1 type  1   force =     0.00000000    0.00000000    0.00000000
     atom    2 type  2   force =     0.00000000    0.00000000    0.00000236
     atom    3 type  2   force =     0.00000000    0.00000000   -0.00000236
     The non-local contrib.  to forces
     atom    1 type  1   force =     0.00000000   -0.00000000    0.00000000
     atom    2 type  2   force =     0.00000000   -0.00000000   -0.27347835
     atom    3 type  2   force =     0.00000000    0.00000000    0.27347835
     The ionic contribution  to forces
     atom    1 type  1   force =     0.00000000   -0.00000000   -0.00000000
     atom    2 type  2   force =    -0.00000000    0.00000000   38.73068657
     atom    3 type  2   force =    -0.00000000    0.00000000  -38.73068657
     The local contribution  to forces
     atom    1 type  1   force =    -0.00000000    0.00000000    0.00000000
     atom    2 type  2   force =    -0.00000000    0.00000000  -38.45970414
     atom    3 type  2   force =    -0.00000000    0.00000000   38.45970414
     The core correction contribution to forces
     atom    1 type  1   force =    -0.00000000    0.00000000    0.00000000
     atom    2 type  2   force =     0.00000000   -0.00000000    0.00249772
     atom    3 type  2   force =     0.00000000   -0.00000000   -0.00249772
     The Hubbard contrib.    to forces
     atom    1 type  1   force =     0.00000000    0.00000000    0.00000000
     atom    2 type  2   force =     0.00000000    0.00000000    0.00000000
     atom    3 type  2   force =     0.00000000    0.00000000    0.00000000
     The SCF correction term to forces
     atom    1 type  1   force =    -0.00000000   -0.00000000    0.00000000
     atom    2 type  2   force =     0.00000000    0.00000000    0.00000056
     atom    3 type  2   force =     0.00000000    0.00000000   -0.00000056

     Total force =     0.000003     Total SCF correction =     0.000001
     SCF correction compared to forces is large: reduce conv_thr to get better values


     Computing stress (Cartesian axis) and pressure


     negative rho (up, down):  4.783E-04 0.000E+00
          total   stress  (Ry/bohr**3)                   (kbar)     P=       -0.21
   0.00000004   0.00000000  -0.00000000            0.01        0.00       -0.00
   0.00000000   0.00000004  -0.00000000            0.00        0.01       -0.00
  -0.00000000  -0.00000000  -0.00000434           -0.00       -0.00       -0.64

     kinetic stress (kbar)   4005.21      0.00      0.00
                                0.00   4005.21      0.00
                                0.00      0.00   4043.30

     local   stress (kbar)-157648.67      0.00      0.00
                                0.00-157648.67     -0.00
                                0.00     -0.00 155159.30

     nonloc. stress (kbar)   1832.59      0.00      0.00
                                0.00   1832.59      0.00
                                0.00      0.00   1824.31

     hartree stress (kbar)  77603.35     -0.00     -0.00
                               -0.00  77603.35      0.00
                               -0.00      0.00 -76130.46

     exc-cor stress (kbar)   -340.13     -0.00     -0.00
                               -0.00   -340.13      0.00
                               -0.00      0.00   -341.02

     corecor stress (kbar)   -450.67      0.00     -0.00
                                0.00   -450.67     -0.00
                               -0.00     -0.00   -451.02

     ewald   stress (kbar)  74998.33     -0.00      0.00
                               -0.00  74998.33      0.00
                                0.00      0.00 -84105.03

     hubbard stress (kbar)      0.00      0.00      0.00
                                0.00      0.00      0.00
                                0.00      0.00      0.00

     DFT-D   stress (kbar)      0.00      0.00      0.00
                                0.00      0.00      0.00
                                0.00      0.00      0.00

     XDM     stress (kbar)      0.00      0.00      0.00
                                0.00      0.00      0.00
                                0.00      0.00      0.00

     dft-nl  stress (kbar)      0.00      0.00      0.00
                                0.00      0.00      0.00
                                0.00      0.00      0.00

     TS-vdW  stress (kbar)      0.00      0.00      0.00
                                0.00      0.00      0.00
                                0.00      0.00      0.00

     MDB     stress (kbar)      0.00      0.00      0.00
                                0.00      0.00      0.00
                                0.00      0.00      0.00

     3D-RISM stress (kbar)      0.00      0.00      0.00
                                0.00      0.00      0.00
                                0.00      0.00      0.00


     Writing all to output data dir ./tmp/mos2.save/ :
     XML data file, charge density, pseudopotentials, collected wavefunctions
 
     init_run     :      2.67s CPU      3.40s WALL (       1 calls)
     electrons    :    276.78s CPU    293.42s WALL (       1 calls)
     forces       :      2.83s CPU      3.55s WALL (       1 calls)
     stress       :      8.53s CPU     10.83s WALL (       1 calls)

     Called by init_run:
     wfcinit      :      0.97s CPU      1.01s WALL (       1 calls)
     wfcinit:atom :      0.02s CPU      0.02s WALL (       5 calls)
     wfcinit:wfcr :      0.86s CPU      0.88s WALL (       5 calls)
     potinit      :      0.64s CPU      0.87s WALL (       1 calls)
     hinit0       :      0.39s CPU      0.44s WALL (       1 calls)

     Called by electrons:
     c_bands      :    233.31s CPU    235.63s WALL (      17 calls)
     sum_band     :     19.66s CPU     25.39s WALL (      17 calls)
     v_of_rho     :     11.01s CPU     13.11s WALL (      18 calls)
     v_h          :      1.05s CPU      1.38s WALL (      18 calls)
     v_xc         :     11.59s CPU     13.77s WALL (      20 calls)
     newd         :     11.14s CPU     17.95s WALL (      18 calls)
     mix_rho      :      1.06s CPU      1.10s WALL (      17 calls)

     Called by c_bands:
     init_us_2    :      3.01s CPU      3.08s WALL (     185 calls)
     ccgdiagg     :    211.77s CPU    213.86s WALL (      85 calls)
     wfcrot       :     12.64s CPU     12.77s WALL (      85 calls)

     Called by sum_band:
     sum_band:wei :      0.01s CPU      0.01s WALL (      17 calls)
     sum_band:loo :      6.71s CPU      6.77s WALL (      17 calls)
     sum_band:buf :      0.22s CPU      0.22s WALL (      85 calls)
     sum_band:ini :      1.28s CPU      1.30s WALL (      85 calls)
     sum_band:cal :      0.81s CPU      0.82s WALL (      85 calls)
     sum_band:bec :      0.00s CPU      0.00s WALL (      85 calls)
     addusdens    :     10.79s CPU     16.21s WALL (      17 calls)
                                        0.00s GPU  (      17 calls)
     addusd:skk   :      0.02s CPU      0.02s WALL (      34 calls)
                                        0.00s GPU  (      34 calls)

     Called by *cgdiagg:
     h_psi        :    127.53s CPU    128.72s WALL (    6590 calls)
     s_psi        :     52.01s CPU     52.67s WALL (   13095 calls)

     Called by h_psi:
     h_psi:calbec :     31.60s CPU     31.86s WALL (    6590 calls)
     vloc_psi     :     66.32s CPU     66.94s WALL (    6590 calls)
                                        0.00s GPU  (    6590 calls)
     add_vuspsi   :     28.37s CPU     28.70s WALL (    6590 calls)
     hs_1psi      :    144.23s CPU    145.64s WALL (    6505 calls)
     s_1psi       :     51.89s CPU     52.42s WALL (    6505 calls)

     General routines
     calbec       :     59.63s CPU     60.14s WALL (   13265 calls)
     fft          :      8.09s CPU      9.34s WALL (     257 calls)
     ffts         :      0.24s CPU      0.27s WALL (      35 calls)
     fftw         :     45.61s CPU     45.98s WALL (   17110 calls)
     interpolate  :      0.81s CPU      0.89s WALL (      18 calls)
 
     Parallel routines
 
     PWSCF        :   4m51.05s CPU   5m11.60s WALL

 
   This run was terminated on:   0:14:38  23Sep2026            

=------------------------------------------------------------------------------=
   JOB DONE.
=------------------------------------------------------------------------------=
