
     Program PWSCF v.7.5 starts on 23Sep2026 at  0:14:22 

     This program is part of the open-source Quantum ESPRESSO suite
     for quantum simulation of materials; please cite
         "P. Giannozzi et al., J. Phys.:Condens. Matter 21 395502 (2009);
         "P. Giannozzi et al., J. Phys.:Condens. Matter 29 465901 (2017);
         "P. Giannozzi et al., J. Chem. Phys. 152 154105 (2020);
          URL http://www.quantum-espresso.org", 
     in publications or presentations arising from this work. More details at
     http://www.quantum-espresso.org/quote

     Parallel version (MPI), running on     8 processors

     MPI processes distributed on     1 nodes
     2590 MiB available memory on the printing compute node when the environment starts
 
     Reading input from mos2.scf.in

     Current dimensions of program PWSCF are:
     Max number of different atomic species (ntypx) = 10
     Max number of k-points (npk) =  40000
     Max angular momentum in pseudopotentials (lmaxx) =  4
     file Mo.pbe-spn-rrkjus_psl.1.0.0.UPF: wavefunction(s)  4S renormalized
     Message from routine setup:
     using ibrav=0 with symmetry is DISCOURAGED, use correct ibrav instead
 
     K-points division:     npool     =       4
     R & G space division:  proc/nbgrp/npool/nimage =       2
     Subspace diagonalization in iterative solution of the eigenvalue problem:
     a serial algorithm will be used

 
     Parallelization info
     --------------------
     sticks:   dense  smooth     PW     G-vecs:    dense   smooth      PW
     Min         598     297     93               122403    43281    7057
     Max         599     298     94               122410    43298    7064
     Sum        1197     595    187               244813    86579   14121
 
     Using Slab Decomposition
 


     bravais-lattice index     =            0
     lattice parameter (alat)  =       6.0446  a.u.
     unit-cell volume          =    1379.7267 (a.u.)^3
     number of atoms/cell      =            3
     number of atomic types    =            2
     number of electrons       =        26.00
     number of Kohn-Sham states=           16
     kinetic-energy cutoff     =      60.0000  Ry
     charge density cutoff     =     480.0000  Ry
     scf convergence threshold =      1.0E-12
     mixing beta               =       0.3000
     number of iterations used =            8  plain     mixing
     Exchange-correlation= PBE
                           (   1   4   3   4   0   0   0)

     celldm(1)=   6.044557  celldm(2)=   0.000000  celldm(3)=   0.000000
     celldm(4)=   0.000000  celldm(5)=   0.000000  celldm(6)=   0.000000

     crystal axes: (cart. coord. in units of alat)
               a(1) = (   1.000000   0.000000   0.000000 )  
               a(2) = (  -0.500000   0.861717   0.000000 )  
               a(3) = (   0.000000   0.000000   7.249953 )  

     reciprocal axes: (cart. coord. in units 2 pi/alat)
               b(1) = (  1.000000  0.580237  0.000000 )  
               b(2) = (  0.000000  1.160474  0.000000 )  
               b(3) = (  0.000000  0.000000  0.137932 )  


     PseudoPot. # 1 for Mo read from file:
     ../pseudo/Mo.pbe-spn-rrkjus_psl.1.0.0.UPF
     MD5 check sum: 03f09b12e49601d1a456a78ce8b2d514
     Pseudo is Ultrasoft + core correction, Zval = 14.0
     Generated using &quot;atomic&quot; code by A. Dal Corso  v.6.3
     Using radial grid of 1229 points,  6 beta functions with: 
                l(1) =   0
                l(2) =   0
                l(3) =   1
                l(4) =   1
                l(5) =   2
                l(6) =   2
     Q(r) pseudized with 0 coefficients 


     PseudoPot. # 2 for S  read from file:
     ../pseudo/S.pbe-n-rrkjus_psl.1.0.0.UPF
     MD5 check sum: 9d0fe39aa2a799ea84730884c9b010f4
     Pseudo is Ultrasoft + core correction, Zval =  6.0
     Generated using &quot;atomic&quot; code by A. Dal Corso  v.6.3
     Using radial grid of 1151 points,  6 beta functions with: 
                l(1) =   0
                l(2) =   0
                l(3) =   1
                l(4) =   1
                l(5) =   2
                l(6) =   2
     Q(r) pseudized with 0 coefficients 


     atomic species   valence    mass     pseudopotential
     Mo               14.00    95.95000     Mo( 1.00)
     S                 6.00    32.06000     S ( 1.00)

      4 Sym. Ops. (no inversion) found


                                    s                        frac. trans.

      isym =  1     identity                                     

 cryst.   s( 1) = (     1          0          0      )
                  (     0          1          0      )
                  (     0          0          1      )

 cart.    s( 1) = (  1.0000000  0.0000000  0.0000000 )
                  (  0.0000000  1.0000000  0.0000000 )
                  (  0.0000000  0.0000000  1.0000000 )


      isym =  2     180 deg rotation - cart. axis [0,1,0]        

 cryst.   s( 2) = (    -1          0          0      )
                  (     1          1          0      )
                  (     0          0         -1      )

 cart.    s( 2) = ( -1.0000000  0.0000000  0.0000000 )
                  (  0.0000000  1.0000000  0.0000000 )
                  (  0.0000000  0.0000000 -1.0000000 )


      isym =  3     inv. 180 deg rotation - cart. axis [0,0,1]   

 cryst.   s( 3) = (     1          0          0      )
                  (     0          1          0      )
                  (     0          0         -1      )

 cart.    s( 3) = (  1.0000000  0.0000000  0.0000000 )
                  (  0.0000000  1.0000000  0.0000000 )
                  (  0.0000000  0.0000000 -1.0000000 )


      isym =  4     inv. 180 deg rotation - cart. axis [1,0,0]   

 cryst.   s( 4) = (    -1          0          0      )
                  (     1          1          0      )
                  (     0          0          1      )

 cart.    s( 4) = ( -1.0000000  0.0000000  0.0000000 )
                  (  0.0000000  1.0000000  0.0000000 )
                  (  0.0000000  0.0000000  1.0000000 )


   Cartesian axes

     site n.     atom                  positions (alat units)
         1        Mo     tau(   1) = (   0.0000000   0.0003226   3.6249763  )
         2        S      tau(   2) = (   0.5000000   0.2870776   4.1133922  )
         3        S      tau(   3) = (   0.5000000   0.2870776   3.1365604  )

   Crystallographic axes

     site n.     atom                  positions (cryst. coord.)
         1        Mo     tau(   1) = (  0.0001872  0.0003744  0.5000000  )
         2        S      tau(   2) = (  0.6665731  0.3331461  0.5673682  )
         3        S      tau(   3) = (  0.6665731  0.3331461  0.4326318  )

     number of k points=    73
                       cart. coord. in units 2pi/alat
        k(    1) = (   0.0000000   0.0000000   0.0000000), wk =   0.0078125
        k(    2) = (   0.0000000   0.0725296   0.0000000), wk =   0.0156250
        k(    3) = (   0.0000000   0.1450593   0.0000000), wk =   0.0156250
        k(    4) = (   0.0000000   0.2175889   0.0000000), wk =   0.0156250
        k(    5) = (   0.0000000   0.2901185   0.0000000), wk =   0.0156250
        k(    6) = (   0.0000000   0.3626481   0.0000000), wk =   0.0156250
        k(    7) = (   0.0000000   0.4351778   0.0000000), wk =   0.0156250
        k(    8) = (   0.0000000   0.5077074   0.0000000), wk =   0.0156250
        k(    9) = (   0.0000000  -0.5802370   0.0000000), wk =   0.0078125
        k(   10) = (   0.0625000   0.0362648   0.0000000), wk =   0.0312500
        k(   11) = (   0.0625000   0.1087944   0.0000000), wk =   0.0312500
        k(   12) = (   0.0625000   0.1813241   0.0000000), wk =   0.0312500
        k(   13) = (   0.0625000   0.2538537   0.0000000), wk =   0.0312500
        k(   14) = (   0.0625000   0.3263833   0.0000000), wk =   0.0312500
        k(   15) = (   0.0625000   0.3989130   0.0000000), wk =   0.0312500
        k(   16) = (   0.0625000   0.4714426   0.0000000), wk =   0.0312500
        k(   17) = (   0.0625000   0.5439722   0.0000000), wk =   0.0312500
        k(   18) = (   0.1250000   0.0725296   0.0000000), wk =   0.0312500
        k(   19) = (   0.1250000   0.1450593   0.0000000), wk =   0.0312500
        k(   20) = (   0.1250000   0.2175889   0.0000000), wk =   0.0312500
        k(   21) = (   0.1250000   0.2901185   0.0000000), wk =   0.0312500
        k(   22) = (   0.1250000   0.3626481   0.0000000), wk =   0.0312500
        k(   23) = (   0.1250000   0.4351778   0.0000000), wk =   0.0312500
        k(   24) = (   0.1250000   0.5077074   0.0000000), wk =   0.0312500
        k(   25) = (   0.1250000   0.5802370   0.0000000), wk =   0.0156250
        k(   26) = (   0.1250000  -0.0000000   0.0000000), wk =   0.0156250
        k(   27) = (   0.1875000   0.1087944   0.0000000), wk =   0.0312500
        k(   28) = (   0.1875000   0.1813241   0.0000000), wk =   0.0312500
        k(   29) = (   0.1875000   0.2538537   0.0000000), wk =   0.0312500
        k(   30) = (   0.1875000   0.3263833   0.0000000), wk =   0.0312500
        k(   31) = (   0.1875000   0.3989130   0.0000000), wk =   0.0312500
        k(   32) = (   0.1875000   0.4714426   0.0000000), wk =   0.0312500
        k(   33) = (   0.1875000   0.5439722   0.0000000), wk =   0.0312500
        k(   34) = (   0.1875000  -0.0362648   0.0000000), wk =   0.0312500
        k(   35) = (   0.2500000   0.1450593   0.0000000), wk =   0.0312500
        k(   36) = (   0.2500000   0.2175889   0.0000000), wk =   0.0312500
        k(   37) = (   0.2500000   0.2901185   0.0000000), wk =   0.0312500
        k(   38) = (   0.2500000   0.3626481   0.0000000), wk =   0.0312500
        k(   39) = (   0.2500000   0.4351778   0.0000000), wk =   0.0312500
        k(   40) = (   0.2500000   0.5077074   0.0000000), wk =   0.0312500
        k(   41) = (   0.2500000   0.5802370   0.0000000), wk =   0.0156250
        k(   42) = (   0.2500000  -0.0725296   0.0000000), wk =   0.0312500
        k(   43) = (   0.2500000  -0.0000000   0.0000000), wk =   0.0156250
        k(   44) = (   0.3125000   0.1813241   0.0000000), wk =   0.0312500
        k(   45) = (   0.3125000   0.2538537   0.0000000), wk =   0.0312500
        k(   46) = (   0.3125000   0.3263833   0.0000000), wk =   0.0312500
        k(   47) = (   0.3125000   0.3989130   0.0000000), wk =   0.0312500
        k(   48) = (   0.3125000   0.4714426   0.0000000), wk =   0.0312500
        k(   49) = (   0.3125000   0.5439722   0.0000000), wk =   0.0312500
        k(   50) = (   0.3125000  -0.1087944   0.0000000), wk =   0.0312500
        k(   51) = (   0.3125000  -0.0362648   0.0000000), wk =   0.0312500
        k(   52) = (   0.3750000   0.2175889   0.0000000), wk =   0.0312500
        k(   53) = (   0.3750000   0.2901185   0.0000000), wk =   0.0312500
        k(   54) = (   0.3750000   0.3626481   0.0000000), wk =   0.0312500
        k(   55) = (   0.3750000   0.4351778   0.0000000), wk =   0.0312500
        k(   56) = (   0.3750000   0.5077074   0.0000000), wk =   0.0312500
        k(   57) = (   0.3750000   0.5802370   0.0000000), wk =   0.0156250
        k(   58) = (   0.3750000  -0.1450593   0.0000000), wk =   0.0312500
        k(   59) = (   0.3750000  -0.0725296   0.0000000), wk =   0.0312500
        k(   60) = (   0.3750000  -0.0000000   0.0000000), wk =   0.0156250
        k(   61) = (   0.4375000   0.2538537   0.0000000), wk =   0.0312500
        k(   62) = (   0.4375000   0.3263833   0.0000000), wk =   0.0312500
        k(   63) = (   0.4375000   0.3989130   0.0000000), wk =   0.0312500
        k(   64) = (   0.4375000   0.4714426   0.0000000), wk =   0.0312500
        k(   65) = (   0.4375000   0.5439722   0.0000000), wk =   0.0312500
        k(   66) = (   0.4375000  -0.1813241   0.0000000), wk =   0.0312500
        k(   67) = (   0.4375000  -0.1087944   0.0000000), wk =   0.0312500
        k(   68) = (   0.4375000  -0.0362648   0.0000000), wk =   0.0312500
        k(   69) = (  -0.5000000  -0.2901185   0.0000000), wk =   0.0156250
        k(   70) = (  -0.5000000  -0.2175889   0.0000000), wk =   0.0312500
        k(   71) = (  -0.5000000  -0.1450593   0.0000000), wk =   0.0312500
        k(   72) = (  -0.5000000  -0.0725296   0.0000000), wk =   0.0312500
        k(   73) = (  -0.5000000   0.0000000   0.0000000), wk =   0.0156250

                       cryst. coord.
        k(    1) = (   0.0000000   0.0000000   0.0000000), wk =   0.0078125
        k(    2) = (   0.0000000   0.0625000   0.0000000), wk =   0.0156250
        k(    3) = (   0.0000000   0.1250000   0.0000000), wk =   0.0156250
        k(    4) = (   0.0000000   0.1875000   0.0000000), wk =   0.0156250
        k(    5) = (   0.0000000   0.2500000   0.0000000), wk =   0.0156250
        k(    6) = (   0.0000000   0.3125000   0.0000000), wk =   0.0156250
        k(    7) = (   0.0000000   0.3750000   0.0000000), wk =   0.0156250
        k(    8) = (   0.0000000   0.4375000   0.0000000), wk =   0.0156250
        k(    9) = (   0.0000000  -0.5000000   0.0000000), wk =   0.0078125
        k(   10) = (   0.0625000   0.0000000   0.0000000), wk =   0.0312500
        k(   11) = (   0.0625000   0.0625000   0.0000000), wk =   0.0312500
        k(   12) = (   0.0625000   0.1250000   0.0000000), wk =   0.0312500
        k(   13) = (   0.0625000   0.1875000   0.0000000), wk =   0.0312500
        k(   14) = (   0.0625000   0.2500000   0.0000000), wk =   0.0312500
        k(   15) = (   0.0625000   0.3125000   0.0000000), wk =   0.0312500
        k(   16) = (   0.0625000   0.3750000   0.0000000), wk =   0.0312500
        k(   17) = (   0.0625000   0.4375000   0.0000000), wk =   0.0312500
        k(   18) = (   0.1250000   0.0000000   0.0000000), wk =   0.0312500
        k(   19) = (   0.1250000   0.0625000   0.0000000), wk =   0.0312500
        k(   20) = (   0.1250000   0.1250000   0.0000000), wk =   0.0312500
        k(   21) = (   0.1250000   0.1875000   0.0000000), wk =   0.0312500
        k(   22) = (   0.1250000   0.2500000   0.0000000), wk =   0.0312500
        k(   23) = (   0.1250000   0.3125000   0.0000000), wk =   0.0312500
        k(   24) = (   0.1250000   0.3750000   0.0000000), wk =   0.0312500
        k(   25) = (   0.1250000   0.4375000   0.0000000), wk =   0.0156250
        k(   26) = (   0.1250000  -0.0625000   0.0000000), wk =   0.0156250
        k(   27) = (   0.1875000   0.0000000   0.0000000), wk =   0.0312500
        k(   28) = (   0.1875000   0.0625000   0.0000000), wk =   0.0312500
        k(   29) = (   0.1875000   0.1250000   0.0000000), wk =   0.0312500
        k(   30) = (   0.1875000   0.1875000   0.0000000), wk =   0.0312500
        k(   31) = (   0.1875000   0.2500000   0.0000000), wk =   0.0312500
        k(   32) = (   0.1875000   0.3125000   0.0000000), wk =   0.0312500
        k(   33) = (   0.1875000   0.3750000   0.0000000), wk =   0.0312500
        k(   34) = (   0.1875000  -0.1250000   0.0000000), wk =   0.0312500
        k(   35) = (   0.2500000   0.0000000   0.0000000), wk =   0.0312500
        k(   36) = (   0.2500000   0.0625000   0.0000000), wk =   0.0312500
        k(   37) = (   0.2500000   0.1250000   0.0000000), wk =   0.0312500
        k(   38) = (   0.2500000   0.1875000   0.0000000), wk =   0.0312500
        k(   39) = (   0.2500000   0.2500000   0.0000000), wk =   0.0312500
        k(   40) = (   0.2500000   0.3125000   0.0000000), wk =   0.0312500
        k(   41) = (   0.2500000   0.3750000   0.0000000), wk =   0.0156250
        k(   42) = (   0.2500000  -0.1875000   0.0000000), wk =   0.0312500
        k(   43) = (   0.2500000  -0.1250000   0.0000000), wk =   0.0156250
        k(   44) = (   0.3125000   0.0000000   0.0000000), wk =   0.0312500
        k(   45) = (   0.3125000   0.0625000   0.0000000), wk =   0.0312500
        k(   46) = (   0.3125000   0.1250000   0.0000000), wk =   0.0312500
        k(   47) = (   0.3125000   0.1875000   0.0000000), wk =   0.0312500
        k(   48) = (   0.3125000   0.2500000   0.0000000), wk =   0.0312500
        k(   49) = (   0.3125000   0.3125000   0.0000000), wk =   0.0312500
        k(   50) = (   0.3125000  -0.2500000   0.0000000), wk =   0.0312500
        k(   51) = (   0.3125000  -0.1875000   0.0000000), wk =   0.0312500
        k(   52) = (   0.3750000   0.0000000   0.0000000), wk =   0.0312500
        k(   53) = (   0.3750000   0.0625000   0.0000000), wk =   0.0312500
        k(   54) = (   0.3750000   0.1250000   0.0000000), wk =   0.0312500
        k(   55) = (   0.3750000   0.1875000   0.0000000), wk =   0.0312500
        k(   56) = (   0.3750000   0.2500000   0.0000000), wk =   0.0312500
        k(   57) = (   0.3750000   0.3125000   0.0000000), wk =   0.0156250
        k(   58) = (   0.3750000  -0.3125000   0.0000000), wk =   0.0312500
        k(   59) = (   0.3750000  -0.2500000   0.0000000), wk =   0.0312500
        k(   60) = (   0.3750000  -0.1875000   0.0000000), wk =   0.0156250
        k(   61) = (   0.4375000   0.0000000   0.0000000), wk =   0.0312500
        k(   62) = (   0.4375000   0.0625000   0.0000000), wk =   0.0312500
        k(   63) = (   0.4375000   0.1250000   0.0000000), wk =   0.0312500
        k(   64) = (   0.4375000   0.1875000   0.0000000), wk =   0.0312500
        k(   65) = (   0.4375000   0.2500000   0.0000000), wk =   0.0312500
        k(   66) = (   0.4375000  -0.3750000   0.0000000), wk =   0.0312500
        k(   67) = (   0.4375000  -0.3125000   0.0000000), wk =   0.0312500
        k(   68) = (   0.4375000  -0.2500000   0.0000000), wk =   0.0312500
        k(   69) = (  -0.5000000   0.0000000   0.0000000), wk =   0.0156250
        k(   70) = (  -0.5000000   0.0625000   0.0000000), wk =   0.0312500
        k(   71) = (  -0.5000000   0.1250000   0.0000000), wk =   0.0312500
        k(   72) = (  -0.5000000   0.1875000   0.0000000), wk =   0.0312500
        k(   73) = (  -0.5000000   0.2500000   0.0000000), wk =   0.0156250

     Dense  grid:   244813 G-vectors     FFT dimensions: (  45,  45, 320)

     Smooth grid:    86579 G-vectors     FFT dimensions: (  30,  30, 225)

     Dynamical RAM for                 wfc:       1.32 MB

     Dynamical RAM for     wfc (w. buffer):      26.44 MB

     Dynamical RAM for           str. fact:       3.74 MB

     Dynamical RAM for           local pot:       0.00 MB

     Dynamical RAM for          nlocal pot:       4.46 MB

     Dynamical RAM for                qrad:       3.52 MB

     Dynamical RAM for          rho,v,vnew:      13.02 MB

     Dynamical RAM for               rhoin:       4.34 MB

     Dynamical RAM for            rho*nmix:      29.88 MB

     Dynamical RAM for           G-vectors:       7.33 MB

     Dynamical RAM for          h,s,v(r/c):       0.01 MB

     Dynamical RAM for          <psi|beta>:       0.01 MB

     Dynamical RAM for      wfcinit/wfcrot:       2.65 MB

     Dynamical RAM for           addusdens:      89.18 MB

     Dynamical RAM for          addusforce:      89.66 MB

     Dynamical RAM for         addusstress:      94.55 MB

     Estimated static dynamical RAM per process >      80.80 MB

     Estimated max dynamical RAM per process >     205.24 MB

     Estimated total dynamical RAM >       1.43 GB

     The initial density is read from file :
     ./tmp/mos2.save/charge-density


     negative rho (up, down):  3.873E-04 0.000E+00
     Starting wfcs are   18 randomized atomic wfcs

     total cpu time spent up to now is        5.6 secs

     Self-consistent Calculation

     iteration #  1     ecut=    60.00 Ry     beta= 0.30
     CG style diagonalization

---- Real-time Memory Report at c_bands before calling an iterative solver
           192 MiB given to the printing process from OS
             0 MiB allocation reported by mallinfo(arena+hblkhd)
          1712 MiB available memory on the node where the printing process lives
------------------
     c_bands:  1 eigenvalues not converged
     c_bands:  1 eigenvalues not converged
     c_bands:  1 eigenvalues not converged
     c_bands:  2 eigenvalues not converged
     c_bands:  1 eigenvalues not converged
     ethr =  1.00E-10,  avg # of iterations = 36.9

     Threshold (ethr) on eigenvalues was too large:
     Diagonalizing with lowered threshold

     CG style diagonalization

---- Real-time Memory Report at c_bands before calling an iterative solver
           229 MiB given to the printing process from OS
             0 MiB allocation reported by mallinfo(arena+hblkhd)
          1548 MiB available memory on the node where the printing process lives
------------------
     c_bands:  1 eigenvalues not converged
     ethr =  1.00E-13,  avg # of iterations = 19.8

     negative rho (up, down):  3.873E-04 0.000E+00

     total cpu time spent up to now is      644.4 secs

     total energy              =    -181.57959322 Ry
     estimated scf accuracy    <          2.5E-11 Ry

     iteration #  2     ecut=    60.00 Ry     beta= 0.30
     CG style diagonalization

---- Real-time Memory Report at c_bands before calling an iterative solver
           244 MiB given to the printing process from OS
             0 MiB allocation reported by mallinfo(arena+hblkhd)
          1760 MiB available memory on the node where the printing process lives
------------------
     ethr =  1.00E-13,  avg # of iterations =  3.1

     negative rho (up, down):  3.873E-04 0.000E+00

     total cpu time spent up to now is      660.3 secs

     total energy              =    -181.57959322 Ry
     estimated scf accuracy    <          9.2E-12 Ry

     iteration #  3     ecut=    60.00 Ry     beta= 0.30
     CG style diagonalization

---- Real-time Memory Report at c_bands before calling an iterative solver
           246 MiB given to the printing process from OS
             0 MiB allocation reported by mallinfo(arena+hblkhd)
          1969 MiB available memory on the node where the printing process lives
------------------
     ethr =  1.00E-13,  avg # of iterations =  3.0

     negative rho (up, down):  3.873E-04 0.000E+00

     total cpu time spent up to now is      676.5 secs

     total energy              =    -181.57959322 Ry
     estimated scf accuracy    <          1.7E-12 Ry

     iteration #  4     ecut=    60.00 Ry     beta= 0.30
     CG style diagonalization

---- Real-time Memory Report at c_bands before calling an iterative solver
           249 MiB given to the printing process from OS
             0 MiB allocation reported by mallinfo(arena+hblkhd)
          1943 MiB available memory on the node where the printing process lives
------------------
     ethr =  1.00E-13,  avg # of iterations =  3.0

     negative rho (up, down):  3.873E-04 0.000E+00

     total cpu time spent up to now is      693.2 secs

     End of self-consistent calculation

          k = 0.0000 0.0000 0.0000 ( 10891 PWs)   bands (ev):

   -62.5699 -36.7065 -36.5128 -36.5051 -15.7338 -14.4336  -7.2563  -4.3152
    -4.2628  -3.4256  -3.2033  -3.1719  -1.6620   1.0509   1.0776   1.2896

     occupation numbers 
     1.0000   1.0000   1.0000   1.0000   1.0000   1.0000   1.0000   1.0000
     1.0000   1.0000   1.0000   1.0000   1.0000   0.0000   0.0000   0.0000

          k = 0.0000 0.0725 0.0000 ( 10903 PWs)   bands (ev):

   -62.5685 -36.7037 -36.5193 -36.5161 -15.6763 -14.4097  -7.1899  -4.3960
    -4.2549  -3.7641  -3.2982  -2.9178  -1.6893   0.9900   1.1551   1.1676

     occupation numbers 
     1.0000   1.0000   1.0000   1.0000   1.0000   1.0000   1.0000   1.0000
     1.0000   1.0000   1.0000   1.0000   1.0000   0.0000   0.0000   0.0000

          k = 0.0000 0.1451 0.0000 ( 10871 PWs)   bands (ev):

   -62.5645 -36.6957 -36.5597 -36.5254 -15.5087 -14.3402  -7.0068  -4.7385
    -4.2340  -4.0811  -3.5439  -2.7377  -1.8000   0.8283   0.8673   1.0503

     occupation numbers 
     1.0000   1.0000   1.0000   1.0000   1.0000   1.0000   1.0000   1.0000
     1.0000   1.0000   1.0000   1.0000   1.0000   0.0000   0.0000   0.0000

          k = 0.0000 0.2176 0.0000 ( 10843 PWs)   bands (ev):

   -62.5585 -36.6839 -36.6196 -36.5393 -15.2465 -14.2316  -6.7699  -5.1554
    -4.7224  -3.8620  -3.8158  -2.7823  -2.0441   0.5665   0.8348   0.9271

     occupation numbers 
     1.0000   1.0000   1.0000   1.0000   1.0000   1.0000   1.0000   1.0000
     1.0000   1.0000   1.0000   1.0000   1.0000   0.0000   0.0000   0.0000

          k = 0.0000 0.2901 0.0000 ( 10879 PWs)   bands (ev):

   -62.5516 -36.6895 -36.6698 -36.5557 -14.9159 -14.0955  -6.6389  -5.4635
    -5.2128  -4.1848  -3.4974  -2.9837  -2.3746   0.5032   0.6426   1.2009

     occupation numbers 
     1.0000   1.0000   1.0000   1.0000   1.0000   1.0000   1.0000   1.0000
     1.0000   1.0000   1.0000   1.0000   1.0000   0.0000   0.0000   0.0000

          k = 0.0000 0.3626 0.0000 ( 10855 PWs)   bands (ev):

   -62.5445 -36.7587 -36.6557 -36.5721 -14.5555 -13.9492  -6.7884  -5.6782
    -5.5429  -4.4678  -3.2098  -3.1791  -2.6017   0.5229   0.6028   1.5687

     occupation numbers 
     1.0000   1.0000   1.0000   1.0000   1.0000   1.0000   1.0000   1.0000
     1.0000   1.0000   1.0000   1.0000   1.0000   0.0000   0.0000   0.0000

          k = 0.0000 0.4352 0.0000 ( 10815 PWs)   bands (ev):

   -62.5385 -36.8168 -36.6438 -36.5859 -14.2193 -13.8155  -7.0775  -6.0712
    -5.5843  -4.6846  -3.3830  -2.9179  -2.5748   0.4919   0.7837   1.8973

     occupation numbers 
     1.0000   1.0000   1.0000   1.0000   1.0000   1.0000   1.0000   1.0000
     1.0000   1.0000   1.0000   1.0000   1.0000   0.0000   0.0000   0.0000

          k = 0.0000 0.5077 0.0000 ( 10792 PWs)   bands (ev):

   -62.5344 -36.8553 -36.6358 -36.5951 -13.9738 -13.7204  -7.3143  -6.3362
    -5.6721  -4.8199  -3.4840  -2.7538  -2.3898   0.5181   0.9678   2.1021

     occupation numbers 
     1.0000   1.0000   1.0000   1.0000   1.0000   1.0000   1.0000   1.0000
     1.0000   1.0000   1.0000   1.0000   1.0000   0.0000   0.0000   0.0000

          k = 0.0000-0.5802 0.0000 ( 10796 PWs)   bands (ev):

   -62.5331 -36.8688 -36.6330 -36.5983 -13.8827 -13.6858  -7.4040  -6.4301
    -5.7171  -4.8658  -3.5165  -2.6991  -2.2882   0.5382   1.0532   2.1674

     occupation numbers 
     1.0000   1.0000   1.0000   1.0000   1.0000   1.0000   1.0000   1.0000
     1.0000   1.0000   1.0000   1.0000   1.0000   0.0000   0.0000   0.0000

          k = 0.0625 0.0363 0.0000 ( 10905 PWs)   bands (ev):

   -62.5686 -36.7037 -36.5256 -36.5095 -15.6768 -14.4102  -7.1904  -4.4343
    -4.2141  -3.7739  -3.2730  -2.9320  -1.6907   0.9741   1.1336   1.1739

     occupation numbers 
     1.0000   1.0000   1.0000   1.0000   1.0000   1.0000   1.0000   1.0000
     1.0000   1.0000   1.0000   1.0000   1.0000   0.0000   0.0000   0.0000

          k = 0.0625 0.1088 0.0000 ( 10883 PWs)   bands (ev):

   -62.5659 -36.6984 -36.5485 -36.5202 -15.5642 -14.3635  -7.0650  -4.6442
    -4.1251  -4.0970  -3.4939  -2.7412  -1.7600   0.8615   0.9103   1.1132

     occupation numbers 
     1.0000   1.0000   1.0000   1.0000   1.0000   1.0000   1.0000   1.0000
     1.0000   1.0000   1.0000   1.0000   1.0000   0.0000   0.0000   0.0000

          k = 0.0625 0.1813 0.0000 ( 10877 PWs)   bands (ev):

   -62.5609 -36.6885 -36.5962 -36.5343 -15.3492 -14.2743  -6.8495  -5.0104
    -4.5065  -3.9226  -3.8538  -2.6523  -1.9400   0.6256   0.7997   0.9119

     occupation numbers 
     1.0000   1.0000   1.0000   1.0000   1.0000   1.0000   1.0000   1.0000
     1.0000   1.0000   1.0000   1.0000   1.0000   0.0000   0.0000   0.0000

          k = 0.0625 0.2539 0.0000 ( 10868 PWs)   bands (ev):

   -62.5544 -36.6755 -36.6591 -36.5514 -15.0522 -14.1514  -6.6474  -5.3639
    -4.9629  -4.2172  -3.6607  -2.7585  -2.2348   0.4449   0.7459   0.9467

     occupation numbers 
     1.0000   1.0000   1.0000   1.0000   1.0000   1.0000   1.0000   1.0000
     1.0000   1.0000   1.0000   1.0000   1.0000   0.0000   0.0000   0.0000

          k = 0.0625 0.3264 0.0000 ( 10861 PWs)   bands (ev):

   -62.5474 -36.7268 -36.6614 -36.5696 -14.7052 -14.0089  -6.6603  -5.5167
    -5.4500  -4.5001  -3.4141  -2.9847  -2.5008   0.3971   0.6888   1.2647

     occupation numbers 
     1.0000   1.0000   1.0000   1.0000   1.0000   1.0000   1.0000   1.0000
     1.0000   1.0000   1.0000   1.0000   1.0000   0.0000   0.0000   0.0000

          k = 0.0625 0.3989 0.0000 ( 10846 PWs)   bands (ev):

   -62.5408 -36.7888 -36.6484 -36.5863 -14.3541 -13.8669  -6.9022  -5.9068
    -5.5306  -4.6916  -3.2448  -3.2211  -2.5324   0.4414   0.7511   1.6332

     occupation numbers 
     1.0000   1.0000   1.0000   1.0000   1.0000   1.0000   1.0000   1.0000
     1.0000   1.0000   1.0000   1.0000   1.0000   0.0000   0.0000   0.0000

          k = 0.0625 0.4714 0.0000 ( 10813 PWs)   bands (ev):

   -62.5358 -36.8359 -36.6384 -36.5990 -14.0591 -13.7500  -7.1657  -6.2601
    -5.6026  -4.8075  -3.4010  -3.1064  -2.3671   0.5158   0.8980   1.9586

     occupation numbers 
     1.0000   1.0000   1.0000   1.0000   1.0000   1.0000   1.0000   1.0000
     1.0000   1.0000   1.0000   1.0000   1.0000   0.0000   0.0000   0.0000

          k = 0.0625 0.5440 0.0000 ( 10784 PWs)   bands (ev):

   -62.5331 -36.8612 -36.6330 -36.6059 -13.8873 -13.6834  -7.3259  -6.4526
    -5.6849  -4.8618  -3.4956  -3.0137  -2.2011   0.5511   1.0510   2.1895

     occupation numbers 
     1.0000   1.0000   1.0000   1.0000   1.0000   1.0000   1.0000   1.0000
     1.0000   1.0000   1.0000   1.0000   1.0000   0.0000   0.0000   0.0000

          k = 0.1250 0.0725 0.0000 ( 10891 PWs)   bands (ev):

   -62.5647 -36.6959 -36.5649 -36.5190 -15.5107 -14.3422  -7.0086  -4.7686
    -4.2469  -4.0432  -3.5137  -2.7500  -1.8057   0.7997   0.8608   1.0854

     occupation numbers 
     1.0000   1.0000   1.0000   1.0000   1.0000   1.0000   1.0000   1.0000
     1.0000   1.0000   1.0000   1.0000   1.0000   0.0000   0.0000   0.0000

          k = 0.1250 0.1451 0.0000 ( 10872 PWs)   bands (ev):

   -62.5610 -36.6886 -36.5986 -36.5310 -15.3506 -14.2759  -6.8505  -5.0236
    -4.5165  -3.9047  -3.8350  -2.6564  -1.9447   0.6134   0.7966   0.9308

     occupation numbers 
     1.0000   1.0000   1.0000   1.0000   1.0000   1.0000   1.0000   1.0000
     1.0000   1.0000   1.0000   1.0000   1.0000   0.0000   0.0000   0.0000

          k = 0.1250 0.2176 0.0000 ( 10863 PWs)   bands (ev):

   -62.5555 -36.6776 -36.6479 -36.5497 -15.1004 -14.1720  -6.6547  -5.3222
    -4.8079  -4.3374  -3.7238  -2.6035  -2.1832   0.4142   0.7890   0.7906

     occupation numbers 
     1.0000   1.0000   1.0000   1.0000   1.0000   1.0000   1.0000   1.0000
     1.0000   1.0000   1.0000   1.0000   1.0000   0.0000   0.0000   0.0000

          k = 0.1250 0.2901 0.0000 ( 10858 PWs)   bands (ev):

   -62.5490 -36.7052 -36.6646 -36.5721 -14.7855 -14.0413  -6.5756  -5.4872
    -5.2215  -4.7069  -3.6028  -2.7172  -2.4255   0.2887   0.7613   0.9591

     occupation numbers 
     1.0000   1.0000   1.0000   1.0000   1.0000   1.0000   1.0000   1.0000
     1.0000   1.0000   1.0000   1.0000   1.0000   0.0000   0.0000   0.0000

          k = 0.1250 0.3626 0.0000 ( 10852 PWs)   bands (ev):

   -62.5425 -36.7618 -36.6516 -36.5945 -14.4440 -13.9001  -6.7216  -5.7451
    -5.4634  -4.8477  -3.6236  -2.9558  -2.4891   0.3318   0.7998   1.2648

     occupation numbers 
     1.0000   1.0000   1.0000   1.0000   1.0000   1.0000   1.0000   1.0000
     1.0000   1.0000   1.0000   1.0000   1.0000   0.0000   0.0000   0.0000

          k = 0.1250 0.4352 0.0000 ( 10810 PWs)   bands (ev):

   -62.5369 -36.8093 -36.6406 -36.6135 -14.1275 -13.7706  -6.9459  -6.2006
    -5.4801  -4.8800  -3.6520  -3.2216  -2.3616   0.4930   0.8759   1.6043

     occupation numbers 
     1.0000   1.0000   1.0000   1.0000   1.0000   1.0000   1.0000   1.0000
     1.0000   1.0000   1.0000   1.0000   1.0000   0.0000   0.0000   0.0000

          k = 0.1250 0.5077 0.0000 ( 10789 PWs)   bands (ev):

   -62.5332 -36.8409 -36.6332 -36.6262 -13.8985 -13.6781  -7.1183  -6.5032
    -5.5876  -4.8644  -3.6145  -3.4285  -2.1634   0.5446   1.0680   1.8979

     occupation numbers 
     1.0000   1.0000   1.0000   1.0000   1.0000   1.0000   1.0000   1.0000
     1.0000   1.0000   1.0000   1.0000   1.0000   0.0000   0.0000   0.0000

          k = 0.1250 0.5802 0.0000 ( 10790 PWs)   bands (ev):

   -62.5319 -36.8519 -36.6307 -36.6306 -13.8140 -13.6443  -7.1819  -6.6090
    -5.6460  -4.8506  -3.5909  -3.5080  -2.0611   0.5217   1.1961   2.0412

     occupation numbers 
     1.0000   1.0000   1.0000   1.0000   1.0000   1.0000   1.0000   1.0000
     1.0000   1.0000   1.0000   1.0000   1.0000   0.0000   0.0000   0.0000

          k = 0.1250-0.0000 0.0000 ( 10887 PWs)   bands (ev):

   -62.5660 -36.6985 -36.5527 -36.5151 -15.5657 -14.3650  -7.0664  -4.6712
    -4.1040  -4.0921  -3.4765  -2.7487  -1.7634   0.8610   0.8902   1.1354

     occupation numbers 
     1.0000   1.0000   1.0000   1.0000   1.0000   1.0000   1.0000   1.0000
     1.0000   1.0000   1.0000   1.0000   1.0000   0.0000   0.0000   0.0000

          k = 0.1875 0.1088 0.0000 ( 10876 PWs)   bands (ev):

   -62.5588 -36.6842 -36.6239 -36.5326 -15.2508 -14.2361  -6.7726  -5.1800
    -4.7360  -3.8260  -3.7798  -2.7922  -2.0554   0.5461   0.8696   0.9274

     occupation numbers 
     1.0000   1.0000   1.0000   1.0000   1.0000   1.0000   1.0000   1.0000
     1.0000   1.0000   1.0000   1.0000   1.0000   0.0000   0.0000   0.0000

          k = 0.1875 0.1813 0.0000 ( 10858 PWs)   bands (ev):

   -62.5546 -36.6758 -36.6621 -36.5463 -15.0559 -14.1555  -6.6487  -5.3827
    -4.9774  -4.1868  -3.6339  -2.7614  -2.2455   0.4386   0.7674   0.9431

     occupation numbers 
     1.0000   1.0000   1.0000   1.0000   1.0000   1.0000   1.0000   1.0000
     1.0000   1.0000   1.0000   1.0000   1.0000   0.0000   0.0000   0.0000

          k = 0.1875 0.2539 0.0000 ( 10862 PWs)   bands (ev):

   -62.5491 -36.7067 -36.6648 -36.5694 -14.7877 -14.0439  -6.5759  -5.4976
    -5.2316  -4.6892  -3.5891  -2.7164  -2.4307   0.2914   0.7666   0.9574

     occupation numbers 
     1.0000   1.0000   1.0000   1.0000   1.0000   1.0000   1.0000   1.0000
     1.0000   1.0000   1.0000   1.0000   1.0000   0.0000   0.0000   0.0000

          k = 0.1875 0.3264 0.0000 ( 10851 PWs)   bands (ev):

   -62.5431 -36.7506 -36.6529 -36.5982 -14.4770 -13.9135  -6.6426  -5.6599
    -5.4354  -4.9443  -3.7774  -2.8236  -2.4815   0.2854   0.8249   1.0956

     occupation numbers 
     1.0000   1.0000   1.0000   1.0000   1.0000   1.0000   1.0000   1.0000
     1.0000   1.0000   1.0000   1.0000   1.0000   0.0000   0.0000   0.0000

          k = 0.1875 0.3989 0.0000 ( 10825 PWs)   bands (ev):

   -62.5376 -36.7885 -36.6418 -36.6273 -14.1667 -13.7825  -6.7751  -6.1583
    -5.3459  -4.9606  -4.0726  -3.0635  -2.3853   0.4574   0.8871   1.3246

     occupation numbers 
     1.0000   1.0000   1.0000   1.0000   1.0000   1.0000   1.0000   1.0000
     1.0000   1.0000   1.0000   1.0000   1.0000   0.0000   0.0000   0.0000

          k = 0.1875 0.4714 0.0000 ( 10792 PWs)   bands (ev):

   -62.5333 -36.8159 -36.6508 -36.6334 -13.9104 -13.6738  -6.8751  -6.5485
    -5.4191  -4.8804  -4.2363  -3.3392  -2.1849   0.5050   1.1036   1.5479

     occupation numbers 
     1.0000   1.0000   1.0000   1.0000   1.0000   1.0000   1.0000   1.0000
     1.0000   1.0000   1.0000   1.0000   1.0000   0.0000   0.0000   0.0000

          k = 0.1875 0.5440 0.0000 ( 10795 PWs)   bands (ev):

   -62.5310 -36.8303 -36.6640 -36.6288 -13.7636 -13.6115  -6.9167  -6.7592
    -5.5578  -4.7928  -4.2680  -3.5341  -1.9900   0.3911   1.3789   1.6848

     occupation numbers 
     1.0000   1.0000   1.0000   1.0000   1.0000   1.0000   1.0000   1.0000
     1.0000   1.0000   1.0000   1.0000   1.0000   0.0000   0.0000   0.0000

          k = 0.1875-0.0363 0.0000 ( 10888 PWs)   bands (ev):

   -62.5611 -36.6888 -36.6004 -36.5280 -15.3530 -14.2781  -6.8524  -5.0331
    -4.5154  -3.8887  -3.8303  -2.6589  -1.9478   0.6088   0.8105   0.9349

     occupation numbers 
     1.0000   1.0000   1.0000   1.0000   1.0000   1.0000   1.0000   1.0000
     1.0000   1.0000   1.0000   1.0000   1.0000   0.0000   0.0000   0.0000

          k = 0.2500 0.1451 0.0000 ( 10862 PWs)   bands (ev):

   -62.5520 -36.6929 -36.6704 -36.5485 -14.9230 -14.1033  -6.6406  -5.4871
    -5.2241  -4.1435  -3.4622  -2.9920  -2.3888   0.4904   0.6742   1.2044

     occupation numbers 
     1.0000   1.0000   1.0000   1.0000   1.0000   1.0000   1.0000   1.0000
     1.0000   1.0000   1.0000   1.0000   1.0000   0.0000   0.0000   0.0000

          k = 0.2500 0.2176 0.0000 ( 10857 PWs)   bands (ev):

   -62.5477 -36.7297 -36.6620 -36.5632 -14.7118 -14.0165  -6.6616  -5.5391
    -5.4608  -4.4652  -3.3812  -2.9866  -2.5146   0.4023   0.7021   1.2618

     occupation numbers 
     1.0000   1.0000   1.0000   1.0000   1.0000   1.0000   1.0000   1.0000
     1.0000   1.0000   1.0000   1.0000   1.0000   0.0000   0.0000   0.0000

          k = 0.2500 0.2901 0.0000 ( 10839 PWs)   bands (ev):

   -62.5427 -36.7639 -36.6520 -36.5897 -14.4490 -13.9063  -6.7238  -5.7499
    -5.4799  -4.8271  -3.6007  -2.9543  -2.4958   0.3365   0.8056   1.2639

     occupation numbers 
     1.0000   1.0000   1.0000   1.0000   1.0000   1.0000   1.0000   1.0000
     1.0000   1.0000   1.0000   1.0000   1.0000   0.0000   0.0000   0.0000

          k = 0.2500 0.3626 0.0000 ( 10829 PWs)   bands (ev):

   -62.5378 -36.7895 -36.6421 -36.6247 -14.1695 -13.7860  -6.7771  -6.1573
    -5.3550  -4.9533  -4.0589  -3.0628  -2.3885   0.4575   0.8898   1.3254

     occupation numbers 
     1.0000   1.0000   1.0000   1.0000   1.0000   1.0000   1.0000   1.0000
     1.0000   1.0000   1.0000   1.0000   1.0000   0.0000   0.0000   0.0000

          k = 0.2500 0.4352 0.0000 ( 10817 PWs)   bands (ev):

   -62.5335 -36.8037 -36.6619 -36.6336 -13.9173 -13.6745  -6.7615  -6.5641
    -5.2745  -4.8871  -4.5658  -3.2961  -2.2036   0.4831   1.1210   1.4096

     occupation numbers 
     1.0000   1.0000   1.0000   1.0000   1.0000   1.0000   1.0000   1.0000
     1.0000   1.0000   1.0000   1.0000   1.0000   0.0000   0.0000   0.0000

          k = 0.2500 0.5077 0.0000 ( 10780 PWs)   bands (ev):

   -62.5306 -36.8074 -36.6925 -36.6280 -13.7398 -13.5941  -6.8479  -6.6656
    -5.3971  -4.8545  -4.7417  -3.5545  -1.9580   0.2790   1.4631   1.4920

     occupation numbers 
     1.0000   1.0000   1.0000   1.0000   1.0000   1.0000   1.0000   1.0000
     1.0000   1.0000   1.0000   1.0000   1.0000   0.0000   0.0000   0.0000

          k = 0.2500 0.5802 0.0000 ( 10776 PWs)   bands (ev):

   -62.5296 -36.8069 -36.7051 -36.6260 -13.6757 -13.5647  -6.9487  -6.5905
    -5.5474  -4.8983  -4.6561  -3.6808  -1.8246   0.1471   1.4788   1.6706

     occupation numbers 
     1.0000   1.0000   1.0000   1.0000   1.0000   1.0000   1.0000   1.0000
     1.0000   1.0000   1.0000   1.0000   1.0000   0.0000   0.0000   0.0000

          k = 0.2500-0.0725 0.0000 ( 10871 PWs)   bands (ev):

   -62.5548 -36.6761 -36.6623 -36.5447 -15.0589 -14.1583  -6.6502  -5.3820
    -4.9718  -4.1867  -3.6319  -2.7640  -2.2439   0.4408   0.7597   0.9642

     occupation numbers 
     1.0000   1.0000   1.0000   1.0000   1.0000   1.0000   1.0000   1.0000
     1.0000   1.0000   1.0000   1.0000   1.0000   0.0000   0.0000   0.0000

          k = 0.2500-0.0000 0.0000 ( 10879 PWs)   bands (ev):

   -62.5558 -36.6780 -36.6497 -36.5453 -15.1057 -14.1771  -6.6575  -5.3293
    -4.8064  -4.3269  -3.7089  -2.6069  -2.1860   0.4142   0.7892   0.8134

     occupation numbers 
     1.0000   1.0000   1.0000   1.0000   1.0000   1.0000   1.0000   1.0000
     1.0000   1.0000   1.0000   1.0000   1.0000   0.0000   0.0000   0.0000

          k = 0.3125 0.1813 0.0000 ( 10841 PWs)   bands (ev):

   -62.5451 -36.7612 -36.6566 -36.5643 -14.5658 -13.9607  -6.7901  -5.6841
    -5.5653  -4.4222  -3.2193  -3.1426  -2.6167   0.5454   0.5957   1.5746

     occupation numbers 
     1.0000   1.0000   1.0000   1.0000   1.0000   1.0000   1.0000   1.0000
     1.0000   1.0000   1.0000   1.0000   1.0000   0.0000   0.0000   0.0000

          k = 0.3125 0.2539 0.0000 ( 10842 PWs)   bands (ev):

   -62.5414 -36.7912 -36.6492 -36.5790 -14.3637 -13.8784  -6.9064  -5.9099
    -5.5500  -4.6543  -3.2250  -3.2108  -2.5452   0.4497   0.7569   1.6329

     occupation numbers 
     1.0000   1.0000   1.0000   1.0000   1.0000   1.0000   1.0000   1.0000
     1.0000   1.0000   1.0000   1.0000   1.0000   0.0000   0.0000   0.0000

          k = 0.3125 0.3264 0.0000 ( 10810 PWs)   bands (ev):

   -62.5373 -36.8114 -36.6412 -36.6074 -14.1358 -13.7808  -6.9515  -6.1979
    -5.4946  -4.8567  -3.6243  -3.2226  -2.3705   0.4936   0.8817   1.6066

     occupation numbers 
     1.0000   1.0000   1.0000   1.0000   1.0000   1.0000   1.0000   1.0000
     1.0000   1.0000   1.0000   1.0000   1.0000   0.0000   0.0000   0.0000

          k = 0.3125 0.3989 0.0000 ( 10807 PWs)   bands (ev):

   -62.5337 -36.8175 -36.6464 -36.6338 -13.9165 -13.6813  -6.8798  -6.5429
    -5.4296  -4.8679  -4.2137  -3.3408  -2.1928   0.5034   1.1043   1.5508

     occupation numbers 
     1.0000   1.0000   1.0000   1.0000   1.0000   1.0000   1.0000   1.0000
     1.0000   1.0000   1.0000   1.0000   1.0000   0.0000   0.0000   0.0000

          k = 0.3125 0.4714 0.0000 ( 10781 PWs)   bands (ev):

   -62.5308 -36.8084 -36.6901 -36.6282 -13.7431 -13.5980  -6.8440  -6.6677
    -5.4051  -4.8403  -4.7357  -3.5567  -1.9617   0.2776   1.4645   1.4889

     occupation numbers 
     1.0000   1.0000   1.0000   1.0000   1.0000   1.0000   1.0000   1.0000
     1.0000   1.0000   1.0000   1.0000   1.0000   0.0000   0.0000   0.0000

          k = 0.3125 0.5440 0.0000 ( 10778 PWs)   bands (ev):

   -62.5293 -36.7888 -36.7285 -36.6251 -13.6474 -13.5499  -7.0153  -6.3567
    -5.5921  -5.1893  -4.5754  -3.7619  -1.7449   0.0226   1.3994   1.7821

     occupation numbers 
     1.0000   1.0000   1.0000   1.0000   1.0000   1.0000   1.0000   1.0000
     1.0000   1.0000   1.0000   1.0000   1.0000   0.0000   0.0000   0.0000

          k = 0.3125-0.1088 0.0000 ( 10860 PWs)   bands (ev):

   -62.5479 -36.7290 -36.6622 -36.5625 -14.7151 -14.0194  -6.6601  -5.5357
    -5.4550  -4.4636  -3.3926  -2.9913  -2.5037   0.4085   0.6846   1.2851

     occupation numbers 
     1.0000   1.0000   1.0000   1.0000   1.0000   1.0000   1.0000   1.0000
     1.0000   1.0000   1.0000   1.0000   1.0000   0.0000   0.0000   0.0000

          k = 0.3125-0.0363 0.0000 ( 10852 PWs)   bands (ev):

   -62.5494 -36.7064 -36.6653 -36.5668 -14.7940 -14.0498  -6.5752  -5.4949
    -5.2209  -4.6871  -3.5973  -2.7216  -2.4203   0.2954   0.7498   0.9867

     occupation numbers 
     1.0000   1.0000   1.0000   1.0000   1.0000   1.0000   1.0000   1.0000
     1.0000   1.0000   1.0000   1.0000   1.0000   0.0000   0.0000   0.0000

          k = 0.3750 0.2176 0.0000 ( 10816 PWs)   bands (ev):

   -62.5392 -36.8185 -36.6448 -36.5777 -14.2324 -13.8309  -7.0818  -6.0704
    -5.6004  -4.6358  -3.3958  -2.8781  -2.5926   0.5033   0.7774   1.9065

     occupation numbers 
     1.0000   1.0000   1.0000   1.0000   1.0000   1.0000   1.0000   1.0000
     1.0000   1.0000   1.0000   1.0000   1.0000   0.0000   0.0000   0.0000

          k = 0.3750 0.2901 0.0000 ( 10806 PWs)   bands (ev):

   -62.5365 -36.8377 -36.6394 -36.5911 -14.0717 -13.7653  -7.1729  -6.2560
    -5.6144  -4.7668  -3.4098  -3.0723  -2.3810   0.5180   0.8995   1.9624

     occupation numbers 
     1.0000   1.0000   1.0000   1.0000   1.0000   1.0000   1.0000   1.0000
     1.0000   1.0000   1.0000   1.0000   1.0000   0.0000   0.0000   0.0000

          k = 0.3750 0.3626 0.0000 ( 10799 PWs)   bands (ev):

   -62.5338 -36.8425 -36.6340 -36.6193 -13.9098 -13.6919  -7.1258  -6.4945
    -5.5956  -4.8361  -3.5854  -3.4353  -2.1758   0.5413   1.0669   1.9035

     occupation numbers 
     1.0000   1.0000   1.0000   1.0000   1.0000   1.0000   1.0000   1.0000
     1.0000   1.0000   1.0000   1.0000   1.0000   0.0000   0.0000   0.0000

          k = 0.3750 0.4352 0.0000 ( 10786 PWs)   bands (ev):

   -62.5315 -36.8317 -36.6585 -36.6295 -13.7729 -13.6225  -6.9213  -6.7492
    -5.5641  -4.7739  -4.2459  -3.5413  -1.9986   0.3863   1.3701   1.6896

     occupation numbers 
     1.0000   1.0000   1.0000   1.0000   1.0000   1.0000   1.0000   1.0000
     1.0000   1.0000   1.0000   1.0000   1.0000   0.0000   0.0000   0.0000

          k = 0.3750 0.5077 0.0000 ( 10765 PWs)   bands (ev):

   -62.5299 -36.8080 -36.7014 -36.6264 -13.6822 -13.5719  -6.9409  -6.5893
    -5.5541  -4.8863  -4.6432  -3.6884  -1.8251   0.1390   1.4814   1.6580

     occupation numbers 
     1.0000   1.0000   1.0000   1.0000   1.0000   1.0000   1.0000   1.0000
     1.0000   1.0000   1.0000   1.0000   1.0000   0.0000   0.0000   0.0000

          k = 0.3750 0.5802 0.0000 ( 10772 PWs)   bands (ev):

   -62.5294 -36.7889 -36.7272 -36.6253 -13.6506 -13.5532  -7.0114  -6.3495
    -5.5972  -5.1893  -4.5687  -3.7671  -1.7400   0.0143   1.4005   1.7726

     occupation numbers 
     1.0000   1.0000   1.0000   1.0000   1.0000   1.0000   1.0000   1.0000
     1.0000   1.0000   1.0000   1.0000   1.0000   0.0000   0.0000   0.0000

          k = 0.3750-0.1451 0.0000 ( 10846 PWs)   bands (ev):

   -62.5415 -36.7903 -36.6494 -36.5787 -14.3669 -13.8810  -6.9016  -5.9057
    -5.5486  -4.6501  -3.2315  -3.2294  -2.5265   0.4569   0.7332   1.6555

     occupation numbers 
     1.0000   1.0000   1.0000   1.0000   1.0000   1.0000   1.0000   1.0000
     1.0000   1.0000   1.0000   1.0000   1.0000   0.0000   0.0000   0.0000

          k = 0.3750-0.0725 0.0000 ( 10852 PWs)   bands (ev):

   -62.5431 -36.7625 -36.6525 -36.5886 -14.4556 -13.9120  -6.7164  -5.7402
    -5.4759  -4.8225  -3.6235  -2.9623  -2.4744   0.3407   0.7768   1.2917

     occupation numbers 
     1.0000   1.0000   1.0000   1.0000   1.0000   1.0000   1.0000   1.0000
     1.0000   1.0000   1.0000   1.0000   1.0000   0.0000   0.0000   0.0000

          k = 0.3750-0.0000 0.0000 ( 10859 PWs)   bands (ev):

   -62.5436 -36.7499 -36.6535 -36.5948 -14.4865 -13.9225  -6.6352  -5.6490
    -5.4360  -4.9345  -3.7941  -2.8304  -2.4616   0.2898   0.7974   1.1238

     occupation numbers 
     1.0000   1.0000   1.0000   1.0000   1.0000   1.0000   1.0000   1.0000
     1.0000   1.0000   1.0000   1.0000   1.0000   0.0000   0.0000   0.0000

          k = 0.4375 0.2539 0.0000 ( 10790 PWs)   bands (ev):

   -62.5352 -36.8566 -36.6369 -36.5866 -13.9891 -13.7387  -7.3214  -6.3301
    -5.6807  -4.7691  -3.5000  -2.7096  -2.4123   0.5183   0.9605   2.1149

     occupation numbers 
     1.0000   1.0000   1.0000   1.0000   1.0000   1.0000   1.0000   1.0000
     1.0000   1.0000   1.0000   1.0000   1.0000   0.0000   0.0000   0.0000

          k = 0.4375 0.3264 0.0000 ( 10769 PWs)   bands (ev):

   -62.5338 -36.8625 -36.6341 -36.5977 -13.9021 -13.7013  -7.3341  -6.4438
    -5.6910  -4.8175  -3.5095  -2.9797  -2.2155   0.5470   1.0452   2.1985

     occupation numbers 
     1.0000   1.0000   1.0000   1.0000   1.0000   1.0000   1.0000   1.0000
     1.0000   1.0000   1.0000   1.0000   1.0000   0.0000   0.0000   0.0000

          k = 0.4375 0.3989 0.0000 ( 10781 PWs)   bands (ev):

   -62.5325 -36.8530 -36.6315 -36.6235 -13.8277 -13.6604  -7.1873  -6.5971
    -5.6514  -4.8173  -3.5652  -3.5204  -2.0694   0.5141   1.1834   2.0521

     occupation numbers 
     1.0000   1.0000   1.0000   1.0000   1.0000   1.0000   1.0000   1.0000
     1.0000   1.0000   1.0000   1.0000   1.0000   0.0000   0.0000   0.0000

          k = 0.4375 0.4714 0.0000 ( 10780 PWs)   bands (ev):

   -62.5315 -36.8310 -36.6584 -36.6296 -13.7753 -13.6245  -6.9154  -6.7465
    -5.5646  -4.7699  -4.2526  -3.5454  -1.9893   0.3788   1.3586   1.6931

     occupation numbers 
     1.0000   1.0000   1.0000   1.0000   1.0000   1.0000   1.0000   1.0000
     1.0000   1.0000   1.0000   1.0000   1.0000   0.0000   0.0000   0.0000

          k = 0.4375 0.5440 0.0000 ( 10773 PWs)   bands (ev):

   -62.5310 -36.8073 -36.6893 -36.6285 -13.7488 -13.6033  -6.8375  -6.6553
    -5.4035  -4.8540  -4.7269  -3.5643  -1.9473   0.2620   1.4687   1.4690

     occupation numbers 
     1.0000   1.0000   1.0000   1.0000   1.0000   1.0000   1.0000   1.0000
     1.0000   1.0000   1.0000   1.0000   1.0000   0.0000   0.0000   0.0000

          k = 0.4375-0.1813 0.0000 ( 10811 PWs)   bands (ev):

   -62.5366 -36.8369 -36.6395 -36.5910 -14.0741 -13.7672  -7.1681  -6.2534
    -5.6146  -4.7623  -3.4156  -3.0872  -2.3637   0.5197   0.8802   1.9824

     occupation numbers 
     1.0000   1.0000   1.0000   1.0000   1.0000   1.0000   1.0000   1.0000
     1.0000   1.0000   1.0000   1.0000   1.0000   0.0000   0.0000   0.0000

          k = 0.4375-0.1088 0.0000 ( 10790 PWs)   bands (ev):

   -62.5375 -36.8098 -36.6415 -36.6070 -14.1414 -13.7854  -6.9412  -6.1912
    -5.4933  -4.8498  -3.6456  -3.2317  -2.3477   0.4980   0.8452   1.6290

     occupation numbers 
     1.0000   1.0000   1.0000   1.0000   1.0000   1.0000   1.0000   1.0000
     1.0000   1.0000   1.0000   1.0000   1.0000   0.0000   0.0000   0.0000

          k = 0.4375-0.0363 0.0000 ( 10829 PWs)   bands (ev):

   -62.5381 -36.7878 -36.6426 -36.6231 -14.1784 -13.7940  -6.7638  -6.1464
    -5.3515  -4.9443  -4.0840  -3.0718  -2.3644   0.4606   0.8487   1.3470

     occupation numbers 
     1.0000   1.0000   1.0000   1.0000   1.0000   1.0000   1.0000   1.0000
     1.0000   1.0000   1.0000   1.0000   1.0000   0.0000   0.0000   0.0000

          k =-0.5000-0.2901 0.0000 ( 10784 PWs)   bands (ev):

   -62.5339 -36.8699 -36.6342 -36.5897 -13.8988 -13.7051  -7.4122  -6.4218
    -5.7226  -4.8144  -3.5339  -2.6530  -2.3128   0.5337   1.0446   2.1817

     occupation numbers 
     1.0000   1.0000   1.0000   1.0000   1.0000   1.0000   1.0000   1.0000
     1.0000   1.0000   1.0000   1.0000   1.0000   0.0000   0.0000   0.0000

          k =-0.5000-0.2176 0.0000 ( 10767 PWs)   bands (ev):

   -62.5338 -36.8622 -36.6342 -36.5977 -13.9031 -13.7020  -7.3321  -6.4430
    -5.6913  -4.8155  -3.5119  -2.9852  -2.2082   0.5458   1.0381   2.2114

     occupation numbers 
     1.0000   1.0000   1.0000   1.0000   1.0000   1.0000   1.0000   1.0000
     1.0000   1.0000   1.0000   1.0000   1.0000   0.0000   0.0000   0.0000

          k =-0.5000-0.1451 0.0000 ( 10796 PWs)   bands (ev):

   -62.5339 -36.8415 -36.6342 -36.6192 -13.9131 -13.6945  -7.1185  -6.4910
    -5.5962  -4.8305  -3.5973  -3.4419  -2.1598   0.5370   1.0454   1.9182

     occupation numbers 
     1.0000   1.0000   1.0000   1.0000   1.0000   1.0000   1.0000   1.0000
     1.0000   1.0000   1.0000   1.0000   1.0000   0.0000   0.0000   0.0000

          k =-0.5000-0.0725 0.0000 ( 10798 PWs)   bands (ev):

   -62.5339 -36.8158 -36.6458 -36.6342 -13.9231 -13.6869  -6.8664  -6.5354
    -5.4280  -4.8594  -4.2331  -3.3497  -2.1716   0.4939   1.0735   1.5629

     occupation numbers 
     1.0000   1.0000   1.0000   1.0000   1.0000   1.0000   1.0000   1.0000
     1.0000   1.0000   1.0000   1.0000   1.0000   0.0000   0.0000   0.0000

          k =-0.5000 0.0000 0.0000 ( 10815 PWs)   bands (ev):

   -62.5339 -36.8024 -36.6596 -36.6342 -13.9272 -13.6838  -6.7468  -6.5528
    -5.2721  -4.8746  -4.5846  -3.3055  -2.1834   0.4705   1.0880   1.4220

     occupation numbers 
     1.0000   1.0000   1.0000   1.0000   1.0000   1.0000   1.0000   1.0000
     1.0000   1.0000   1.0000   1.0000   1.0000   0.0000   0.0000   0.0000

     highest occupied, lowest unoccupied level (ev):    -1.6620    0.0143

!    total energy              =    -181.57959322 Ry
     estimated scf accuracy    <          2.0E-13 Ry

     The total energy is the sum of the following terms:
     one-electron contribution =   -1374.11695861 Ry
     hartree contribution      =     686.59815589 Ry
     xc contribution           =     -29.68013324 Ry
     ewald contribution        =     535.61934275 Ry

     convergence has been achieved in   4 iterations

     negative rho (up, down):  3.873E-04 0.000E+00

     Forces acting on atoms (cartesian axes, Ry/au):

     atom    1 type  1   force =     0.00000000   -0.00000683    0.00000000
     atom    2 type  2   force =     0.00000000    0.00000341   -0.00000240
     atom    3 type  2   force =     0.00000000    0.00000341    0.00000240
     The non-local contrib.  to forces
     atom    1 type  1   force =     0.00000000    0.00010185    0.00000000
     atom    2 type  2   force =     0.00000000    0.00019179   -0.27418759
     atom    3 type  2   force =     0.00000000    0.00019179    0.27418759
     The ionic contribution  to forces
     atom    1 type  1   force =     0.00000000    0.04590702    0.00000000
     atom    2 type  2   force =    -0.00000000   -0.02295351   37.02916057
     atom    3 type  2   force =    -0.00000000   -0.02295351  -37.02916057
     The local contribution  to forces
     atom    1 type  1   force =     0.00000000   -0.04604444    0.00000000
     atom    2 type  2   force =    -0.00000000    0.02274401  -36.75752375
     atom    3 type  2   force =    -0.00000000    0.02274401   36.75752375
     The core correction contribution to forces
     atom    1 type  1   force =     0.00000000    0.00002851   -0.00000000
     atom    2 type  2   force =     0.00000000    0.00002089    0.00254855
     atom    3 type  2   force =     0.00000000    0.00002089   -0.00254855
     The Hubbard contrib.    to forces
     atom    1 type  1   force =     0.00000000    0.00000000    0.00000000
     atom    2 type  2   force =     0.00000000    0.00000000    0.00000000
     atom    3 type  2   force =     0.00000000    0.00000000    0.00000000
     The SCF correction term to forces
     atom    1 type  1   force =    -0.00000000    0.00000000   -0.00000000
     atom    2 type  2   force =     0.00000000    0.00000001   -0.00000018
     atom    3 type  2   force =     0.00000000    0.00000001    0.00000018

     Total force =     0.000009     Total SCF correction =     0.000000


     Computing stress (Cartesian axis) and pressure


     negative rho (up, down):  3.873E-04 0.000E+00
          total   stress  (Ry/bohr**3)                   (kbar)     P=       -1.42
  -0.00001900   0.00000000   0.00000000           -2.80        0.00        0.00
   0.00000000  -0.00000472   0.00000000            0.00       -0.69        0.00
   0.00000000   0.00000000  -0.00000529            0.00        0.00       -0.78

     kinetic stress (kbar)   4839.84     -0.00      0.00
                               -0.00   4843.88      0.00
                                0.00      0.00   4891.67

     local   stress (kbar)-145611.94      0.00     -0.00
                                0.00-145635.57     -0.00
                               -0.00     -0.00 142587.30

     nonloc. stress (kbar)   2216.94     -0.00      0.00
                               -0.00   2216.40      0.00
                                0.00      0.00   2205.97

     hartree stress (kbar)  71410.74      0.00     -0.00
                                0.00  71418.54      0.00
                               -0.00      0.00 -69624.87

     exc-cor stress (kbar)   -411.21     -0.00     -0.00
                               -0.00   -411.16      0.00
                               -0.00      0.00   -412.26

     corecor stress (kbar)   -545.09      0.00     -0.00
                                0.00   -545.10     -0.00
                               -0.00     -0.00   -545.52

     ewald   stress (kbar)  68097.93     -0.00      0.00
                               -0.00  68112.33      0.00
                                0.00      0.00 -79103.07

     hubbard stress (kbar)      0.00      0.00      0.00
                                0.00      0.00      0.00
                                0.00      0.00      0.00

     DFT-D   stress (kbar)      0.00      0.00      0.00
                                0.00      0.00      0.00
                                0.00      0.00      0.00

     XDM     stress (kbar)      0.00      0.00      0.00
                                0.00      0.00      0.00
                                0.00      0.00      0.00

     dft-nl  stress (kbar)      0.00      0.00      0.00
                                0.00      0.00      0.00
                                0.00      0.00      0.00

     TS-vdW  stress (kbar)      0.00      0.00      0.00
                                0.00      0.00      0.00
                                0.00      0.00      0.00

     MDB     stress (kbar)      0.00      0.00      0.00
                                0.00      0.00      0.00
                                0.00      0.00      0.00

     3D-RISM stress (kbar)      0.00      0.00      0.00
                                0.00      0.00      0.00
                                0.00      0.00      0.00


     Writing all to output data dir ./tmp/mos2.save/ :
     XML data file, charge density, pseudopotentials, collected wavefunctions
 
     init_run     :      4.43s CPU      5.37s WALL (       1 calls)
     electrons    :    675.85s CPU    687.69s WALL (       1 calls)
     forces       :      1.90s CPU      2.21s WALL (       1 calls)
     stress       :      6.12s CPU      7.04s WALL (       1 calls)

     Called by init_run:
     wfcinit      :      2.50s CPU      2.59s WALL (       1 calls)
     wfcinit:atom :      0.06s CPU      0.06s WALL (      19 calls)
     wfcinit:wfcr :      2.11s CPU      2.18s WALL (      19 calls)
     potinit      :      0.85s CPU      1.14s WALL (       1 calls)
     hinit0       :      0.41s CPU      0.51s WALL (       1 calls)

     Called by electrons:
     c_bands      :    665.22s CPU    674.69s WALL (       5 calls)
     sum_band     :      7.27s CPU      8.31s WALL (       5 calls)
     v_of_rho     :      2.25s CPU      2.76s WALL (       5 calls)
     v_h          :      0.19s CPU      0.25s WALL (       5 calls)
     v_xc         :      2.69s CPU      3.26s WALL (       7 calls)
     newd         :      2.02s CPU      3.39s WALL (       5 calls)
     mix_rho      :      0.08s CPU      0.08s WALL (       5 calls)

     Called by c_bands:
     init_us_2    :      2.60s CPU      2.63s WALL (     247 calls)
     ccgdiagg     :    618.64s CPU    627.51s WALL (      95 calls)
     wfcrot       :      7.09s CPU      7.20s WALL (      76 calls)

     Called by sum_band:
     sum_band:wei :      0.00s CPU      0.00s WALL (       5 calls)
     sum_band:loo :      4.85s CPU      4.89s WALL (       5 calls)
     sum_band:buf :      0.12s CPU      0.13s WALL (      95 calls)
     sum_band:ini :      0.83s CPU      0.84s WALL (      95 calls)
     sum_band:cal :      0.55s CPU      0.55s WALL (      95 calls)
     sum_band:bec :      0.00s CPU      0.00s WALL (      95 calls)
     addusdens    :      2.03s CPU      2.99s WALL (       5 calls)
                                        0.00s GPU  (       5 calls)
     addusd:skk   :      0.00s CPU      0.01s WALL (      10 calls)
                                        0.00s GPU  (      10 calls)

     Called by *cgdiagg:
     h_psi        :    339.76s CPU    344.77s WALL (   21219 calls)
     s_psi        :    151.23s CPU    153.43s WALL (   42362 calls)

     Called by h_psi:
     h_psi:calbec :     93.06s CPU     94.28s WALL (   21219 calls)
     vloc_psi     :    158.96s CPU    161.35s WALL (   21219 calls)
                                        0.00s GPU  (   21219 calls)
     add_vuspsi   :     84.44s CPU     85.88s WALL (   21219 calls)
     hs_1psi      :    414.16s CPU    420.32s WALL (   21143 calls)
     s_1psi       :    151.78s CPU    153.78s WALL (   21143 calls)

     General routines
     calbec       :    172.24s CPU    174.55s WALL (   42780 calls)
     fft          :      1.98s CPU      2.31s WALL (      89 calls)
     ffts         :      0.05s CPU      0.06s WALL (      10 calls)
     fftw         :    104.21s CPU    105.56s WALL (   46314 calls)
     interpolate  :      0.17s CPU      0.21s WALL (       5 calls)
 
     Parallel routines
 
     PWSCF        :  11m28.49s CPU  11m42.64s WALL

 
   This run was terminated on:   0:26: 4  23Sep2026            

=------------------------------------------------------------------------------=
   JOB DONE.
=------------------------------------------------------------------------------=
