
     Program PWSCF v.7.5 starts on 22Sep2026 at 22:55:20 

     This program is part of the open-source Quantum ESPRESSO suite
     for quantum simulation of materials; please cite
         "P. Giannozzi et al., J. Phys.:Condens. Matter 21 395502 (2009);
         "P. Giannozzi et al., J. Phys.:Condens. Matter 29 465901 (2017);
         "P. Giannozzi et al., J. Chem. Phys. 152 154105 (2020);
          URL http://www.quantum-espresso.org", 
     in publications or presentations arising from this work. More details at
     http://www.quantum-espresso.org/quote

     Parallel version (MPI), running on     4 processors

     MPI processes distributed on     1 nodes
     2387 MiB available memory on the printing compute node when the environment starts

     Reading input from scf.in

     Current dimensions of program PWSCF are:
     Max number of different atomic species (ntypx) = 10
     Max number of k-points (npk) =  40000
     Max angular momentum in pseudopotentials (lmaxx) =  4
     Message from routine setup:
     using ibrav=0 with symmetry is DISCOURAGED, use correct ibrav instead

     R & G space division:  proc/nbgrp/npool/nimage =       4
     Subspace diagonalization in iterative solution of the eigenvalue problem:
     a serial algorithm will be used


     Parallelization info
     --------------------
     sticks:   dense  smooth     PW     G-vecs:    dense   smooth      PW
     Min         450     222     69                14468     5093     851
     Max         451     223     70                14469     5096     854
     Sum        1801     889    277                57873    20377    3407

     Using Slab Decomposition



     bravais-lattice index     =            0
     lattice parameter (alat)  =       5.9670  a.u.
     unit-cell volume          =     212.4576 (a.u.)^3
     number of atoms/cell      =            2
     number of atomic types    =            2
     number of electrons       =         7.00
     number of Kohn-Sham states=           10
     kinetic-energy cutoff     =      80.0000  Ry
     charge density cutoff     =     640.0000  Ry
     scf convergence threshold =      1.0E-10
     mixing beta               =       0.7000
     number of iterations used =            8  plain     mixing
     Exchange-correlation= PBE
                           (   1   4   3   4   0   0   0)

     celldm(1)=   5.967019  celldm(2)=   0.000000  celldm(3)=   0.000000
     celldm(4)=   0.000000  celldm(5)=   0.000000  celldm(6)=   0.000000

     crystal axes: (cart. coord. in units of alat)
               a(1) = (   1.000000   0.000000   0.000000 )  
               a(2) = (   0.000000   1.000000   0.000000 )  
               a(3) = (   0.000000   0.000000   1.000000 )  

     reciprocal axes: (cart. coord. in units 2 pi/alat)
               b(1) = (  1.000000  0.000000  0.000000 )  
               b(2) = (  0.000000  1.000000  0.000000 )  
               b(3) = (  0.000000  0.000000  1.000000 )  


     PseudoPot. # 1 for Al read from file:
     ../../pseudo/Al.pbe-n-rrkjus_psl.1.0.0.UPF
     MD5 check sum: bbe9f3f15d9b3b5ab9a58e4859ebdbfe
     Pseudo is Ultrasoft + core correction, Zval =  3.0
     Generated using &quot;atomic&quot; code by A. Dal Corso  v.6.3
     Using radial grid of 1135 points,  6 beta functions with: 
                l(1) =   0
                l(2) =   0
                l(3) =   1
                l(4) =   1
                l(5) =   2
                l(6) =   2
     Q(r) pseudized with 0 coefficients 


     PseudoPot. # 2 for Si read from file:
     ../../pseudo/Si.pbe-n-rrkjus_psl.1.0.0.UPF
     MD5 check sum: fa25574f73a70a4139f2adfbefec430c
     Pseudo is Ultrasoft + core correction, Zval =  4.0
     Generated using &quot;atomic&quot; code by A. Dal Corso  v.6.3
     Using radial grid of 1141 points,  6 beta functions with: 
                l(1) =   0
                l(2) =   0
                l(3) =   1
                l(4) =   1
                l(5) =   2
                l(6) =   2
     Q(r) pseudized with 0 coefficients 


     atomic species   valence    mass     pseudopotential
     Al                3.00    26.98154     Al( 1.00)
     Si                4.00    28.08500     Si( 1.00)

     48 Sym. Ops., with inversion, found



   Cartesian axes

     site n.     atom                  positions (alat units)
         1        Al     tau(   1) = (   0.0000000   0.0000000   0.0000000  )
         2        Si     tau(   2) = (   0.5000000   0.5000000   0.5000000  )

     number of k points=   455  Marzari-Vanderbilt smearing, width (Ry)=  0.0050

     Number of k-points >= 100: set verbosity='high' to print them.

     Dense  grid:    57873 G-vectors     FFT dimensions: (  50,  50,  50)

     Smooth grid:    20377 G-vectors     FFT dimensions: (  36,  36,  36)

     Estimated max dynamical RAM per process >     102.01 MB

     Estimated total dynamical RAM >     408.02 MB

     The initial density is read from file :
     ./tmp/alsi-b2.save/charge-density

     Starting wfcs are    8 randomized atomic wfcs +    2 random wfcs

     total cpu time spent up to now is        4.6 secs

     per-process dynamical memory:    71.9 Mb

     Self-consistent Calculation

     iteration #  1     ecut=    80.00 Ry     beta= 0.70
     CG style diagonalization
     ethr =  1.00E-06,  avg # of iterations = 22.4

     Threshold (ethr) on eigenvalues was too large:
     Diagonalizing with lowered threshold

     CG style diagonalization
     ethr =  5.57E-08,  avg # of iterations =  3.1

     total cpu time spent up to now is      132.2 secs

     total energy              =     -16.42064994 Ry
     estimated scf accuracy    <       0.00000364 Ry

     iteration #  2     ecut=    80.00 Ry     beta= 0.70
     CG style diagonalization
     ethr =  5.20E-08,  avg # of iterations =  3.2

     total cpu time spent up to now is      147.7 secs

     total energy              =     -16.42065109 Ry
     estimated scf accuracy    <       0.00000034 Ry

     iteration #  3     ecut=    80.00 Ry     beta= 0.70
     CG style diagonalization
     ethr =  4.80E-09,  avg # of iterations =  3.3

     total cpu time spent up to now is      163.6 secs

     total energy              =     -16.42065119 Ry
     estimated scf accuracy    <          5.0E-09 Ry

     iteration #  4     ecut=    80.00 Ry     beta= 0.70
     CG style diagonalization
     ethr =  7.14E-11,  avg # of iterations =  3.6

     total cpu time spent up to now is      181.1 secs

     total energy              =     -16.42065119 Ry
     estimated scf accuracy    <          5.9E-10 Ry

     iteration #  5     ecut=    80.00 Ry     beta= 0.70
     CG style diagonalization
     ethr =  8.45E-12,  avg # of iterations =  3.2

     total cpu time spent up to now is      196.8 secs

     End of self-consistent calculation

     Number of k-points >= 100: set verbosity='high' to print the bands.

     the Fermi energy is     8.9600 ev

!    total energy              =     -16.42065119 Ry
     estimated scf accuracy    <          4.7E-11 Ry
     smearing contrib. (-TS)   =      -0.00000727 Ry
     internal energy E=F+TS    =     -16.42064392 Ry

     The total energy is F=E-TS. E is the sum of the following terms:
     one-electron contribution =       7.29384647 Ry
     hartree contribution      =       0.14327233 Ry
     xc contribution           =      -8.74487400 Ry
     ewald contribution        =     -15.11288871 Ry

     convergence has been achieved in   5 iterations

     Forces acting on atoms (cartesian axes, Ry/au):

     atom    1 type  1   force =     0.00000000    0.00000000    0.00000000
     atom    2 type  2   force =     0.00000000    0.00000000    0.00000000

     Total force =     0.000000     Total SCF correction =     0.000000


     Computing stress (Cartesian axis) and pressure

          total   stress  (Ry/bohr**3)                   (kbar)     P=        1.16
   0.00000790   0.00000000   0.00000000            1.16        0.00        0.00
   0.00000000   0.00000790   0.00000000            0.00        1.16        0.00
   0.00000000   0.00000000   0.00000790            0.00        0.00        1.16


     Writing all to output data dir ./tmp/alsi-b2.save/ :
     XML data file, charge density, pseudopotentials, collected wavefunctions

     init_run     :      4.08s CPU      4.28s WALL (       1 calls)
     electrons    :    182.53s CPU    192.28s WALL (       1 calls)
     forces       :      2.06s CPU      2.13s WALL (       1 calls)
     stress       :      8.41s CPU      8.65s WALL (       1 calls)

     Called by init_run:
     wfcinit      :      3.27s CPU      3.42s WALL (       1 calls)
     potinit      :      0.15s CPU      0.15s WALL (       1 calls)
     hinit0       :      0.36s CPU      0.37s WALL (       1 calls)

     Called by electrons:
     c_bands      :    172.80s CPU    181.49s WALL (       6 calls)
     sum_band     :      9.07s CPU      9.86s WALL (       6 calls)
     v_of_rho     :      0.12s CPU      0.13s WALL (       6 calls)
     newd         :      0.64s CPU      0.90s WALL (       6 calls)
     mix_rho      :      0.01s CPU      0.01s WALL (       6 calls)

     Called by c_bands:
     init_us_2    :      2.38s CPU      2.45s WALL (    6825 calls)
     ccgdiagg     :    159.04s CPU    167.04s WALL (    2730 calls)
     wfcrot       :     15.43s CPU     16.21s WALL (    2275 calls)

     Called by *cgdiagg:
     h_psi        :    108.18s CPU    113.77s WALL (  160261 calls)
     s_psi        :     29.04s CPU     30.47s WALL (  318247 calls)

     Called by h_psi:
     h_psi:calbec :     21.26s CPU     22.41s WALL (  160261 calls)
     vloc_psi     :     70.07s CPU     73.76s WALL (  160261 calls)
                                        0.00s GPU  (  160261 calls)
     add_vuspsi   :     15.60s CPU     16.33s WALL (  160261 calls)
     hs_1psi      :    111.18s CPU    116.76s WALL (  157986 calls)
     s_1psi       :     32.85s CPU     34.53s WALL (  157986 calls)

     General routines
     calbec       :     48.10s CPU     50.48s WALL (  328712 calls)
     fft          :      0.17s CPU      0.18s WALL (     102 calls)
     ffts         :      0.13s CPU      0.13s WALL (      12 calls)
     fftw         :     64.77s CPU     68.29s WALL (  388772 calls)
     interpolate  :      0.14s CPU      0.14s WALL (       6 calls)

     Parallel routines

     PWSCF        :   3m17.60s CPU   3m28.02s WALL


   This run was terminated on:  22:58:48  22Sep2026            

=------------------------------------------------------------------------------=
   JOB DONE.
=------------------------------------------------------------------------------=
