
     Program PWSCF v.7.5 starts on 22Sep2026 at 22:46:35 

     This program is part of the open-source Quantum ESPRESSO suite
     for quantum simulation of materials; please cite
         "P. Giannozzi et al., J. Phys.:Condens. Matter 21 395502 (2009);
         "P. Giannozzi et al., J. Phys.:Condens. Matter 29 465901 (2017);
         "P. Giannozzi et al., J. Chem. Phys. 152 154105 (2020);
          URL http://www.quantum-espresso.org", 
     in publications or presentations arising from this work. More details at
     http://www.quantum-espresso.org/quote

     Parallel version (MPI), running on     4 processors

     MPI processes distributed on     1 nodes
     4414 MiB available memory on the printing compute node when the environment starts

     Reading input from scf.in

     Current dimensions of program PWSCF are:
     Max number of different atomic species (ntypx) = 10
     Max number of k-points (npk) =  40000
     Max angular momentum in pseudopotentials (lmaxx) =  4
     Message from routine setup:
     using ibrav=0 with symmetry is DISCOURAGED, use correct ibrav instead

     R & G space division:  proc/nbgrp/npool/nimage =       4
     Subspace diagonalization in iterative solution of the eigenvalue problem:
     a serial algorithm will be used


     Parallelization info
     --------------------
     sticks:   dense  smooth     PW     G-vecs:    dense   smooth      PW
     Min         722     271     81                29343     6739    1095
     Max         724     272     82                29346     6744    1098
     Sum        2893    1085    325               117377    26961    4385

     Using Slab Decomposition



     bravais-lattice index     =            0
     lattice parameter (alat)  =       7.5420  a.u.
     unit-cell volume          =     429.0071 (a.u.)^3
     number of atoms/cell      =            4
     number of atomic types    =            2
     number of electrons       =        13.00
     number of Kohn-Sham states=           14
     kinetic-energy cutoff     =      60.0000  Ry
     charge density cutoff     =     640.0000  Ry
     scf convergence threshold =      1.0E-10
     mixing beta               =       0.7000
     number of iterations used =            8  plain     mixing
     Exchange-correlation= PBE
                           (   1   4   3   4   0   0   0)

     celldm(1)=   7.542028  celldm(2)=   0.000000  celldm(3)=   0.000000
     celldm(4)=   0.000000  celldm(5)=   0.000000  celldm(6)=   0.000000

     crystal axes: (cart. coord. in units of alat)
               a(1) = (   1.000000   0.000000   0.000000 )  
               a(2) = (   0.000000   1.000000   0.000000 )  
               a(3) = (   0.000000   0.000000   1.000000 )  

     reciprocal axes: (cart. coord. in units 2 pi/alat)
               b(1) = (  1.000000  0.000000  0.000000 )  
               b(2) = (  0.000000  1.000000  0.000000 )  
               b(3) = (  0.000000  0.000000  1.000000 )  


     PseudoPot. # 1 for Si read from file:
     ../../pseudo/Si.pbe-n-rrkjus_psl.1.0.0.UPF
     MD5 check sum: fa25574f73a70a4139f2adfbefec430c
     Pseudo is Ultrasoft + core correction, Zval =  4.0
     Generated using &quot;atomic&quot; code by A. Dal Corso  v.6.3
     Using radial grid of 1141 points,  6 beta functions with: 
                l(1) =   0
                l(2) =   0
                l(3) =   1
                l(4) =   1
                l(5) =   2
                l(6) =   2
     Q(r) pseudized with 0 coefficients 


     PseudoPot. # 2 for Al read from file:
     ../../pseudo/Al.pbe-n-rrkjus_psl.1.0.0.UPF
     MD5 check sum: bbe9f3f15d9b3b5ab9a58e4859ebdbfe
     Pseudo is Ultrasoft + core correction, Zval =  3.0
     Generated using &quot;atomic&quot; code by A. Dal Corso  v.6.3
     Using radial grid of 1135 points,  6 beta functions with: 
                l(1) =   0
                l(2) =   0
                l(3) =   1
                l(4) =   1
                l(5) =   2
                l(6) =   2
     Q(r) pseudized with 0 coefficients 


     atomic species   valence    mass     pseudopotential
     Si                4.00    28.08500     Si( 1.00)
     Al                3.00    26.98154     Al( 1.00)

     48 Sym. Ops., with inversion, found



   Cartesian axes

     site n.     atom                  positions (alat units)
         1        Si     tau(   1) = (   0.0000000   0.0000000   0.0000000  )
         2        Al     tau(   2) = (   0.0000000   0.5000000   0.5000000  )
         3        Al     tau(   3) = (   0.5000000   0.0000000   0.5000000  )
         4        Al     tau(   4) = (   0.5000000   0.5000000   0.0000000  )

     number of k points=    84  Marzari-Vanderbilt smearing, width (Ry)=  0.0100
                       cart. coord. in units 2pi/alat
        k(    1) = (   0.0000000   0.0000000   0.0000000), wk =   0.0011574
        k(    2) = (   0.0000000   0.0000000   0.0833333), wk =   0.0069444
        k(    3) = (   0.0000000   0.0000000   0.1666667), wk =   0.0069444
        k(    4) = (   0.0000000   0.0000000   0.2500000), wk =   0.0069444
        k(    5) = (   0.0000000   0.0000000   0.3333333), wk =   0.0069444
        k(    6) = (   0.0000000   0.0000000   0.4166667), wk =   0.0069444
        k(    7) = (   0.0000000   0.0000000  -0.5000000), wk =   0.0034722
        k(    8) = (   0.0000000   0.0833333   0.0833333), wk =   0.0138889
        k(    9) = (   0.0000000   0.0833333   0.1666667), wk =   0.0277778
        k(   10) = (   0.0000000   0.0833333   0.2500000), wk =   0.0277778
        k(   11) = (   0.0000000   0.0833333   0.3333333), wk =   0.0277778
        k(   12) = (   0.0000000   0.0833333   0.4166667), wk =   0.0277778
        k(   13) = (   0.0000000   0.0833333  -0.5000000), wk =   0.0138889
        k(   14) = (   0.0000000   0.1666667   0.1666667), wk =   0.0138889
        k(   15) = (   0.0000000   0.1666667   0.2500000), wk =   0.0277778
        k(   16) = (   0.0000000   0.1666667   0.3333333), wk =   0.0277778
        k(   17) = (   0.0000000   0.1666667   0.4166667), wk =   0.0277778
        k(   18) = (   0.0000000   0.1666667  -0.5000000), wk =   0.0138889
        k(   19) = (   0.0000000   0.2500000   0.2500000), wk =   0.0138889
        k(   20) = (   0.0000000   0.2500000   0.3333333), wk =   0.0277778
        k(   21) = (   0.0000000   0.2500000   0.4166667), wk =   0.0277778
        k(   22) = (   0.0000000   0.2500000  -0.5000000), wk =   0.0138889
        k(   23) = (   0.0000000   0.3333333   0.3333333), wk =   0.0138889
        k(   24) = (   0.0000000   0.3333333   0.4166667), wk =   0.0277778
        k(   25) = (   0.0000000   0.3333333  -0.5000000), wk =   0.0138889
        k(   26) = (   0.0000000   0.4166667   0.4166667), wk =   0.0138889
        k(   27) = (   0.0000000   0.4166667  -0.5000000), wk =   0.0138889
        k(   28) = (   0.0000000  -0.5000000  -0.5000000), wk =   0.0034722
        k(   29) = (   0.0833333   0.0833333   0.0833333), wk =   0.0092593
        k(   30) = (   0.0833333   0.0833333   0.1666667), wk =   0.0277778
        k(   31) = (   0.0833333   0.0833333   0.2500000), wk =   0.0277778
        k(   32) = (   0.0833333   0.0833333   0.3333333), wk =   0.0277778
        k(   33) = (   0.0833333   0.0833333   0.4166667), wk =   0.0277778
        k(   34) = (   0.0833333   0.0833333  -0.5000000), wk =   0.0138889
        k(   35) = (   0.0833333   0.1666667   0.1666667), wk =   0.0277778
        k(   36) = (   0.0833333   0.1666667   0.2500000), wk =   0.0555556
        k(   37) = (   0.0833333   0.1666667   0.3333333), wk =   0.0555556
        k(   38) = (   0.0833333   0.1666667   0.4166667), wk =   0.0555556
        k(   39) = (   0.0833333   0.1666667  -0.5000000), wk =   0.0277778
        k(   40) = (   0.0833333   0.2500000   0.2500000), wk =   0.0277778
        k(   41) = (   0.0833333   0.2500000   0.3333333), wk =   0.0555556
        k(   42) = (   0.0833333   0.2500000   0.4166667), wk =   0.0555556
        k(   43) = (   0.0833333   0.2500000  -0.5000000), wk =   0.0277778
        k(   44) = (   0.0833333   0.3333333   0.3333333), wk =   0.0277778
        k(   45) = (   0.0833333   0.3333333   0.4166667), wk =   0.0555556
        k(   46) = (   0.0833333   0.3333333  -0.5000000), wk =   0.0277778
        k(   47) = (   0.0833333   0.4166667   0.4166667), wk =   0.0277778
        k(   48) = (   0.0833333   0.4166667  -0.5000000), wk =   0.0277778
        k(   49) = (   0.0833333  -0.5000000  -0.5000000), wk =   0.0069444
        k(   50) = (   0.1666667   0.1666667   0.1666667), wk =   0.0092593
        k(   51) = (   0.1666667   0.1666667   0.2500000), wk =   0.0277778
        k(   52) = (   0.1666667   0.1666667   0.3333333), wk =   0.0277778
        k(   53) = (   0.1666667   0.1666667   0.4166667), wk =   0.0277778
        k(   54) = (   0.1666667   0.1666667  -0.5000000), wk =   0.0138889
        k(   55) = (   0.1666667   0.2500000   0.2500000), wk =   0.0277778
        k(   56) = (   0.1666667   0.2500000   0.3333333), wk =   0.0555556
        k(   57) = (   0.1666667   0.2500000   0.4166667), wk =   0.0555556
        k(   58) = (   0.1666667   0.2500000  -0.5000000), wk =   0.0277778
        k(   59) = (   0.1666667   0.3333333   0.3333333), wk =   0.0277778
        k(   60) = (   0.1666667   0.3333333   0.4166667), wk =   0.0555556
        k(   61) = (   0.1666667   0.3333333  -0.5000000), wk =   0.0277778
        k(   62) = (   0.1666667   0.4166667   0.4166667), wk =   0.0277778
        k(   63) = (   0.1666667   0.4166667  -0.5000000), wk =   0.0277778
        k(   64) = (   0.1666667  -0.5000000  -0.5000000), wk =   0.0069444
        k(   65) = (   0.2500000   0.2500000   0.2500000), wk =   0.0092593
        k(   66) = (   0.2500000   0.2500000   0.3333333), wk =   0.0277778
        k(   67) = (   0.2500000   0.2500000   0.4166667), wk =   0.0277778
        k(   68) = (   0.2500000   0.2500000  -0.5000000), wk =   0.0138889
        k(   69) = (   0.2500000   0.3333333   0.3333333), wk =   0.0277778
        k(   70) = (   0.2500000   0.3333333   0.4166667), wk =   0.0555556
        k(   71) = (   0.2500000   0.3333333  -0.5000000), wk =   0.0277778
        k(   72) = (   0.2500000   0.4166667   0.4166667), wk =   0.0277778
        k(   73) = (   0.2500000   0.4166667  -0.5000000), wk =   0.0277778
        k(   74) = (   0.2500000  -0.5000000  -0.5000000), wk =   0.0069444
        k(   75) = (   0.3333333   0.3333333   0.3333333), wk =   0.0092593
        k(   76) = (   0.3333333   0.3333333   0.4166667), wk =   0.0277778
        k(   77) = (   0.3333333   0.3333333  -0.5000000), wk =   0.0138889
        k(   78) = (   0.3333333   0.4166667   0.4166667), wk =   0.0277778
        k(   79) = (   0.3333333   0.4166667  -0.5000000), wk =   0.0277778
        k(   80) = (   0.3333333  -0.5000000  -0.5000000), wk =   0.0069444
        k(   81) = (   0.4166667   0.4166667   0.4166667), wk =   0.0092593
        k(   82) = (   0.4166667   0.4166667  -0.5000000), wk =   0.0138889
        k(   83) = (   0.4166667  -0.5000000  -0.5000000), wk =   0.0069444
        k(   84) = (  -0.5000000  -0.5000000  -0.5000000), wk =   0.0011574

     Dense  grid:   117377 G-vectors     FFT dimensions: (  64,  64,  64)

     Smooth grid:    26961 G-vectors     FFT dimensions: (  40,  40,  40)

     Estimated max dynamical RAM per process >     127.68 MB

     Estimated total dynamical RAM >     510.73 MB

     Initial potential from superposition of free atoms

     starting charge      12.9926, renormalised to      13.0000
     Starting wfcs are   16 randomized atomic wfcs

     total cpu time spent up to now is        2.8 secs

     per-process dynamical memory:    46.3 Mb

     Self-consistent Calculation

     iteration #  1     ecut=    60.00 Ry     beta= 0.70
     CG style diagonalization
     c_bands:  1 eigenvalues not converged
     c_bands:  1 eigenvalues not converged
     c_bands:  1 eigenvalues not converged
     c_bands:  1 eigenvalues not converged
     c_bands:  1 eigenvalues not converged
     c_bands:  1 eigenvalues not converged
     ethr =  1.00E-10,  avg # of iterations = 48.3

     total cpu time spent up to now is      109.8 secs

     total energy              =     -26.50783387 Ry
     estimated scf accuracy    <       0.02218614 Ry

     iteration #  2     ecut=    60.00 Ry     beta= 0.70
     CG style diagonalization
     ethr =  1.71E-04,  avg # of iterations =  3.0

     total cpu time spent up to now is      116.6 secs

     total energy              =     -26.50786702 Ry
     estimated scf accuracy    <       0.00154064 Ry

     iteration #  3     ecut=    60.00 Ry     beta= 0.70
     CG style diagonalization
     ethr =  1.19E-05,  avg # of iterations =  3.0

     total cpu time spent up to now is      123.5 secs

     total energy              =     -26.50793909 Ry
     estimated scf accuracy    <       0.00009692 Ry

     iteration #  4     ecut=    60.00 Ry     beta= 0.70
     CG style diagonalization
     ethr =  7.46E-07,  avg # of iterations =  3.6

     total cpu time spent up to now is      131.8 secs

     total energy              =     -26.50798684 Ry
     estimated scf accuracy    <       0.00000522 Ry

     iteration #  5     ecut=    60.00 Ry     beta= 0.70
     CG style diagonalization
     ethr =  4.01E-08,  avg # of iterations =  3.4

     total cpu time spent up to now is      139.6 secs

     total energy              =     -26.50798889 Ry
     estimated scf accuracy    <       0.00000044 Ry

     iteration #  6     ecut=    60.00 Ry     beta= 0.70
     CG style diagonalization
     ethr =  3.41E-09,  avg # of iterations =  3.3

     total cpu time spent up to now is      147.2 secs

     total energy              =     -26.50798897 Ry
     estimated scf accuracy    <       0.00000005 Ry

     iteration #  7     ecut=    60.00 Ry     beta= 0.70
     CG style diagonalization
     ethr =  4.07E-10,  avg # of iterations =  3.4

     total cpu time spent up to now is      154.9 secs

     total energy              =     -26.50798898 Ry
     estimated scf accuracy    <          3.5E-09 Ry

     iteration #  8     ecut=    60.00 Ry     beta= 0.70
     CG style diagonalization
     ethr =  2.68E-11,  avg # of iterations =  3.6

     total cpu time spent up to now is      163.0 secs

     End of self-consistent calculation

          k = 0.0000 0.0000 0.0000 (  3407 PWs)   bands (ev):

    -3.5195   4.9841   4.9841   4.9841   5.0554   6.9400   6.9400  12.8667
    12.8667  12.8667  13.6674  13.6674  13.6674  14.3938

          k = 0.0000 0.0000 0.0833 (  3367 PWs)   bands (ev):

    -3.4572   3.9548   5.0413   5.0413   5.5725   7.0013   7.6272  12.0902
    12.0902  12.4109  13.6890  13.6891  13.7306  13.9448

          k = 0.0000 0.0000 0.1667 (  3367 PWs)   bands (ev):

    -3.2710   2.7721   5.2123   5.2123   5.8629   7.1838   9.0437  10.9425
    10.9425  11.4921  13.0249  13.8398  13.8398  13.9199

          k = 0.0000 0.0000 0.2500 (  3367 PWs)   bands (ev):

    -2.9638   1.6490   5.4947   5.4947   6.1998   7.4827   9.8591   9.8591
    10.4479  10.7553  12.0314  14.0966  14.0966  14.2343

          k = 0.0000 0.0000 0.3333 (  3382 PWs)   bands (ev):

    -2.5441   0.6352   5.8806   5.8806   6.6388   7.8843   8.8924   8.8924
     9.5360  11.0995  12.5180  14.4461  14.4461  14.6713

          k = 0.0000 0.0000 0.4167 (  3370 PWs)   bands (ev):

    -2.0452  -0.2233   6.3368   6.3368   7.1832   8.0856   8.0856   8.3404
     8.6747  10.3158  14.4243  14.8494  14.8494  15.2212

          k = 0.0000 0.0000-0.5000 (  3394 PWs)   bands (ev):

    -1.7052  -0.6836   6.6402   6.6402   7.6651   7.6651   7.6885   8.0620
     8.6161   9.9297  15.0996  15.0996  15.7155  16.1698

          k = 0.0000 0.0833 0.0833 (  3359 PWs)   bands (ev):

    -3.3949   3.8270   4.3078   5.0985   6.0345   7.4712   7.8499  11.1800
    11.9089  12.6777  12.7506  13.2269  14.2813  14.8565

          k = 0.0000 0.0833 0.1667 (  3356 PWs)   bands (ev):

    -3.2089   2.8161   4.3039   5.2695   6.3472   7.7778   9.1211  10.0456
    10.9719  12.0180  12.5797  13.1873  13.6985  15.2932

          k = 0.0000 0.0833 0.2500 (  3374 PWs)   bands (ev):

    -2.9020   1.7056   4.5805   5.5517   6.6824   8.0824   8.9661   9.9097
    10.7435  11.0557  12.5196  12.8291  13.6791  15.6067

          k = 0.0000 0.0833 0.3333 (  3374 PWs)   bands (ev):

    -2.4828   0.6951   4.9780   5.9373   7.1021   8.0019   8.4819   8.9479
    10.0748  11.6185  12.5766  13.2125  14.0258  15.8927

          k = 0.0000 0.0833 0.4167 (  3381 PWs)   bands (ev):

    -1.9847  -0.1616   5.4598   6.3929   7.1155   7.6815   8.1432   8.9189
     9.2506  10.8446  13.6855  14.4048  14.5185  15.2846

          k = 0.0000 0.0833-0.5000 (  3384 PWs)   bands (ev):

    -1.6460  -0.6204   5.8022   6.6769   6.6952   7.7242   8.0782   8.6910
     9.2335  10.4563  14.0307  14.7115  14.8344  15.7303

          k = 0.0000 0.1667 0.1667 (  3381 PWs)   bands (ev):

    -3.0233   2.7763   3.3236   5.4402   6.6635   8.8492   8.9892   9.5327
    10.8717  11.6303  12.3394  12.3965  14.3401  15.8088

          k = 0.0000 0.1667 0.2500 (  3373 PWs)   bands (ev):

    -2.7173   1.8653   3.4026   5.7220   6.9861   7.8144   9.4515  10.0452
    10.9596  11.4020  11.6396  12.6721  13.8291  15.8454

          k = 0.0000 0.1667 0.3333 (  3361 PWs)   bands (ev):

    -2.2996   0.8726   3.7886   6.1066   6.7759   7.4701   9.1115   9.8433
    10.4650  11.9959  12.7262  12.7881  13.2766  14.8914

          k = 0.0000 0.1667 0.4167 (  3369 PWs)   bands (ev):

    -1.8044   0.0227   4.2751   5.9530   6.5600   7.9645   8.3154   9.5724
    10.3648  12.1290  12.4680  13.5844  14.0652  14.6504

          k = 0.0000 0.1667-0.5000 (  3374 PWs)   bands (ev):

    -1.4697  -0.4310   4.6282   5.4839   6.8587   7.9014   8.3464   9.0929
    10.6419  11.7449  12.8252  13.5905  13.8842  14.7931

          k = 0.0000 0.2500 0.2500 (  3353 PWs)   bands (ev):

    -2.4130   1.9436   2.4970   6.0028   6.6618   7.3744  10.0608  10.8059
    10.8073  11.5122  11.7011  11.7857  14.7653  14.7794

          k = 0.0000 0.2500 0.3333 (  3362 PWs)   bands (ev):

    -1.9981   1.1551   2.6864   5.6860   6.3853   7.7827   9.3635  10.7283
    10.9277  11.5104  12.1419  13.0649  13.7878  14.4346

          k = 0.0000 0.2500 0.4167 (  3365 PWs)   bands (ev):

    -1.5083   0.3267   3.1645   4.8375   6.8338   8.2860   8.5988   9.9323
    11.3766  11.9498  12.6259  12.9507  13.7198  14.2275

          k = 0.0000 0.2500-0.5000 (  3370 PWs)   bands (ev):

    -1.1817  -0.1163   3.5251   4.3557   7.1249   8.1968   8.6539   9.4601
    11.7389  12.2162  12.4640  13.0199  13.2915  13.8222

          k = 0.0000 0.3333 0.3333 (  3367 PWs)   bands (ev):

    -1.5882   1.3617   1.8918   4.6863   6.7634   8.2011   9.5058  10.2154
    11.0468  11.3055  12.8021  13.0348  13.6914  14.1279

          k = 0.0000 0.3333 0.4167 (  3366 PWs)   bands (ev):

    -1.1088   0.7381   2.1846   3.8249   7.2013   8.6971   8.9776  10.3589
    10.4420  11.6789  11.9576  13.2429  13.7965  15.1281

          k = 0.0000 0.3333-0.5000 (  3368 PWs)   bands (ev):

    -0.7973   0.3217   2.5491   3.3270   7.4767   8.6105   9.0493   9.9056
    10.7989  11.4562  12.0217  12.8262  14.0687  15.0018

          k = 0.0000 0.4167 0.4167 (  3367 PWs)   bands (ev):

    -0.6512   1.1044   1.5249   2.9466   7.6145   9.1770   9.2911   9.8608
    10.7691  10.9958  11.1023  12.4652  15.3425  15.8259

          k = 0.0000 0.4167-0.5000 (  3372 PWs)   bands (ev):

    -0.3706   0.8762   1.7649   2.4153   7.8565   9.1422   9.5023  10.0654
    10.4412  10.5679  11.2782  11.9797  15.7997  16.4516

          k = 0.0000-0.5000-0.5000 (  3348 PWs)   bands (ev):

    -0.1271   1.4020   1.4020   1.7700   8.0615   9.7425   9.7425   9.7899
     9.8486  10.8895  10.8895  11.4256  16.9642  16.9642

          k = 0.0833 0.0833 0.0833 (  3350 PWs)   bands (ev):

    -3.3327   3.7407   4.3666   4.3666   6.6459   7.9096   7.9096  10.8899
    11.5458  11.5458  13.4525  13.4525  14.5575  14.7016

          k = 0.0833 0.0833 0.1667 (  3364 PWs)   bands (ev):

    -3.1468   2.8591   4.2313   4.5420   7.0683   8.0873   9.1948   9.8980
    10.3639  11.5986  12.7450  13.5369  14.1650  15.1554

          k = 0.0833 0.0833 0.2500 (  3375 PWs)   bands (ev):

    -2.8402   1.7620   4.4940   4.8314   7.4154   8.3780   8.8473   9.2694
    10.8280  11.6196  12.0213  12.7980  14.2326  15.5346

          k = 0.0833 0.0833 0.3333 (  3372 PWs)   bands (ev):

    -2.4215   0.7549   4.8906   5.2262   7.7009   8.0244   8.2888   8.7736
    10.7630  11.9093  12.2968  12.6499  14.5643  15.1804

          k = 0.0833 0.0833 0.4167 (  3372 PWs)   bands (ev):

    -1.9243  -0.1000   5.3794   5.6919   7.0051   7.4735   8.4004   9.2183
     9.9406  11.1449  12.7719  14.3651  14.5536  14.9646

          k = 0.0833 0.0833-0.5000 (  3378 PWs)   bands (ev):

    -1.5869  -0.5572   5.7409   6.0005   6.5340   7.0477   8.8023   9.4269
     9.4890  10.7659  13.1166  13.9197  15.2147  16.3255

          k = 0.0833 0.1667 0.1667 (  3366 PWs)   bands (ev):

    -2.9614   2.8169   3.3835   4.5886   7.5629   8.9010   9.0969   9.5903
    10.1737  10.6518  13.1555  13.2420  14.5246  15.6946

          k = 0.0833 0.1667 0.2500 (  3368 PWs)   bands (ev):

    -2.6557   1.9211   3.4538   4.8718   7.7296   8.0349   9.2480   9.5728
    10.7267  11.0390  12.2768  13.4456  14.0505  14.9874

          k = 0.0833 0.1667 0.3333 (  3365 PWs)   bands (ev):

    -2.2385   0.9322   3.8377   5.2668   6.8341   8.2646   8.4145   9.9642
    11.0526  11.3950  12.8000  12.9915  14.0219  14.0671

          k = 0.0833 0.1667 0.4167 (  3377 PWs)   bands (ev):

    -1.7441   0.0843   4.3239   5.7331   6.0045   7.4800   8.8771  10.3581
    10.5587  11.6128  12.2471  13.2057  14.4541  14.7237

          k = 0.0833 0.1667-0.5000 (  3374 PWs)   bands (ev):

    -1.4108  -0.3679   4.6778   5.5244   6.0622   7.0454   9.2385  10.0173
    10.7164  11.8600  11.9690  12.7370  14.7500  15.6941

          k = 0.0833 0.2500 0.2500 (  3359 PWs)   bands (ev):

    -2.3517   1.9979   2.5576   5.1525   6.7291   8.3010   9.3093   9.8727
    10.9298  11.5706  12.5025  12.7726  13.9155  14.8674

          k = 0.0833 0.2500 0.3333 (  3364 PWs)   bands (ev):

    -1.9373   1.2142   2.7443   5.5361   5.7539   8.5278   8.7454  10.0457
    11.4642  11.7823  12.9325  13.0450  13.1494  14.5174

          k = 0.0833 0.2500 0.4167 (  3372 PWs)   bands (ev):

    -1.4484   0.3880   3.2212   4.8920   6.0177   7.7548   9.2094  10.4940
    10.8917  12.0103  12.1519  13.4715  13.8565  14.9750

          k = 0.0833 0.2500-0.5000 (  3368 PWs)   bands (ev):

    -1.1231  -0.0534   3.5811   4.4117   6.3322   7.3279   9.5465  10.4188
    10.8884  11.6281  12.3324  13.3936  13.8974  14.7228

          k = 0.0833 0.3333 0.3333 (  3366 PWs)   bands (ev):

    -1.5280   1.4198   1.9530   4.7426   5.9388   8.7112   9.1528   9.2987
    11.8787  11.9880  12.3093  13.1374  13.7479  15.0335

          k = 0.0833 0.3333 0.4167 (  3365 PWs)   bands (ev):

    -1.0495   0.7990   2.2440   3.8835   6.3967   8.1412   9.5212   9.6605
    11.1098  11.3147  12.6231  13.7745  14.2614  15.1934

          k = 0.0833 0.3333-0.5000 (  3370 PWs)   bands (ev):

    -0.7394   0.3843   2.6074   3.3868   6.6976   7.7425   9.8199  10.0599
    10.5864  10.9102  12.9504  13.7532  14.1461  15.0702

          k = 0.0833 0.4167 0.4167 (  3365 PWs)   bands (ev):

    -0.5931   1.1647   1.5863   3.0068   6.8337   8.4750   8.9494  10.0486
    10.2916  11.6798  12.0041  13.3949  15.4068  15.8816

          k = 0.0833 0.4167-0.5000 (  3370 PWs)   bands (ev):

    -0.3138   0.9385   1.8251   2.4766   7.1026   8.2765   9.1740   9.7247
    10.3788  11.4231  12.2515  12.9093  15.8582  16.5120

          k = 0.0833-0.5000-0.5000 (  3360 PWs)   bands (ev):

    -0.0716   1.4635   1.4635   1.8324   7.3317   8.8323   8.8323   9.0526
    10.6275  11.8991  11.8991  12.3265  17.0213  17.0213

          k = 0.1667 0.1667 0.1667 (  3380 PWs)   bands (ev):

    -2.7765   2.8208   3.5625   3.5625   8.4350   8.8454   9.4505   9.4505
     9.7696   9.7696  13.9165  13.9165  14.8998  15.0494

          k = 0.1667 0.1667 0.2500 (  3366 PWs)   bands (ev):

    -2.4717   2.0775   3.4719   3.8577   7.7175   8.3461   9.1586   9.5830
    10.0498  11.2307  13.3710  13.8386  14.0336  14.8035

          k = 0.1667 0.1667 0.3333 (  3360 PWs)   bands (ev):

    -2.0560   1.1089   3.8348   4.2608   6.7775   7.3566   9.5942   9.9596
    10.4308  12.4639  12.8600  13.0460  13.4386  14.9375

          k = 0.1667 0.1667 0.4167 (  3375 PWs)   bands (ev):

    -1.5646   0.2681   4.3195   4.7381   5.9456   6.5256  10.0859  10.4491
    10.8635  11.6942  12.0481  12.7379  14.8847  15.3145

          k = 0.1667 0.1667-0.5000 (  3378 PWs)   bands (ev):

    -1.2354  -0.1789   4.6860   5.0584   5.4630   6.0871  10.4241  10.8851
    11.1240  11.1603  11.5922  12.3796  15.5629  16.6368

          k = 0.1667 0.2500 0.2500 (  3364 PWs)   bands (ev):

    -2.1686   2.1496   2.7388   3.9846   6.8530   8.2143   8.6714   9.7434
    11.2108  11.7394  12.7607  13.8221  14.0149  15.2194

          k = 0.1667 0.2500 0.3333 (  3367 PWs)   bands (ev):

    -1.7558   1.3893   2.9117   4.3756   5.8901   7.4096   8.8664  10.1870
    11.7082  11.8562  13.0391  13.3638  14.2733  14.8934

          k = 0.1667 0.2500 0.4167 (  3375 PWs)   bands (ev):

    -1.2700   0.5711   3.3840   4.8473   5.0544   6.5937   9.3336  10.6461
    10.9725  12.1868  12.3867  13.9761  14.9395  15.1841

          k = 0.1667 0.2500-0.5000 (  3364 PWs)   bands (ev):

    -0.9490   0.1351   3.7418   4.5679   5.1838   6.1503   9.6969  10.4327
    11.0407  11.8801  12.5313  13.6489  15.2199  16.1175

          k = 0.1667 0.3333 0.3333 (  3365 PWs)   bands (ev):

    -1.3483   1.5915   2.1357   4.7522   4.9213   7.5865   8.0929  10.5711
    10.8478  13.1113  13.5658  13.7102  13.9561  15.8121

          k = 0.1667 0.3333 0.4167 (  3367 PWs)   bands (ev):

    -0.8731   0.9810   2.4207   4.0563   5.2330   6.9666   8.3818   9.9307
    11.1148  12.7659  13.8357  14.2188  15.3530  15.6989

          k = 0.1667 0.3333-0.5000 (  3370 PWs)   bands (ev):

    -0.5674   0.5721   2.7804   3.5641   5.5497   6.5457   8.7533   9.4310
    11.4216  12.3754  14.0698  14.6400  15.1074  15.3775

          k = 0.1667 0.4167 0.4167 (  3359 PWs)   bands (ev):

    -0.4204   1.3449   1.7698   3.1861   5.6824   7.3090   7.7406   9.0756
    11.5566  13.1413  13.4922  14.8341  15.6244  16.0525

          k = 0.1667 0.4167-0.5000 (  3356 PWs)   bands (ev):

    -0.1455   1.1250   2.0046   2.6599   5.9693   7.0772   7.9847   8.5409
    11.8310  12.9214  13.7197  14.3895  16.0406  16.6976

          k = 0.1667-0.5000-0.5000 (  3344 PWs)   bands (ev):

     0.0932   1.6473   1.6473   2.0194   6.2150   7.6224   7.6224   7.8764
    12.0658  13.3994  13.3994  13.8145  17.1958  17.1958

          k = 0.2500 0.2500 0.2500 (  3377 PWs)   bands (ev):

    -1.8673   2.2681   3.0379   3.0379   6.7207   7.5541   7.5541  10.8869
    11.6928  12.0149  12.0149  14.7407  14.7407  15.8711

          k = 0.2500 0.2500 0.3333 (  3365 PWs)   bands (ev):

    -1.4575   1.6656   3.0424   3.4469   5.9189   6.5544   7.7764  10.6522
    11.5562  12.3834  13.5566  14.3873  14.9643  15.7553

          k = 0.2500 0.2500 0.4167 (  3361 PWs)   bands (ev):

    -0.9776   0.8728   3.4909   3.9339   5.1049   5.7112   8.2432   9.8212
    12.0663  12.7968  13.6093  14.5815  15.4591  15.9280

          k = 0.2500 0.2500-0.5000 (  3380 PWs)   bands (ev):

    -0.6649   0.4482   3.8492   4.2669   4.6277   5.2593   8.6197   9.3238
    12.4257  13.0399  13.1789  14.2817  16.1577  17.1400

          k = 0.2500 0.3333 0.3333 (  3356 PWs)   bands (ev):

    -1.0533   1.8618   2.4374   3.6754   5.1566   6.5426   6.9690   9.6793
    12.2053  13.6249  14.1519  14.9162  15.1330  16.2782

          k = 0.2500 0.3333 0.4167 (  3357 PWs)   bands (ev):

    -0.5846   1.2803   2.7052   4.1433   4.3317   5.8762   7.2749   8.8272
    12.7018  14.1608  14.3767  15.4688  15.8089  16.1569

          k = 0.2500 0.3333-0.5000 (  3366 PWs)   bands (ev):

    -0.2873   0.8838   3.0569   3.8446   4.4766   5.4368   7.6565   8.3134
    13.0121  13.9328  14.4847  15.6068  15.9899  16.7742

          k = 0.2500 0.4167 0.4167 (  3360 PWs)   bands (ev):

    -0.1391   1.6410   2.0731   3.4793   4.5983   6.2094   6.6128   7.9613
    13.1613  14.6818  15.0143  15.8445  16.3716  16.5344

          k = 0.2500 0.4167-0.5000 (  3362 PWs)   bands (ev):

     0.1275   1.4344   2.2994   2.9621   4.8988   5.9512   6.8707   7.4181
    13.4269  14.5164  15.2094  15.9700  16.4036  17.0375

          k = 0.2500-0.5000-0.5000 (  3348 PWs)   bands (ev):

     0.3592   1.9511   1.9511   2.3305   5.1566   6.4934   6.4934   6.7526
    13.6509  14.9749  14.9749  15.4449  17.5051  17.5051

          k = 0.3333 0.3333 0.3333 (  3368 PWs)   bands (ev):

    -0.6551   2.1037   2.8506   2.8506   5.1589   5.9622   5.9622   8.6866
    13.4592  14.5003  14.5003  15.9504  15.9504  17.0254

          k = 0.3333 0.3333 0.4167 (  3356 PWs)   bands (ev):

    -0.1984   1.6832   2.9506   3.3450   4.4938   5.1099   6.2911   7.8250
    14.1156  14.8713  15.4946  16.3471  16.3683  17.0162

          k = 0.3333 0.3333-0.5000 (  3350 PWs)   bands (ev):

     0.0831   1.3170   3.2798   3.6888   4.0334   4.6466   6.6793   7.2977
    14.4550  15.0716  15.2657  16.3569  17.0584  17.8220

          k = 0.3333 0.4167 0.4167 (  3355 PWs)   bands (ev):

     0.2338   2.0399   2.4889   3.6512   3.8615   5.2491   5.6018   6.9524
    14.7873  15.8952  16.1678  16.6951  17.0655  17.7384

          k = 0.3333 0.4167-0.5000 (  3364 PWs)   bands (ev):

     0.4853   1.8633   2.6960   3.3693   3.9658   4.9489   5.8760   6.3988
    15.0624  16.0424  16.2526  17.3012  17.3723  17.7848

          k = 0.3333-0.5000-0.5000 (  3360 PWs)   bands (ev):

     0.7051   2.3677   2.3677   2.7641   4.2328   5.4809   5.4809   5.7289
    15.2864  16.4507  16.4507  17.1386  18.0427  18.0427

          k = 0.4167 0.4167 0.4167 (  3361 PWs)   bands (ev):

     0.6408   2.4427   2.9880   2.9880   4.0360   4.7438   4.7438   6.0720
    16.0686  16.6622  16.6622  17.8963  17.8963  18.5140

          k = 0.4167 0.4167-0.5000 (  3372 PWs)   bands (ev):

     0.8656   2.3995   3.0629   3.3390   3.6945   4.2729   5.0470   5.4981
    16.4697  16.8375  17.0623  18.4714  18.4826  18.8131

          k = 0.4167-0.5000-0.5000 (  3368 PWs)   bands (ev):

     1.0655   2.8684   2.8684   3.3161   3.5226   4.6210   4.6210   4.8203
    16.8293  17.3988  17.3988  18.7868  19.0791  19.0791

          k =-0.5000-0.5000-0.5000 (  3328 PWs)   bands (ev):

     1.2491   3.2220   3.2220   3.2220   3.8698   4.1475   4.1475   4.1475
    17.6860  17.6860  17.6860  19.4574  19.4574  19.9159

     the Fermi energy is     8.6533 ev

!    total energy              =     -26.50798899 Ry
     estimated scf accuracy    <          1.6E-11 Ry
     smearing contrib. (-TS)   =       0.00005475 Ry
     internal energy E=F+TS    =     -26.50804374 Ry

     The total energy is F=E-TS. E is the sum of the following terms:
     one-electron contribution =      13.11675418 Ry
     hartree contribution      =       0.24001488 Ry
     xc contribution           =     -13.95646405 Ry
     ewald contribution        =     -25.90834875 Ry

     convergence has been achieved in   8 iterations

     Forces acting on atoms (cartesian axes, Ry/au):

     atom    1 type  1   force =     0.00000000    0.00000000    0.00000000
     atom    2 type  2   force =     0.00000000    0.00000000    0.00000000
     atom    3 type  2   force =     0.00000000    0.00000000    0.00000000
     atom    4 type  2   force =     0.00000000    0.00000000    0.00000000

     Total force =     0.000000     Total SCF correction =     0.000000


     Computing stress (Cartesian axis) and pressure

          total   stress  (Ry/bohr**3)                   (kbar)     P=       -0.00
  -0.00000002   0.00000000   0.00000000           -0.00        0.00        0.00
   0.00000000  -0.00000002   0.00000000            0.00       -0.00        0.00
   0.00000000   0.00000000  -0.00000002            0.00        0.00       -0.00


     Writing all to output data dir ./tmp/al3si-l12.save/ :
     XML data file, charge density, pseudopotentials, collected wavefunctions

     init_run     :      2.44s CPU      2.58s WALL (       1 calls)
     electrons    :    154.65s CPU    160.22s WALL (       1 calls)
     forces       :      1.30s CPU      1.39s WALL (       1 calls)
     stress       :      5.46s CPU      5.70s WALL (       1 calls)

     Called by init_run:
     wfcinit      :      1.60s CPU      1.65s WALL (       1 calls)
     potinit      :      0.19s CPU      0.20s WALL (       1 calls)
     hinit0       :      0.38s CPU      0.39s WALL (       1 calls)

     Called by electrons:
     c_bands      :    146.42s CPU    150.64s WALL (       8 calls)
     sum_band     :      6.15s CPU      6.93s WALL (       8 calls)
     v_of_rho     :      0.32s CPU      0.34s WALL (       9 calls)
     newd         :      1.95s CPU      2.52s WALL (       9 calls)
     mix_rho      :      0.03s CPU      0.03s WALL (       8 calls)

     Called by c_bands:
     init_us_2    :      0.81s CPU      0.82s WALL (    1596 calls)
     ccgdiagg     :    137.05s CPU    141.01s WALL (     672 calls)
     wfcrot       :     10.40s CPU     10.70s WALL (     672 calls)

     Called by *cgdiagg:
     h_psi        :     81.75s CPU     84.83s WALL (   76760 calls)
     s_psi        :     33.00s CPU     33.64s WALL (  152848 calls)

     Called by h_psi:
     h_psi:calbec :     23.64s CPU     24.62s WALL (   76760 calls)
     vloc_psi     :     39.51s CPU     40.88s WALL (   76760 calls)
                                        0.00s GPU  (   76760 calls)
     add_vuspsi   :     18.01s CPU     18.73s WALL (   76760 calls)
     hs_1psi      :     91.35s CPU     94.54s WALL (   76088 calls)
     s_1psi       :     35.17s CPU     35.73s WALL (   76088 calls)

     General routines
     calbec       :     48.46s CPU     49.91s WALL (  154948 calls)
     fft          :      0.32s CPU      0.35s WALL (     140 calls)
     ffts         :      0.14s CPU      0.14s WALL (      17 calls)
     fftw         :     36.27s CPU     37.59s WALL (  180736 calls)
     interpolate  :      0.15s CPU      0.15s WALL (       9 calls)

     Parallel routines

     PWSCF        :   2m44.17s CPU   2m50.25s WALL


   This run was terminated on:  22:49:25  22Sep2026            

=------------------------------------------------------------------------------=
   JOB DONE.
=------------------------------------------------------------------------------=
