
     Program PWSCF v.7.5 starts on 22Sep2026 at 21:35:23 

     This program is part of the open-source Quantum ESPRESSO suite
     for quantum simulation of materials; please cite
         "P. Giannozzi et al., J. Phys.:Condens. Matter 21 395502 (2009);
         "P. Giannozzi et al., J. Phys.:Condens. Matter 29 465901 (2017);
         "P. Giannozzi et al., J. Chem. Phys. 152 154105 (2020);
          URL http://www.quantum-espresso.org", 
     in publications or presentations arising from this work. More details at
     http://www.quantum-espresso.org/quote

     Parallel version (MPI), running on     4 processors

     MPI processes distributed on     1 nodes
     7297 MiB available memory on the printing compute node when the environment starts

     Reading input from scf.in

     Current dimensions of program PWSCF are:
     Max number of different atomic species (ntypx) = 10
     Max number of k-points (npk) =  40000
     Max angular momentum in pseudopotentials (lmaxx) =  4

     R & G space division:  proc/nbgrp/npool/nimage =       4
     Subspace diagonalization in iterative solution of the eigenvalue problem:
     a serial algorithm will be used


     Parallelization info
     --------------------
     sticks:   dense  smooth     PW     G-vecs:    dense   smooth      PW
     Min         571     214     63                18093     4156     684
     Max         572     217     64                18095     4157     688
     Sum        2287     859    253                72377    16625    2741

     Using Slab Decomposition



     bravais-lattice index     =            2
     lattice parameter (alat)  =      10.2000  a.u.
     unit-cell volume          =     265.3020 (a.u.)^3
     number of atoms/cell      =            2
     number of atomic types    =            1
     number of electrons       =         8.00
     number of Kohn-Sham states=            4
     kinetic-energy cutoff     =      60.0000  Ry
     charge density cutoff     =     640.0000  Ry
     scf convergence threshold =      1.0E-10
     mixing beta               =       0.7000
     number of iterations used =            8  plain     mixing
     Exchange-correlation= PBE
                           (   1   4   3   4   0   0   0)

     celldm(1)=  10.200000  celldm(2)=   0.000000  celldm(3)=   0.000000
     celldm(4)=   0.000000  celldm(5)=   0.000000  celldm(6)=   0.000000

     crystal axes: (cart. coord. in units of alat)
               a(1) = (  -0.500000   0.000000   0.500000 )  
               a(2) = (   0.000000   0.500000   0.500000 )  
               a(3) = (  -0.500000   0.500000   0.000000 )  

     reciprocal axes: (cart. coord. in units 2 pi/alat)
               b(1) = ( -1.000000 -1.000000  1.000000 )  
               b(2) = (  1.000000  1.000000  1.000000 )  
               b(3) = ( -1.000000  1.000000 -1.000000 )  


     PseudoPot. # 1 for Si read from file:
     ../pseudo/Si.pbe-n-rrkjus_psl.1.0.0.UPF
     MD5 check sum: fa25574f73a70a4139f2adfbefec430c
     Pseudo is Ultrasoft + core correction, Zval =  4.0
     Generated using &quot;atomic&quot; code by A. Dal Corso  v.6.3
     Using radial grid of 1141 points,  6 beta functions with: 
                l(1) =   0
                l(2) =   0
                l(3) =   1
                l(4) =   1
                l(5) =   2
                l(6) =   2
     Q(r) pseudized with 0 coefficients 


     atomic species   valence    mass     pseudopotential
     Si                4.00    28.08500     Si( 1.00)

     48 Sym. Ops., with inversion, found (24 have fractional translation)



   Cartesian axes

     site n.     atom                  positions (alat units)
         1        Si     tau(   1) = (   0.0000000   0.0000000   0.0000000  )
         2        Si     tau(   2) = (   0.2500000   0.2500000   0.2500000  )

     number of k points=    72
                       cart. coord. in units 2pi/alat
        k(    1) = (   0.0000000   0.0000000   0.0000000), wk =   0.0011574
        k(    2) = (  -0.0833333   0.0833333  -0.0833333), wk =   0.0092593
        k(    3) = (  -0.1666667   0.1666667  -0.1666667), wk =   0.0092593
        k(    4) = (  -0.2500000   0.2500000  -0.2500000), wk =   0.0092593
        k(    5) = (  -0.3333333   0.3333333  -0.3333333), wk =   0.0092593
        k(    6) = (  -0.4166667   0.4166667  -0.4166667), wk =   0.0092593
        k(    7) = (   0.5000000  -0.5000000   0.5000000), wk =   0.0046296
        k(    8) = (   0.0000000   0.1666667   0.0000000), wk =   0.0069444
        k(    9) = (  -0.0833333   0.2500000  -0.0833333), wk =   0.0277778
        k(   10) = (  -0.1666667   0.3333333  -0.1666667), wk =   0.0277778
        k(   11) = (  -0.2500000   0.4166667  -0.2500000), wk =   0.0277778
        k(   12) = (  -0.3333333   0.5000000  -0.3333333), wk =   0.0277778
        k(   13) = (   0.5833333  -0.4166667   0.5833333), wk =   0.0277778
        k(   14) = (   0.5000000  -0.3333333   0.5000000), wk =   0.0277778
        k(   15) = (   0.4166667  -0.2500000   0.4166667), wk =   0.0277778
        k(   16) = (   0.3333333  -0.1666667   0.3333333), wk =   0.0277778
        k(   17) = (   0.2500000  -0.0833333   0.2500000), wk =   0.0277778
        k(   18) = (   0.1666667  -0.0000000   0.1666667), wk =   0.0138889
        k(   19) = (   0.0000000   0.3333333   0.0000000), wk =   0.0069444
        k(   20) = (  -0.0833333   0.4166667  -0.0833333), wk =   0.0277778
        k(   21) = (  -0.1666667   0.5000000  -0.1666667), wk =   0.0277778
        k(   22) = (  -0.2500000   0.5833333  -0.2500000), wk =   0.0277778
        k(   23) = (   0.6666667  -0.3333333   0.6666667), wk =   0.0277778
        k(   24) = (   0.5833333  -0.2500000   0.5833333), wk =   0.0277778
        k(   25) = (   0.5000000  -0.1666667   0.5000000), wk =   0.0277778
        k(   26) = (   0.4166667  -0.0833333   0.4166667), wk =   0.0277778
        k(   27) = (   0.3333333   0.0000000   0.3333333), wk =   0.0138889
        k(   28) = (   0.0000000   0.5000000   0.0000000), wk =   0.0069444
        k(   29) = (  -0.0833333   0.5833333  -0.0833333), wk =   0.0277778
        k(   30) = (  -0.1666667   0.6666667  -0.1666667), wk =   0.0277778
        k(   31) = (   0.7500000  -0.2500000   0.7500000), wk =   0.0277778
        k(   32) = (   0.6666667  -0.1666667   0.6666667), wk =   0.0277778
        k(   33) = (   0.5833333  -0.0833333   0.5833333), wk =   0.0277778
        k(   34) = (   0.5000000   0.0000000   0.5000000), wk =   0.0138889
        k(   35) = (   0.0000000   0.6666667   0.0000000), wk =   0.0069444
        k(   36) = (  -0.0833333   0.7500000  -0.0833333), wk =   0.0277778
        k(   37) = (   0.8333333  -0.1666667   0.8333333), wk =   0.0277778
        k(   38) = (   0.7500000  -0.0833333   0.7500000), wk =   0.0277778
        k(   39) = (   0.6666667  -0.0000000   0.6666667), wk =   0.0138889
        k(   40) = (   0.0000000   0.8333333   0.0000000), wk =   0.0069444
        k(   41) = (   0.9166667  -0.0833333   0.9166667), wk =   0.0277778
        k(   42) = (   0.8333333   0.0000000   0.8333333), wk =   0.0138889
        k(   43) = (   0.0000000  -1.0000000   0.0000000), wk =   0.0034722
        k(   44) = (  -0.1666667   0.3333333   0.0000000), wk =   0.0277778
        k(   45) = (  -0.2500000   0.4166667  -0.0833333), wk =   0.0555556
        k(   46) = (  -0.3333333   0.5000000  -0.1666667), wk =   0.0555556
        k(   47) = (   0.5833333  -0.4166667   0.7500000), wk =   0.0555556
        k(   48) = (   0.5000000  -0.3333333   0.6666667), wk =   0.0277778
        k(   49) = (  -0.1666667   0.5000000   0.0000000), wk =   0.0277778
        k(   50) = (  -0.2500000   0.5833333  -0.0833333), wk =   0.0555556
        k(   51) = (   0.6666667  -0.3333333   0.8333333), wk =   0.0555556
        k(   52) = (   0.5833333  -0.2500000   0.7500000), wk =   0.0555556
        k(   53) = (   0.5000000  -0.1666667   0.6666667), wk =   0.0555556
        k(   54) = (   0.4166667  -0.0833333   0.5833333), wk =   0.0555556
        k(   55) = (   0.3333333   0.0000000   0.5000000), wk =   0.0277778
        k(   56) = (  -0.1666667   0.6666667  -0.0000000), wk =   0.0277778
        k(   57) = (   0.7500000  -0.2500000   0.9166667), wk =   0.0555556
        k(   58) = (   0.6666667  -0.1666667   0.8333333), wk =   0.0555556
        k(   59) = (   0.5833333  -0.0833333   0.7500000), wk =   0.0555556
        k(   60) = (   0.5000000   0.0000000   0.6666667), wk =   0.0277778
        k(   61) = (   0.8333333  -0.1666667   1.0000000), wk =   0.0277778
        k(   62) = (   0.7500000  -0.0833333   0.9166667), wk =   0.0555556
        k(   63) = (   0.6666667   0.0000000   0.8333333), wk =   0.0277778
        k(   64) = (  -0.1666667  -1.0000000  -0.0000000), wk =   0.0138889
        k(   65) = (   0.6666667  -0.3333333   1.0000000), wk =   0.0277778
        k(   66) = (   0.5833333  -0.2500000   0.9166667), wk =   0.0555556
        k(   67) = (   0.5000000  -0.1666667   0.8333333), wk =   0.0277778
        k(   68) = (   0.6666667  -0.1666667   1.0000000), wk =   0.0277778
        k(   69) = (   0.5833333  -0.0833333   0.9166667), wk =   0.0555556
        k(   70) = (   0.5000000   0.0000000   0.8333333), wk =   0.0277778
        k(   71) = (  -0.3333333  -1.0000000   0.0000000), wk =   0.0138889
        k(   72) = (  -0.5000000  -1.0000000   0.0000000), wk =   0.0069444

     Dense  grid:    72377 G-vectors     FFT dimensions: (  60,  60,  60)

     Smooth grid:    16625 G-vectors     FFT dimensions: (  36,  36,  36)

     Estimated max dynamical RAM per process >      71.25 MB

     Estimated total dynamical RAM >     285.02 MB

     Initial potential from superposition of free atoms

     starting charge       7.9989, renormalised to       8.0000
     Starting wfcs are    8 randomized atomic wfcs

     total cpu time spent up to now is       20.7 secs

     per-process dynamical memory:    25.6 Mb

     Self-consistent Calculation

     iteration #  1     ecut=    60.00 Ry     beta= 0.70
     Davidson diagonalization with overlap
     ethr =  1.00E-02,  avg # of iterations =  2.0

     Threshold (ethr) on eigenvalues was too large:
     Diagonalizing with lowered threshold

     Davidson diagonalization with overlap
     ethr =  6.39E-04,  avg # of iterations =  1.4

     total cpu time spent up to now is       79.3 secs

     total energy              =     -22.83603495 Ry
     estimated scf accuracy    <       0.05532787 Ry

     iteration #  2     ecut=    60.00 Ry     beta= 0.70
     Davidson diagonalization with overlap
     ethr =  6.92E-04,  avg # of iterations =  1.0

     total cpu time spent up to now is       80.1 secs

     total energy              =     -22.83794288 Ry
     estimated scf accuracy    <       0.00286990 Ry

     iteration #  3     ecut=    60.00 Ry     beta= 0.70
     Davidson diagonalization with overlap
     ethr =  3.59E-05,  avg # of iterations =  2.9

     total cpu time spent up to now is       81.2 secs

     total energy              =     -22.83879395 Ry
     estimated scf accuracy    <       0.00011653 Ry

     iteration #  4     ecut=    60.00 Ry     beta= 0.70
     Davidson diagonalization with overlap
     ethr =  1.46E-06,  avg # of iterations =  4.0

     total cpu time spent up to now is       82.3 secs

     total energy              =     -22.83886413 Ry
     estimated scf accuracy    <       0.00001799 Ry

     iteration #  5     ecut=    60.00 Ry     beta= 0.70
     Davidson diagonalization with overlap
     ethr =  2.25E-07,  avg # of iterations =  3.2

     total cpu time spent up to now is       83.4 secs

     total energy              =     -22.83887024 Ry
     estimated scf accuracy    <       0.00000039 Ry

     iteration #  6     ecut=    60.00 Ry     beta= 0.70
     Davidson diagonalization with overlap
     ethr =  4.84E-09,  avg # of iterations =  5.3

     total cpu time spent up to now is       84.6 secs

     total energy              =     -22.83887069 Ry
     estimated scf accuracy    <       0.00000016 Ry

     iteration #  7     ecut=    60.00 Ry     beta= 0.70
     Davidson diagonalization with overlap
     ethr =  2.04E-09,  avg # of iterations =  2.2

     total cpu time spent up to now is       85.6 secs

     total energy              =     -22.83887072 Ry
     estimated scf accuracy    <          9.4E-09 Ry

     iteration #  8     ecut=    60.00 Ry     beta= 0.70
     Davidson diagonalization with overlap
     ethr =  1.17E-10,  avg # of iterations =  3.6

     total cpu time spent up to now is       86.5 secs

     total energy              =     -22.83887072 Ry
     estimated scf accuracy    <          3.0E-10 Ry

     iteration #  9     ecut=    60.00 Ry     beta= 0.70
     Davidson diagonalization with overlap
     ethr =  3.80E-12,  avg # of iterations =  4.5

     total cpu time spent up to now is       87.6 secs

     End of self-consistent calculation

          k = 0.0000 0.0000 0.0000 (  2085 PWs)   bands (ev):

    -5.6938   6.3954   6.3954   6.3954

          k =-0.0833 0.0833-0.0833 (  2079 PWs)   bands (ev):

    -5.6014   5.5350   6.2486   6.2486

          k =-0.1667 0.1667-0.1667 (  2088 PWs)   bands (ev):

    -5.3269   3.9983   5.9366   5.9366

          k =-0.2500 0.2500-0.2500 (  2067 PWs)   bands (ev):

    -4.8812   2.4322   5.6230   5.6230

          k =-0.3333 0.3333-0.3333 (  2090 PWs)   bands (ev):

    -4.2938   1.0041   5.3795   5.3795

          k =-0.4167 0.4167-0.4167 (  2078 PWs)   bands (ev):

    -3.6599  -0.1459   5.2297   5.2297

          k = 0.5000-0.5000 0.5000 (  2060 PWs)   bands (ev):

    -3.3163  -0.6632   5.1794   5.1794

          k = 0.0000 0.1667 0.0000 (  2081 PWs)   bands (ev):

    -5.5704   5.7145   5.9551   5.9551

          k =-0.0833 0.2500-0.0833 (  2076 PWs)   bands (ev):

    -5.3562   4.4630   5.5845   5.7868

          k =-0.1667 0.3333-0.1667 (  2066 PWs)   bands (ev):

    -4.9660   2.9403   5.2669   5.4597

          k =-0.2500 0.4167-0.2500 (  2077 PWs)   bands (ev):

    -4.4208   1.4822   5.0548   5.1019

          k =-0.3333 0.5000-0.3333 (  2076 PWs)   bands (ev):

    -3.7827   0.2309   4.8012   4.9650

          k = 0.5833-0.4167 0.5833 (  2079 PWs)   bands (ev):

    -3.2791  -0.5557   4.5922   4.9977

          k = 0.5000-0.3333 0.5000 (  2078 PWs)   bands (ev):

    -3.4035  -0.3737   4.4938   5.1440

          k = 0.4167-0.2500 0.4167 (  2076 PWs)   bands (ev):

    -3.9991   0.6180   4.5193   5.3880

          k = 0.3333-0.1667 0.3333 (  2069 PWs)   bands (ev):

    -4.6185   1.9539   4.6788   5.7033

          k = 0.2500-0.0833 0.2500 (  2073 PWs)   bands (ev):

    -5.1155   3.4346   4.9842   6.0380

          k = 0.1667-0.0000 0.1667 (  2077 PWs)   bands (ev):

    -5.4481   4.8050   5.5121   6.2769

          k = 0.0000 0.3333 0.0000 (  2061 PWs)   bands (ev):

    -5.2022   4.3710   5.1780   5.1780

          k =-0.0833 0.4167-0.0833 (  2064 PWs)   bands (ev):

    -4.8698   3.2640   4.8317   4.8383

          k =-0.1667 0.5000-0.1667 (  2078 PWs)   bands (ev):

    -4.3735   1.9293   4.3754   4.6170

          k =-0.2500 0.5833-0.2500 (  2086 PWs)   bands (ev):

    -3.7544   0.6718   3.9305   4.5327

          k = 0.6667-0.3333 0.6667 (  2078 PWs)   bands (ev):

    -3.1572  -0.2823   3.5802   4.5884

          k = 0.5833-0.2500 0.5833 (  2082 PWs)   bands (ev):

    -3.0393  -0.4465   3.3611   4.7764

          k = 0.5000-0.1667 0.5000 (  2082 PWs)   bands (ev):

    -3.5512   0.3298   3.3004   5.0773

          k = 0.4167-0.0833 0.4167 (  2079 PWs)   bands (ev):

    -4.1880   1.4992   3.4418   5.4525

          k = 0.3333 0.0000 0.3333 (  2083 PWs)   bands (ev):

    -4.7292   2.6601   3.9353   5.8235

          k = 0.0000 0.5000 0.0000 (  2045 PWs)   bands (ev):

    -4.5950   2.8795   4.4698   4.4698

          k =-0.0833 0.5833-0.0833 (  2076 PWs)   bands (ev):

    -4.1513   1.9549   3.9971   4.2198

          k =-0.1667 0.6667-0.1667 (  2078 PWs)   bands (ev):

    -3.5658   0.9066   3.3549   4.1115

          k = 0.7500-0.2500 0.7500 (  2081 PWs)   bands (ev):

    -2.9287  -0.0396   2.7999   4.1515

          k = 0.6667-0.1667 0.6667 (  2080 PWs)   bands (ev):

    -2.5955  -0.4657   2.4301   4.3351

          k = 0.5833-0.0833 0.5833 (  2081 PWs)   bands (ev):

    -2.9806   0.0406   2.3053   4.6458

          k = 0.5000 0.0000 0.5000 (  2085 PWs)   bands (ev):

    -3.6155   0.8791   2.5709   5.0457

          k = 0.0000 0.6667 0.0000 (  2080 PWs)   bands (ev):

    -3.7596   1.3664   3.9342   3.9342

          k =-0.0833 0.7500-0.0833 (  2086 PWs)   bands (ev):

    -3.2160   0.5688   3.4371   3.7896

          k = 0.8333-0.1667 0.8333 (  2092 PWs)   bands (ev):

    -2.5750  -0.2121   2.6922   3.7962

          k = 0.7500-0.0833 0.7500 (  2090 PWs)   bands (ev):

    -2.0936  -0.7146   2.1004   3.9529

          k = 0.6667-0.0000 0.6667 (  2079 PWs)   bands (ev):

    -2.3706  -0.4252   1.8944   4.2467

          k = 0.0000 0.8333 0.0000 (  2100 PWs)   bands (ev):

    -2.7136  -0.1067   3.6043   3.6043

          k = 0.9167-0.0833 0.9167 (  2082 PWs)   bands (ev):

    -2.0894  -0.8052   3.1612   3.5703

          k = 0.8333 0.0000 0.8333 (  2089 PWs)   bands (ev):

    -1.6215  -1.2177   2.4729   3.6895

          k = 0.0000-1.0000 0.0000 (  2100 PWs)   bands (ev):

    -1.4833  -1.4833   3.4932   3.4932

          k =-0.1667 0.3333 0.0000 (  2074 PWs)   bands (ev):

    -5.0832   3.6624   4.7278   5.6809

          k =-0.2500 0.4167-0.0833 (  2076 PWs)   bands (ev):

    -4.6396   2.4018   4.1912   5.4003

          k =-0.3333 0.5000-0.1667 (  2084 PWs)   bands (ev):

    -4.0540   1.0769   3.9230   5.0657

          k = 0.5833-0.4167 0.7500 (  2080 PWs)   bands (ev):

    -3.4190  -0.0342   3.7975   4.8131

          k = 0.5000-0.3333 0.6667 (  2072 PWs)   bands (ev):

    -3.0711  -0.5445   3.7630   4.7190

          k =-0.1667 0.5000 0.0000 (  2067 PWs)   bands (ev):

    -4.4825   2.4643   4.0207   4.7413

          k =-0.2500 0.5833-0.0833 (  2080 PWs)   bands (ev):

    -3.9407   1.3958   3.4779   4.4453

          k = 0.6667-0.3333 0.8333 (  2083 PWs)   bands (ev):

    -3.3030   0.3193   3.1204   4.2289

          k = 0.5833-0.2500 0.7500 (  2079 PWs)   bands (ev):

    -2.7935  -0.4046   2.8720   4.2103

          k = 0.5000-0.1667 0.6667 (  2080 PWs)   bands (ev):

    -2.9327  -0.2127   2.7495   4.3871

          k = 0.4167-0.0833 0.5833 (  2079 PWs)   bands (ev):

    -3.5363   0.6847   2.8195   4.7113

          k = 0.3333 0.0000 0.5000 (  2072 PWs)   bands (ev):

    -4.1502   1.6817   3.2373   5.1020

          k =-0.1667 0.6667-0.0000 (  2077 PWs)   bands (ev):

    -3.6589   1.1873   3.5027   3.9384

          k = 0.7500-0.2500 0.9167 (  2084 PWs)   bands (ev):

    -3.0422   0.3385   2.9033   3.7161

          k = 0.6667-0.1667 0.8333 (  2087 PWs)   bands (ev):

    -2.4396  -0.3917   2.3720   3.7247

          k = 0.5833-0.0833 0.7500 (  2090 PWs)   bands (ev):

    -2.3653  -0.4658   2.0764   3.9276

          k = 0.5000 0.0000 0.6667 (  2093 PWs)   bands (ev):

    -2.9148   0.1358   2.1639   4.2800

          k = 0.8333-0.1667 1.0000 (  2090 PWs)   bands (ev):

    -2.6341  -0.1427   3.2140   3.4128

          k = 0.7500-0.0833 0.9167 (  2092 PWs)   bands (ev):

    -1.9927  -0.7955   2.5686   3.3686

          k = 0.6667 0.0000 0.8333 (  2099 PWs)   bands (ev):

    -1.8306  -0.9138   2.0583   3.5696

          k =-0.1667-1.0000-0.0000 (  2086 PWs)   bands (ev):

    -1.4434  -1.4434   3.1774   3.1774

          k = 0.6667-0.3333 1.0000 (  2092 PWs)   bands (ev):

    -3.3664   0.7198   2.7577   4.0562

          k = 0.5833-0.2500 0.9167 (  2083 PWs)   bands (ev):

    -2.7295  -0.0640   2.4059   3.7108

          k = 0.5000-0.1667 0.8333 (  2088 PWs)   bands (ev):

    -2.3599  -0.5042   2.3131   3.5782

          k = 0.6667-0.1667 1.0000 (  2086 PWs)   bands (ev):

    -2.4143  -0.2881   2.5537   3.1817

          k = 0.5833-0.0833 0.9167 (  2098 PWs)   bands (ev):

    -1.8794  -0.8033   2.2294   3.0245

          k = 0.5000 0.0000 0.8333 (  2098 PWs)   bands (ev):

    -2.1147  -0.5708   2.1021   3.2546

          k =-0.3333-1.0000 0.0000 (  2090 PWs)   bands (ev):

    -1.3575  -1.3575   2.6775   2.6775

          k =-0.5000-1.0000 0.0000 (  2120 PWs)   bands (ev):

    -1.3111  -1.3111   2.4636   2.4636

     highest occupied level (ev):     6.3954

!    total energy              =     -22.83887072 Ry
     estimated scf accuracy    <          7.5E-12 Ry

     The total energy is the sum of the following terms:
     one-electron contribution =       5.30800727 Ry
     hartree contribution      =       1.08430336 Ry
     xc contribution           =     -12.33142279 Ry
     ewald contribution        =     -16.89975857 Ry

     convergence has been achieved in   9 iterations

     Forces acting on atoms (cartesian axes, Ry/au):

     atom    1 type  1   force =     0.00000000    0.00000000    0.00000000
     atom    2 type  1   force =     0.00000000    0.00000000    0.00000000

     Total force =     0.000000     Total SCF correction =     0.000000


     Computing stress (Cartesian axis) and pressure

          total   stress  (Ry/bohr**3)                   (kbar)     P=       38.34
   0.00026065   0.00000000   0.00000000           38.34        0.00        0.00
   0.00000000   0.00026065  -0.00000000            0.00       38.34       -0.00
   0.00000000   0.00000000   0.00026065            0.00        0.00       38.34


     Writing all to output data dir ./tmp/si.save/ :
     XML data file, charge density, pseudopotentials, collected wavefunctions

     init_run     :      5.81s CPU     19.56s WALL (       1 calls)
     electrons    :     28.42s CPU     66.91s WALL (       1 calls)
     forces       :      0.24s CPU      0.26s WALL (       1 calls)
     stress       :      1.22s CPU      1.28s WALL (       1 calls)

     Called by init_run:
     wfcinit      :      4.76s CPU     15.68s WALL (       1 calls)
     potinit      :      0.23s CPU      0.84s WALL (       1 calls)
     hinit0       :      0.42s CPU      1.49s WALL (       1 calls)

     Called by electrons:
     c_bands      :     23.94s CPU     58.18s WALL (      10 calls)
     sum_band     :      3.44s CPU      7.40s WALL (      10 calls)
     v_of_rho     :      0.33s CPU      0.54s WALL (      10 calls)
     newd         :      0.78s CPU      1.28s WALL (      10 calls)
     mix_rho      :      0.03s CPU      0.04s WALL (      10 calls)

     Called by c_bands:
     init_us_2    :      0.29s CPU      0.32s WALL (    1656 calls)
     cegterg      :     22.38s CPU     54.77s WALL (     720 calls)

     Called by *egterg:
     cdiaghg      :      0.65s CPU      1.74s WALL (    2811 calls)
     h_psi        :     18.35s CPU     47.14s WALL (    2955 calls)
     s_psi        :      0.49s CPU      0.53s WALL (    2955 calls)
     g_psi        :      0.02s CPU      0.02s WALL (    2163 calls)

     Called by h_psi:
     h_psi:calbec :      3.69s CPU      9.90s WALL (    2955 calls)
     vloc_psi     :     14.14s CPU     36.62s WALL (    2955 calls)
                                        0.00s GPU  (    2955 calls)
     add_vuspsi   :      0.49s CPU      0.60s WALL (    2955 calls)

     General routines
     calbec       :      4.93s CPU     12.50s WALL (    4899 calls)
     fft          :      0.40s CPU      1.02s WALL (     154 calls)
     ffts         :      0.13s CPU      0.47s WALL (      20 calls)
     fftw         :     15.31s CPU     39.80s WALL (   22428 calls)
     interpolate  :      0.14s CPU      0.47s WALL (      10 calls)

     Parallel routines

     PWSCF        :     36.04s CPU   1m29.22s WALL


   This run was terminated on:  21:36:53  22Sep2026            

=------------------------------------------------------------------------------=
   JOB DONE.
=------------------------------------------------------------------------------=
