
     Program PWSCF v.7.5 starts on 22Sep2026 at 21:39:44 

     This program is part of the open-source Quantum ESPRESSO suite
     for quantum simulation of materials; please cite
         "P. Giannozzi et al., J. Phys.:Condens. Matter 21 395502 (2009);
         "P. Giannozzi et al., J. Phys.:Condens. Matter 29 465901 (2017);
         "P. Giannozzi et al., J. Chem. Phys. 152 154105 (2020);
          URL http://www.quantum-espresso.org", 
     in publications or presentations arising from this work. More details at
     http://www.quantum-espresso.org/quote

     Parallel version (MPI), running on     4 processors

     MPI processes distributed on     1 nodes
     8082 MiB available memory on the printing compute node when the environment starts

     Reading input from scf.in

     Current dimensions of program PWSCF are:
     Max number of different atomic species (ntypx) = 10
     Max number of k-points (npk) =  40000
     Max angular momentum in pseudopotentials (lmaxx) =  4

     R & G space division:  proc/nbgrp/npool/nimage =       4
     Subspace diagonalization in iterative solution of the eigenvalue problem:
     a serial algorithm will be used


     Parallelization info
     --------------------
     sticks:   dense  smooth     PW     G-vecs:    dense   smooth      PW
     Min         571     214     63                18093     4156     684
     Max         572     217     64                18095     4157     688
     Sum        2287     859    253                72377    16625    2741

     Using Slab Decomposition



     bravais-lattice index     =            2
     lattice parameter (alat)  =      10.2000  a.u.
     unit-cell volume          =     265.3020 (a.u.)^3
     number of atoms/cell      =            2
     number of atomic types    =            1
     number of electrons       =         8.00
     number of Kohn-Sham states=            4
     kinetic-energy cutoff     =      60.0000  Ry
     charge density cutoff     =     640.0000  Ry
     scf convergence threshold =      1.0E-10
     mixing beta               =       0.7000
     number of iterations used =            8  plain     mixing
     Exchange-correlation= PBE
                           (   1   4   3   4   0   0   0)

     celldm(1)=  10.200000  celldm(2)=   0.000000  celldm(3)=   0.000000
     celldm(4)=   0.000000  celldm(5)=   0.000000  celldm(6)=   0.000000

     crystal axes: (cart. coord. in units of alat)
               a(1) = (  -0.500000   0.000000   0.500000 )  
               a(2) = (   0.000000   0.500000   0.500000 )  
               a(3) = (  -0.500000   0.500000   0.000000 )  

     reciprocal axes: (cart. coord. in units 2 pi/alat)
               b(1) = ( -1.000000 -1.000000  1.000000 )  
               b(2) = (  1.000000  1.000000  1.000000 )  
               b(3) = ( -1.000000  1.000000 -1.000000 )  


     PseudoPot. # 1 for Si read from file:
     ../pseudo/Si.pbe-n-rrkjus_psl.1.0.0.UPF
     MD5 check sum: fa25574f73a70a4139f2adfbefec430c
     Pseudo is Ultrasoft + core correction, Zval =  4.0
     Generated using &quot;atomic&quot; code by A. Dal Corso  v.6.3
     Using radial grid of 1141 points,  6 beta functions with: 
                l(1) =   0
                l(2) =   0
                l(3) =   1
                l(4) =   1
                l(5) =   2
                l(6) =   2
     Q(r) pseudized with 0 coefficients 


     atomic species   valence    mass     pseudopotential
     Si                4.00    28.08500     Si( 1.00)

     48 Sym. Ops., with inversion, found (24 have fractional translation)



   Cartesian axes

     site n.     atom                  positions (alat units)
         1        Si     tau(   1) = (   0.0000000   0.0000000   0.0000000  )
         2        Si     tau(   2) = (   0.2500000   0.2500000   0.2500000  )

     number of k points=   104

     Number of k-points >= 100: set verbosity='high' to print them.

     Dense  grid:    72377 G-vectors     FFT dimensions: (  60,  60,  60)

     Smooth grid:    16625 G-vectors     FFT dimensions: (  36,  36,  36)

     Estimated max dynamical RAM per process >      72.27 MB

     Estimated total dynamical RAM >     289.08 MB

     Initial potential from superposition of free atoms

     starting charge       7.9989, renormalised to       8.0000
     Starting wfcs are    8 randomized atomic wfcs

     total cpu time spent up to now is        1.5 secs

     per-process dynamical memory:    25.7 Mb

     Self-consistent Calculation

     iteration #  1     ecut=    60.00 Ry     beta= 0.70
     Davidson diagonalization with overlap
     ethr =  1.00E-02,  avg # of iterations =  2.0

     Threshold (ethr) on eigenvalues was too large:
     Diagonalizing with lowered threshold

     Davidson diagonalization with overlap
     ethr =  6.39E-04,  avg # of iterations =  1.3

     total cpu time spent up to now is        3.6 secs

     total energy              =     -22.83603461 Ry
     estimated scf accuracy    <       0.05526985 Ry

     iteration #  2     ecut=    60.00 Ry     beta= 0.70
     Davidson diagonalization with overlap
     ethr =  6.91E-04,  avg # of iterations =  1.0

     total cpu time spent up to now is        4.6 secs

     total energy              =     -22.83795601 Ry
     estimated scf accuracy    <       0.00286309 Ry

     iteration #  3     ecut=    60.00 Ry     beta= 0.70
     Davidson diagonalization with overlap
     ethr =  3.58E-05,  avg # of iterations =  2.9

     total cpu time spent up to now is        5.9 secs

     total energy              =     -22.83880228 Ry
     estimated scf accuracy    <       0.00011480 Ry

     iteration #  4     ecut=    60.00 Ry     beta= 0.70
     Davidson diagonalization with overlap
     ethr =  1.43E-06,  avg # of iterations =  3.9

     total cpu time spent up to now is        7.4 secs

     total energy              =     -22.83887219 Ry
     estimated scf accuracy    <       0.00001754 Ry

     iteration #  5     ecut=    60.00 Ry     beta= 0.70
     Davidson diagonalization with overlap
     ethr =  2.19E-07,  avg # of iterations =  3.2

     total cpu time spent up to now is        8.7 secs

     total energy              =     -22.83887881 Ry
     estimated scf accuracy    <       0.00000039 Ry

     iteration #  6     ecut=    60.00 Ry     beta= 0.70
     Davidson diagonalization with overlap
     ethr =  4.84E-09,  avg # of iterations =  5.4

     total cpu time spent up to now is       10.5 secs

     total energy              =     -22.83887932 Ry
     estimated scf accuracy    <       0.00000015 Ry

     iteration #  7     ecut=    60.00 Ry     beta= 0.70
     Davidson diagonalization with overlap
     ethr =  1.88E-09,  avg # of iterations =  2.2

     total cpu time spent up to now is       11.8 secs

     total energy              =     -22.83887934 Ry
     estimated scf accuracy    <          6.3E-09 Ry

     iteration #  8     ecut=    60.00 Ry     beta= 0.70
     Davidson diagonalization with overlap
     ethr =  7.82E-11,  avg # of iterations =  4.0

     total cpu time spent up to now is       13.2 secs

     total energy              =     -22.83887935 Ry
     estimated scf accuracy    <          1.6E-10 Ry

     iteration #  9     ecut=    60.00 Ry     beta= 0.70
     Davidson diagonalization with overlap
     ethr =  2.05E-12,  avg # of iterations =  4.8

     total cpu time spent up to now is       14.8 secs

     End of self-consistent calculation

     Number of k-points >= 100: set verbosity='high' to print the bands.

     highest occupied level (ev):     6.3953

!    total energy              =     -22.83887935 Ry
     estimated scf accuracy    <          5.4E-12 Ry

     The total energy is the sum of the following terms:
     one-electron contribution =       5.30801985 Ry
     hartree contribution      =       1.08426239 Ry
     xc contribution           =     -12.33140301 Ry
     ewald contribution        =     -16.89975857 Ry

     convergence has been achieved in   9 iterations

     Forces acting on atoms (cartesian axes, Ry/au):

     atom    1 type  1   force =     0.00000000    0.00000000    0.00000000
     atom    2 type  1   force =     0.00000000    0.00000000    0.00000000

     Total force =     0.000000     Total SCF correction =     0.000000


     Computing stress (Cartesian axis) and pressure

          total   stress  (Ry/bohr**3)                   (kbar)     P=       38.34
   0.00026065   0.00000000   0.00000000           38.34        0.00        0.00
   0.00000000   0.00026065  -0.00000000            0.00       38.34       -0.00
   0.00000000  -0.00000000   0.00026065            0.00       -0.00       38.34


     Writing all to output data dir ./tmp/si.save/ :
     XML data file, charge density, pseudopotentials, collected wavefunctions

     init_run     :      1.28s CPU      1.35s WALL (       1 calls)
     electrons    :     12.39s CPU     13.37s WALL (       1 calls)
     forces       :      0.31s CPU      0.32s WALL (       1 calls)
     stress       :      1.44s CPU      1.51s WALL (       1 calls)

     Called by init_run:
     wfcinit      :      0.51s CPU      0.54s WALL (       1 calls)
     potinit      :      0.16s CPU      0.17s WALL (       1 calls)
     hinit0       :      0.31s CPU      0.31s WALL (       1 calls)

     Called by electrons:
     c_bands      :      9.38s CPU      9.83s WALL (      10 calls)
     sum_band     :      2.06s CPU      2.36s WALL (      10 calls)
     v_of_rho     :      0.28s CPU      0.31s WALL (      10 calls)
     newd         :      0.72s CPU      0.93s WALL (      10 calls)
     mix_rho      :      0.03s CPU      0.03s WALL (      10 calls)

     Called by c_bands:
     init_us_2    :      0.52s CPU      0.54s WALL (    2392 calls)
     cegterg      :      8.33s CPU      8.75s WALL (    1040 calls)

     Called by *egterg:
     cdiaghg      :      0.16s CPU      0.16s WALL (    4144 calls)
     h_psi        :      6.61s CPU      7.01s WALL (    4352 calls)
     s_psi        :      0.93s CPU      0.95s WALL (    4352 calls)
     g_psi        :      0.03s CPU      0.03s WALL (    3208 calls)

     Called by h_psi:
     h_psi:calbec :      0.92s CPU      0.99s WALL (    4352 calls)
     vloc_psi     :      4.71s CPU      5.00s WALL (    4352 calls)
                                        0.00s GPU  (    4352 calls)
     add_vuspsi   :      0.94s CPU      0.98s WALL (    4352 calls)

     General routines
     calbec       :      1.65s CPU      1.73s WALL (    7160 calls)
     fft          :      0.35s CPU      0.38s WALL (     154 calls)
     ffts         :      0.12s CPU      0.12s WALL (      20 calls)
     fftw         :      4.82s CPU      5.10s WALL (   32882 calls)
     interpolate  :      0.13s CPU      0.14s WALL (      10 calls)

     Parallel routines

     PWSCF        :     15.59s CPU     16.73s WALL


   This run was terminated on:  21:40: 1  22Sep2026            

=------------------------------------------------------------------------------=
   JOB DONE.
=------------------------------------------------------------------------------=
