
     Program PWSCF v.7.5 starts on 23Sep2026 at  0: 1:45 

     This program is part of the open-source Quantum ESPRESSO suite
     for quantum simulation of materials; please cite
         "P. Giannozzi et al., J. Phys.:Condens. Matter 21 395502 (2009);
         "P. Giannozzi et al., J. Phys.:Condens. Matter 29 465901 (2017);
         "P. Giannozzi et al., J. Chem. Phys. 152 154105 (2020);
          URL http://www.quantum-espresso.org", 
     in publications or presentations arising from this work. More details at
     http://www.quantum-espresso.org/quote

     Parallel version (MPI), running on     4 processors

     MPI processes distributed on     1 nodes
     2812 MiB available memory on the printing compute node when the environment starts

     Reading input from scf.in

     Current dimensions of program PWSCF are:
     Max number of different atomic species (ntypx) = 10
     Max number of k-points (npk) =  40000
     Max angular momentum in pseudopotentials (lmaxx) =  4
     Message from routine setup:
     using ibrav=0 with symmetry is DISCOURAGED, use correct ibrav instead

     R & G space division:  proc/nbgrp/npool/nimage =       4
     Subspace diagonalization in iterative solution of the eigenvalue problem:
     a serial algorithm will be used


     Parallelization info
     --------------------
     sticks:   dense  smooth     PW     G-vecs:    dense   smooth      PW
     Min         321     122     37                91001    20878    3533
     Max         322     130     38                91040    20883    3556
     Sum        1285     499    151               364061    83521   14201

     Using Slab Decomposition



     bravais-lattice index     =            0
     lattice parameter (alat)  =       5.4022  a.u.
     unit-cell volume          =    1330.9862 (a.u.)^3
     number of atoms/cell      =            5
     number of atomic types    =            2
     number of electrons       =        11.00
     number of Kohn-Sham states=           12
     kinetic-energy cutoff     =      60.0000  Ry
     charge density cutoff     =     640.0000  Ry
     scf convergence threshold =      1.0E-09
     mixing beta               =       0.7000
     number of iterations used =            8  plain     mixing
     Exchange-correlation= PBE
                           (   1   4   3   4   0   0   0)

     celldm(1)=   5.402158  celldm(2)=   0.000000  celldm(3)=   0.000000
     celldm(4)=   0.000000  celldm(5)=   0.000000  celldm(6)=   0.000000

     crystal axes: (cart. coord. in units of alat)
               a(1) = (   1.000000   0.000000   0.000000 )  
               a(2) = (   0.500000   0.866025   0.000000 )  
               a(3) = (   0.000000   0.000000   9.748573 )  

     reciprocal axes: (cart. coord. in units 2 pi/alat)
               b(1) = (  1.000000 -0.577350  0.000000 )  
               b(2) = (  0.000000  1.154701  0.000000 )  
               b(3) = (  0.000000  0.000000  0.102579 )  


     PseudoPot. # 1 for Al read from file:
     ../pseudo/Al.pbe-n-rrkjus_psl.1.0.0.UPF
     MD5 check sum: bbe9f3f15d9b3b5ab9a58e4859ebdbfe
     Pseudo is Ultrasoft + core correction, Zval =  3.0
     Generated using &quot;atomic&quot; code by A. Dal Corso  v.6.3
     Using radial grid of 1135 points,  6 beta functions with: 
                l(1) =   0
                l(2) =   0
                l(3) =   1
                l(4) =   1
                l(5) =   2
                l(6) =   2
     Q(r) pseudized with 0 coefficients 


     PseudoPot. # 2 for H  read from file:
     ../pseudo/H.pbe-rrkjus_psl.1.0.0.UPF
     MD5 check sum: 3f4114867bd07edc7f1424d066fc1888
     Pseudo is Ultrasoft, Zval =  1.0
     Generated using &quot;atomic&quot; code by A. Dal Corso  v.6.3MaX
     Using radial grid of  929 points,  2 beta functions with: 
                l(1) =   0
                l(2) =   0
     Q(r) pseudized with 0 coefficients 


     atomic species   valence    mass     pseudopotential
     Al                3.00    26.98154     Al( 1.00)
     H                 1.00     1.00794     H ( 1.00)

     12 Sym. Ops., with inversion, found



   Cartesian axes

     site n.     atom                  positions (alat units)
         1        Al     tau(   1) = (   1.0000000   0.5773503   4.0463895  )
         2        Al     tau(   2) = (   0.0000000   0.0000000   4.8742866  )
         3        Al     tau(   3) = (   0.5000000   0.2886751   5.7021838  )
         4        H      tau(   4) = (   1.0000000   0.5773503   3.4844636  )
         5        H      tau(   5) = (   0.5000000   0.2886751   6.2641097  )

     number of k points=     7  Marzari-Vanderbilt smearing, width (Ry)=  0.0100
                       cart. coord. in units 2pi/alat
        k(    1) = (   0.0000000   0.0000000   0.0000000), wk =   0.0555556
        k(    2) = (   0.0000000   0.1924501   0.0000000), wk =   0.3333333
        k(    3) = (   0.0000000   0.3849002   0.0000000), wk =   0.3333333
        k(    4) = (   0.0000000  -0.5773503   0.0000000), wk =   0.1666667
        k(    5) = (   0.1666667   0.2886751   0.0000000), wk =   0.3333333
        k(    6) = (   0.1666667  -0.6735753   0.0000000), wk =   0.6666667
        k(    7) = (   0.3333333  -0.5773503   0.0000000), wk =   0.1111111

     Dense  grid:   364061 G-vectors     FFT dimensions: (  45,  45, 432)

     Smooth grid:    83521 G-vectors     FFT dimensions: (  27,  27, 270)

     Estimated max dynamical RAM per process >     344.43 MB

     Estimated total dynamical RAM >       1.35 GB

     Initial potential from superposition of free atoms

     starting charge      10.9931, renormalised to      11.0000

     negative rho (up, down):  3.057E-05 0.000E+00
     Starting wfcs are   14 randomized atomic wfcs

     total cpu time spent up to now is        2.1 secs

     per-process dynamical memory:    57.8 Mb

     Self-consistent Calculation

     iteration #  1     ecut=    60.00 Ry     beta= 0.70
     Davidson diagonalization with overlap
     ethr =  1.00E-02,  avg # of iterations =  5.7
     Minimization algorithm failed to find Fermi energy: reverting to bisection
     Possible cause: smearing is larger than the electronic band-gap.

     negative rho (up, down):  1.370E-06 0.000E+00

     total cpu time spent up to now is        5.2 secs

     total energy              =     -17.27550759 Ry
     estimated scf accuracy    <       0.19634349 Ry

     iteration #  2     ecut=    60.00 Ry     beta= 0.70
     Davidson diagonalization with overlap
     ethr =  1.78E-03,  avg # of iterations =  3.1

     negative rho (up, down):  5.509E-06 0.000E+00

     total cpu time spent up to now is        7.9 secs

     total energy              =     -17.02503686 Ry
     estimated scf accuracy    <       2.20970999 Ry

     iteration #  3     ecut=    60.00 Ry     beta= 0.70
     Davidson diagonalization with overlap
     ethr =  1.78E-03,  avg # of iterations =  2.9

     negative rho (up, down):  7.338E-07 0.000E+00

     total cpu time spent up to now is       10.4 secs

     total energy              =     -17.33819104 Ry
     estimated scf accuracy    <       0.12073755 Ry

     iteration #  4     ecut=    60.00 Ry     beta= 0.70
     Davidson diagonalization with overlap
     ethr =  1.10E-03,  avg # of iterations =  1.1

     negative rho (up, down):  2.332E-06 0.000E+00

     total cpu time spent up to now is       12.7 secs

     total energy              =     -17.34828885 Ry
     estimated scf accuracy    <       0.01200959 Ry

     iteration #  5     ecut=    60.00 Ry     beta= 0.70
     Davidson diagonalization with overlap
     ethr =  1.09E-04,  avg # of iterations =  3.4

     negative rho (up, down):  4.593E-06 0.000E+00

     total cpu time spent up to now is       15.1 secs

     total energy              =     -17.34914456 Ry
     estimated scf accuracy    <       0.00139993 Ry

     iteration #  6     ecut=    60.00 Ry     beta= 0.70
     Davidson diagonalization with overlap
     ethr =  1.27E-05,  avg # of iterations =  8.0

     negative rho (up, down):  5.244E-06 0.000E+00

     total cpu time spent up to now is       17.7 secs

     total energy              =     -17.34941569 Ry
     estimated scf accuracy    <       0.00001662 Ry

     iteration #  7     ecut=    60.00 Ry     beta= 0.70
     Davidson diagonalization with overlap
     ethr =  1.51E-07,  avg # of iterations =  3.9

     negative rho (up, down):  4.867E-06 0.000E+00

     total cpu time spent up to now is       20.3 secs

     total energy              =     -17.34941980 Ry
     estimated scf accuracy    <       0.00002061 Ry

     iteration #  8     ecut=    60.00 Ry     beta= 0.70
     Davidson diagonalization with overlap
     ethr =  1.51E-07,  avg # of iterations =  1.0

     negative rho (up, down):  4.886E-06 0.000E+00

     total cpu time spent up to now is       22.6 secs

     total energy              =     -17.34942119 Ry
     estimated scf accuracy    <       0.00000076 Ry

     iteration #  9     ecut=    60.00 Ry     beta= 0.70
     Davidson diagonalization with overlap
     ethr =  6.90E-09,  avg # of iterations =  2.0

     negative rho (up, down):  4.881E-06 0.000E+00

     total cpu time spent up to now is       25.1 secs

     total energy              =     -17.34942137 Ry
     estimated scf accuracy    <       0.00000002 Ry

     iteration # 10     ecut=    60.00 Ry     beta= 0.70
     Davidson diagonalization with overlap
     ethr =  1.72E-10,  avg # of iterations =  3.7

     negative rho (up, down):  4.883E-06 0.000E+00

     total cpu time spent up to now is       27.7 secs

     total energy              =     -17.34942138 Ry
     estimated scf accuracy    <          1.6E-09 Ry

     iteration # 11     ecut=    60.00 Ry     beta= 0.70
     Davidson diagonalization with overlap
     ethr =  1.46E-11,  avg # of iterations =  2.6

     negative rho (up, down):  4.884E-06 0.000E+00

     total cpu time spent up to now is       30.1 secs

     End of self-consistent calculation

          k = 0.0000 0.0000 0.0000 ( 10497 PWs)   bands (ev):

   -12.8078 -11.2564  -9.2340  -7.0025  -4.3087  -0.9217   2.5320   3.4489
     3.6735   4.3930   4.4968   5.7031

          k = 0.0000 0.1925 0.0000 ( 10491 PWs)   bands (ev):

   -12.1418 -10.6043  -8.6162  -6.4564  -3.8136  -0.4870   2.9944   3.4314
     4.0802   4.2693   4.5777   5.0991

          k = 0.0000 0.3849 0.0000 ( 10412 PWs)   bands (ev):

   -10.1641  -8.6816  -6.8528  -5.0011  -3.0484  -2.1430  -0.3780   0.5014
     2.4191   4.0799   4.4680   5.1124

          k = 0.0000-0.5774 0.0000 ( 10394 PWs)   bands (ev):

    -7.0252  -6.8912  -5.7529  -5.6529  -4.6709  -3.6756  -1.4820  -0.8194
     1.7535   2.6507   3.8969   5.4713

          k = 0.1667 0.2887 0.0000 ( 10433 PWs)   bands (ev):

   -10.8198  -9.3157  -7.4196  -5.4353  -2.9976  -0.2188   0.9324   1.2077
     2.2128   2.6639   4.1742   4.5845

          k = 0.1667-0.6736 0.0000 ( 10441 PWs)   bands (ev):

    -8.2196  -6.8368  -5.3574  -4.4815  -4.0229  -2.8490  -1.2775  -0.4016
    -0.0883   1.3840   2.4792   3.5955

          k = 0.3333-0.5774 0.0000 ( 10416 PWs)   bands (ev):

    -5.2479  -5.2479  -4.8685  -4.3789  -4.3789  -3.7372  -2.6456  -2.6456
    -0.2179   0.8153   0.8153   2.3668

     the Fermi energy is    -2.7174 ev

!    total energy              =     -17.34942138 Ry
     estimated scf accuracy    <          4.6E-11 Ry
     smearing contrib. (-TS)   =       0.00081362 Ry
     internal energy E=F+TS    =     -17.35023500 Ry

     The total energy is F=E-TS. E is the sum of the following terms:
     one-electron contribution =    -241.81372065 Ry
     hartree contribution      =     122.44827030 Ry
     xc contribution           =      -9.03973930 Ry
     ewald contribution        =     111.05495465 Ry

     convergence has been achieved in  11 iterations

     negative rho (up, down):  4.884E-06 0.000E+00

     Forces acting on atoms (cartesian axes, Ry/au):

     atom    1 type  1   force =    -0.00000000    0.00000000    0.00000277
     atom    2 type  1   force =     0.00000000    0.00000000    0.00000000
     atom    3 type  1   force =     0.00000000   -0.00000000   -0.00000277
     atom    4 type  2   force =     0.00000000   -0.00000000    0.00004666
     atom    5 type  2   force =     0.00000000   -0.00000000   -0.00004666

     Total force =     0.000066     Total SCF correction =     0.000008
     SCF correction compared to forces is large: reduce conv_thr to get better values


     Computing stress (Cartesian axis) and pressure


     negative rho (up, down):  4.884E-06 0.000E+00
          total   stress  (Ry/bohr**3)                   (kbar)     P=        0.79
   0.00000837   0.00000000   0.00000000            1.23        0.00        0.00
   0.00000000   0.00000837   0.00000000            0.00        1.23        0.00
   0.00000000   0.00000000  -0.00000065            0.00        0.00       -0.10


     Writing all to output data dir ./tmp/ads-vac20.save/ :
     XML data file, charge density, pseudopotentials, collected wavefunctions

     init_run     :      1.73s CPU      1.91s WALL (       1 calls)
     electrons    :     25.36s CPU     28.09s WALL (       1 calls)
     forces       :      1.23s CPU      1.34s WALL (       1 calls)
     stress       :      4.66s CPU      4.97s WALL (       1 calls)

     Called by init_run:
     wfcinit      :      0.40s CPU      0.41s WALL (       1 calls)
     potinit      :      0.33s CPU      0.37s WALL (       1 calls)
     hinit0       :      0.41s CPU      0.42s WALL (       1 calls)

     Called by electrons:
     c_bands      :     10.81s CPU     11.05s WALL (      11 calls)
     sum_band     :      7.61s CPU      8.94s WALL (      11 calls)
     v_of_rho     :      1.80s CPU      1.87s WALL (      12 calls)
     newd         :      5.35s CPU      6.56s WALL (      12 calls)
     mix_rho      :      0.23s CPU      0.24s WALL (      11 calls)

     Called by c_bands:
     init_us_2    :      0.26s CPU      0.27s WALL (     175 calls)
     cegterg      :     10.18s CPU     10.41s WALL (      77 calls)

     Called by *egterg:
     cdiaghg      :      0.07s CPU      0.07s WALL (     339 calls)
     h_psi        :      7.51s CPU      7.74s WALL (     346 calls)
     s_psi        :      1.09s CPU      1.10s WALL (     346 calls)
     g_psi        :      0.02s CPU      0.02s WALL (     262 calls)

     Called by h_psi:
     h_psi:calbec :      1.14s CPU      1.15s WALL (     346 calls)
     vloc_psi     :      5.28s CPU      5.49s WALL (     346 calls)
                                        0.00s GPU  (     346 calls)
     add_vuspsi   :      1.06s CPU      1.07s WALL (     346 calls)

     General routines
     calbec       :      2.15s CPU      2.17s WALL (     542 calls)
     fft          :      2.04s CPU      2.12s WALL (     179 calls)
     ffts         :      0.16s CPU      0.16s WALL (      23 calls)
     fftw         :      5.56s CPU      5.78s WALL (    5910 calls)
     interpolate  :      0.25s CPU      0.26s WALL (      12 calls)

     Parallel routines

     PWSCF        :     33.16s CPU     36.52s WALL


   This run was terminated on:   0: 2:21  23Sep2026            

=------------------------------------------------------------------------------=
   JOB DONE.
=------------------------------------------------------------------------------=
