
     Program PWSCF v.7.5 starts on 22Sep2026 at 21:35:28 

     This program is part of the open-source Quantum ESPRESSO suite
     for quantum simulation of materials; please cite
         "P. Giannozzi et al., J. Phys.:Condens. Matter 21 395502 (2009);
         "P. Giannozzi et al., J. Phys.:Condens. Matter 29 465901 (2017);
         "P. Giannozzi et al., J. Chem. Phys. 152 154105 (2020);
          URL http://www.quantum-espresso.org", 
     in publications or presentations arising from this work. More details at
     http://www.quantum-espresso.org/quote

     Parallel version (MPI), running on     8 processors

     MPI processes distributed on     1 nodes
     11661 MiB available memory on the printing compute node when the environment starts
 
     Reading input from al.scf.in

     Current dimensions of program PWSCF are:
     Max number of different atomic species (ntypx) = 10
     Max number of k-points (npk) =  40000
     Max angular momentum in pseudopotentials (lmaxx) =  4
     Message from routine setup:
     using ibrav=0 with symmetry is DISCOURAGED, use correct ibrav instead
 
     R & G space division:  proc/nbgrp/npool/nimage =       8
     Subspace diagonalization in iterative solution of the eigenvalue problem:
     a serial algorithm will be used

 
     Parallelization info
     --------------------
     sticks:   dense  smooth     PW     G-vecs:    dense   smooth      PW
     Min          38      38     13                  440      440      90
     Max          40      40     14                  441      441      91
     Sum         313     313    109                 3527     3527     725
 
     Using Slab Decomposition
 


     bravais-lattice index     =            0
     lattice parameter (alat)  =       5.2651  a.u.
     unit-cell volume          =     103.6190 (a.u.)^3
     number of atoms/cell      =            1
     number of atomic types    =            1
     number of electrons       =         3.00
     number of Kohn-Sham states=            6
     kinetic-energy cutoff     =      40.0000  Ry
     charge density cutoff     =     160.0000  Ry
     scf convergence threshold =      1.0E-12
     mixing beta               =       0.7000
     number of iterations used =            8  plain     mixing
     Exchange-correlation= SLA  PZ   NOGX NOGC
                           (   1   1   0   0   0   0   0)

     celldm(1)=   5.265146  celldm(2)=   0.000000  celldm(3)=   0.000000
     celldm(4)=   0.000000  celldm(5)=   0.000000  celldm(6)=   0.000000

     crystal axes: (cart. coord. in units of alat)
               a(1) = (  -0.704261   0.000000   0.709941 )  
               a(2) = (   0.000000   0.709941   0.709941 )  
               a(3) = (  -0.704261   0.709941   0.000000 )  

     reciprocal axes: (cart. coord. in units 2 pi/alat)
               b(1) = ( -0.709964 -0.704284  0.704284 )  
               b(2) = (  0.709964  0.704284  0.704284 )  
               b(3) = ( -0.709964  0.704284 -0.704284 )  


     PseudoPot. # 1 for Al read from file:
     <工作目录>/pseudo/Al.pz-vbc.UPF
     MD5 check sum: f06ceae8da0fe5c02c98e3688433298c
     Pseudo is Norm-conserving, Zval =  3.0
     Generated by new atomic code, or converted to UPF format
     Using radial grid of  171 points,  2 beta functions with: 
                l(1) =   0
                l(2) =   1

     atomic species   valence    mass     pseudopotential
     Al                3.00    26.98154     Al( 1.00)

     16 Sym. Ops., with inversion, found


                                    s                        frac. trans.

      isym =  1     identity                                     

 cryst.   s( 1) = (     1          0          0      )
                  (     0          1          0      )
                  (     0          0          1      )

 cart.    s( 1) = (  1.0000000  0.0000000  0.0000000 )
                  (  0.0000000  1.0000000  0.0000000 )
                  (  0.0000000  0.0000000  1.0000000 )


      isym =  2     180 deg rotation - cart. axis [0,0,1]        

 cryst.   s( 2) = (     0          1         -1      )
                  (     1          0         -1      )
                  (     0          0         -1      )

 cart.    s( 2) = ( -1.0000000  0.0000000  0.0000000 )
                  (  0.0000000 -1.0000000  0.0000000 )
                  (  0.0000000  0.0000000  1.0000000 )


      isym =  3     180 deg rotation - cart. axis [0,1,0]        

 cryst.   s( 3) = (    -1          0          0      )
                  (    -1          0          1      )
                  (    -1          1          0      )

 cart.    s( 3) = ( -1.0000000  0.0000000  0.0000000 )
                  (  0.0000000  1.0000000  0.0000000 )
                  (  0.0000000  0.0000000 -1.0000000 )


      isym =  4     180 deg rotation - cart. axis [1,0,0]        

 cryst.   s( 4) = (     0         -1          1      )
                  (     0         -1          0      )
                  (     1         -1          0      )

 cart.    s( 4) = (  1.0000000  0.0000000  0.0000000 )
                  (  0.0000000 -1.0000000  0.0000000 )
                  (  0.0000000  0.0000000 -1.0000000 )


      isym =  5     180 deg rotation - cart. axis [0,1,1]        

 cryst.   s( 5) = (    -1          1          0      )
                  (     0          1          0      )
                  (     0          1         -1      )

 cart.    s( 5) = ( -1.0000000  0.0000000  0.0000000 )
                  (  0.0000000  0.0000000  1.0000000 )
                  (  0.0000000  1.0000000  0.0000000 )


      isym =  6     180 deg rotation - cart. axis [0,1,-1]       

 cryst.   s( 6) = (     0          0         -1      )
                  (     0         -1          0      )
                  (    -1          0          0      )

 cart.    s( 6) = ( -1.0000000  0.0000000  0.0000000 )
                  (  0.0000000  0.0000000 -1.0000000 )
                  (  0.0000000 -1.0000000  0.0000000 )


      isym =  7      90 deg rotation - cart. axis [-1,0,0]       

 cryst.   s( 7) = (     0          0          1      )
                  (    -1          0          1      )
                  (     0         -1          1      )

 cart.    s( 7) = (  1.0000000  0.0000000  0.0000000 )
                  (  0.0000000  0.0000000  1.0000000 )
                  (  0.0000000 -1.0000000  0.0000000 )


      isym =  8      90 deg rotation - cart. axis [1,0,0]        

 cryst.   s( 8) = (     1         -1          0      )
                  (     1          0         -1      )
                  (     1          0          0      )

 cart.    s( 8) = (  1.0000000  0.0000000  0.0000000 )
                  (  0.0000000  0.0000000 -1.0000000 )
                  (  0.0000000  1.0000000  0.0000000 )


      isym =  9     inversion                                    

 cryst.   s( 9) = (    -1          0          0      )
                  (     0         -1          0      )
                  (     0          0         -1      )

 cart.    s( 9) = ( -1.0000000  0.0000000  0.0000000 )
                  (  0.0000000 -1.0000000  0.0000000 )
                  (  0.0000000  0.0000000 -1.0000000 )


      isym = 10     inv. 180 deg rotation - cart. axis [0,0,1]   

 cryst.   s(10) = (     0         -1          1      )
                  (    -1          0          1      )
                  (     0          0          1      )

 cart.    s(10) = (  1.0000000  0.0000000  0.0000000 )
                  (  0.0000000  1.0000000  0.0000000 )
                  (  0.0000000  0.0000000 -1.0000000 )


      isym = 11     inv. 180 deg rotation - cart. axis [0,1,0]   

 cryst.   s(11) = (     1          0          0      )
                  (     1          0         -1      )
                  (     1         -1          0      )

 cart.    s(11) = (  1.0000000  0.0000000  0.0000000 )
                  (  0.0000000 -1.0000000  0.0000000 )
                  (  0.0000000  0.0000000  1.0000000 )


      isym = 12     inv. 180 deg rotation - cart. axis [1,0,0]   

 cryst.   s(12) = (     0          1         -1      )
                  (     0          1          0      )
                  (    -1          1          0      )

 cart.    s(12) = ( -1.0000000  0.0000000  0.0000000 )
                  (  0.0000000  1.0000000  0.0000000 )
                  (  0.0000000  0.0000000  1.0000000 )


      isym = 13     inv. 180 deg rotation - cart. axis [0,1,1]   

 cryst.   s(13) = (     1         -1          0      )
                  (     0         -1          0      )
                  (     0         -1          1      )

 cart.    s(13) = (  1.0000000  0.0000000  0.0000000 )
                  (  0.0000000  0.0000000 -1.0000000 )
                  (  0.0000000 -1.0000000  0.0000000 )


      isym = 14     inv. 180 deg rotation - cart. axis [0,1,-1]  

 cryst.   s(14) = (     0          0          1      )
                  (     0          1          0      )
                  (     1          0          0      )

 cart.    s(14) = (  1.0000000  0.0000000  0.0000000 )
                  (  0.0000000  0.0000000  1.0000000 )
                  (  0.0000000  1.0000000  0.0000000 )


      isym = 15     inv.  90 deg rotation - cart. axis [-1,0,0]  

 cryst.   s(15) = (     0          0         -1      )
                  (     1          0         -1      )
                  (     0          1         -1      )

 cart.    s(15) = ( -1.0000000  0.0000000  0.0000000 )
                  (  0.0000000  0.0000000 -1.0000000 )
                  (  0.0000000  1.0000000  0.0000000 )


      isym = 16     inv.  90 deg rotation - cart. axis [1,0,0]   

 cryst.   s(16) = (    -1          1          0      )
                  (    -1          0          1      )
                  (    -1          0          0      )

 cart.    s(16) = ( -1.0000000  0.0000000  0.0000000 )
                  (  0.0000000  0.0000000  1.0000000 )
                  (  0.0000000 -1.0000000  0.0000000 )


   Cartesian axes

     site n.     atom                  positions (alat units)
         1        Al     tau(   1) = (   0.0000000   0.0000000   0.0000000  )

   Crystallographic axes

     site n.     atom                  positions (cryst. coord.)
         1        Al     tau(   1) = (  0.0000000  0.0000000  0.0000000  )

     number of k points=   349  Marzari-Vanderbilt smearing, width (Ry)=  0.0200
                       cart. coord. in units 2pi/alat
        k(    1) = (   0.0000000   0.0000000   0.0000000), wk =   0.0004883
        k(    2) = (  -0.0443727   0.0440178  -0.0440178), wk =   0.0039062
        k(    3) = (  -0.0887455   0.0880355  -0.0880355), wk =   0.0039062
        k(    4) = (  -0.1331182   0.1320533  -0.1320533), wk =   0.0039062
        k(    5) = (  -0.1774909   0.1760710  -0.1760710), wk =   0.0039062
        k(    6) = (  -0.2218637   0.2200888  -0.2200888), wk =   0.0039062
        k(    7) = (  -0.2662364   0.2641065  -0.2641065), wk =   0.0039062
        k(    8) = (  -0.3106091   0.3081243  -0.3081243), wk =   0.0039062
        k(    9) = (   0.3549819  -0.3521420   0.3521420), wk =   0.0019531
        k(   10) = (   0.0000000   0.0880355   0.0000000), wk =   0.0019531
        k(   11) = (  -0.0443727   0.1320533  -0.0440178), wk =   0.0078125
        k(   12) = (  -0.0887455   0.1760710  -0.0880355), wk =   0.0078125
        k(   13) = (  -0.1331182   0.2200888  -0.1320533), wk =   0.0078125
        k(   14) = (  -0.1774909   0.2641065  -0.1760710), wk =   0.0078125
        k(   15) = (  -0.2218637   0.3081243  -0.2200888), wk =   0.0078125
        k(   16) = (  -0.2662364   0.3521420  -0.2641065), wk =   0.0078125
        k(   17) = (   0.3993546  -0.3081243   0.3961598), wk =   0.0078125
        k(   18) = (   0.3549819  -0.2641065   0.3521420), wk =   0.0078125
        k(   19) = (   0.3106091  -0.2200888   0.3081243), wk =   0.0078125
        k(   20) = (   0.2662364  -0.1760710   0.2641065), wk =   0.0078125
        k(   21) = (   0.2218637  -0.1320533   0.2200888), wk =   0.0078125
        k(   22) = (   0.1774909  -0.0880355   0.1760710), wk =   0.0078125
        k(   23) = (   0.1331182  -0.0440178   0.1320533), wk =   0.0078125
        k(   24) = (   0.0887455   0.0000000   0.0880355), wk =   0.0039062
        k(   25) = (   0.0000000   0.1760710   0.0000000), wk =   0.0019531
        k(   26) = (  -0.0443727   0.2200888  -0.0440178), wk =   0.0078125
        k(   27) = (  -0.0887455   0.2641065  -0.0880355), wk =   0.0078125
        k(   28) = (  -0.1331182   0.3081243  -0.1320533), wk =   0.0078125
        k(   29) = (  -0.1774909   0.3521420  -0.1760710), wk =   0.0078125
        k(   30) = (  -0.2218637   0.3961598  -0.2200888), wk =   0.0078125
        k(   31) = (   0.4437273  -0.2641065   0.4401775), wk =   0.0078125
        k(   32) = (   0.3993546  -0.2200888   0.3961598), wk =   0.0078125
        k(   33) = (   0.3549819  -0.1760710   0.3521420), wk =   0.0078125
        k(   34) = (   0.3106091  -0.1320533   0.3081243), wk =   0.0078125
        k(   35) = (   0.2662364  -0.0880355   0.2641065), wk =   0.0078125
        k(   36) = (   0.2218637  -0.0440178   0.2200888), wk =   0.0078125
        k(   37) = (   0.1774909   0.0000000   0.1760710), wk =   0.0039062
        k(   38) = (   0.0000000   0.2641065   0.0000000), wk =   0.0019531
        k(   39) = (  -0.0443727   0.3081243  -0.0440178), wk =   0.0078125
        k(   40) = (  -0.0887455   0.3521420  -0.0880355), wk =   0.0078125
        k(   41) = (  -0.1331182   0.3961598  -0.1320533), wk =   0.0078125
        k(   42) = (  -0.1774909   0.4401775  -0.1760710), wk =   0.0078125
        k(   43) = (   0.4881001  -0.2200888   0.4841953), wk =   0.0078125
        k(   44) = (   0.4437273  -0.1760710   0.4401775), wk =   0.0078125
        k(   45) = (   0.3993546  -0.1320533   0.3961598), wk =   0.0078125
        k(   46) = (   0.3549819  -0.0880355   0.3521420), wk =   0.0078125
        k(   47) = (   0.3106091  -0.0440178   0.3081243), wk =   0.0078125
        k(   48) = (   0.2662364   0.0000000   0.2641065), wk =   0.0039062
        k(   49) = (   0.0000000   0.3521420   0.0000000), wk =   0.0019531
        k(   50) = (  -0.0443727   0.3961598  -0.0440178), wk =   0.0078125
        k(   51) = (  -0.0887455   0.4401775  -0.0880355), wk =   0.0078125
        k(   52) = (  -0.1331182   0.4841953  -0.1320533), wk =   0.0078125
        k(   53) = (   0.5324728  -0.1760710   0.5282130), wk =   0.0078125
        k(   54) = (   0.4881001  -0.1320533   0.4841953), wk =   0.0078125
        k(   55) = (   0.4437273  -0.0880355   0.4401775), wk =   0.0078125
        k(   56) = (   0.3993546  -0.0440178   0.3961598), wk =   0.0078125
        k(   57) = (   0.3549819   0.0000000   0.3521420), wk =   0.0039062
        k(   58) = (   0.0000000   0.4401775   0.0000000), wk =   0.0019531
        k(   59) = (  -0.0443727   0.4841953  -0.0440178), wk =   0.0078125
        k(   60) = (  -0.0887455   0.5282130  -0.0880355), wk =   0.0078125
        k(   61) = (   0.5768455  -0.1320533   0.5722308), wk =   0.0078125
        k(   62) = (   0.5324728  -0.0880355   0.5282130), wk =   0.0078125
        k(   63) = (   0.4881001  -0.0440178   0.4841953), wk =   0.0078125
        k(   64) = (   0.4437273   0.0000000   0.4401775), wk =   0.0039062
        k(   65) = (   0.0000000   0.5282130   0.0000000), wk =   0.0019531
        k(   66) = (  -0.0443727   0.5722308  -0.0440178), wk =   0.0078125
        k(   67) = (   0.6212183  -0.0880355   0.6162485), wk =   0.0078125
        k(   68) = (   0.5768455  -0.0440178   0.5722308), wk =   0.0078125
        k(   69) = (   0.5324728   0.0000000   0.5282130), wk =   0.0039062
        k(   70) = (   0.0000000   0.6162485   0.0000000), wk =   0.0019531
        k(   71) = (   0.6655910  -0.0440178   0.6602663), wk =   0.0078125
        k(   72) = (   0.6212183   0.0000000   0.6162485), wk =   0.0039062
        k(   73) = (   0.0000000  -0.7042840   0.0000000), wk =   0.0009766
        k(   74) = (  -0.0887455   0.0000000   0.0000000), wk =   0.0009766
        k(   75) = (  -0.1331182   0.0440178  -0.0440178), wk =   0.0039062
        k(   76) = (  -0.1774909   0.0880355  -0.0880355), wk =   0.0039062
        k(   77) = (  -0.2218637   0.1320533  -0.1320533), wk =   0.0039062
        k(   78) = (  -0.2662364   0.1760710  -0.1760710), wk =   0.0039062
        k(   79) = (  -0.3106091   0.2200888  -0.2200888), wk =   0.0039062
        k(   80) = (  -0.3549819   0.2641065  -0.2641065), wk =   0.0039062
        k(   81) = (   0.3106091  -0.3961598   0.3961598), wk =   0.0039062
        k(   82) = (   0.2662364  -0.3521420   0.3521420), wk =   0.0039062
        k(   83) = (   0.2218637  -0.3081243   0.3081243), wk =   0.0039062
        k(   84) = (   0.1774909  -0.2641065   0.2641065), wk =   0.0039062
        k(   85) = (   0.1331182  -0.2200888   0.2200888), wk =   0.0039062
        k(   86) = (   0.0887455  -0.1760710   0.1760710), wk =   0.0039062
        k(   87) = (   0.0443727  -0.1320533   0.1320533), wk =   0.0039062
        k(   88) = (   0.0000000  -0.0880355   0.0880355), wk =   0.0019531
        k(   89) = (  -0.0887455   0.1760710   0.0000000), wk =   0.0039062
        k(   90) = (  -0.1331182   0.2200888  -0.0440178), wk =   0.0078125
        k(   91) = (  -0.1774909   0.2641065  -0.0880355), wk =   0.0078125
        k(   92) = (  -0.2218637   0.3081243  -0.1320533), wk =   0.0078125
        k(   93) = (  -0.2662364   0.3521420  -0.1760710), wk =   0.0078125
        k(   94) = (   0.3993546  -0.3081243   0.4841953), wk =   0.0078125
        k(   95) = (   0.3549819  -0.2641065   0.4401775), wk =   0.0039062
        k(   96) = (   0.0000000   0.1760710   0.0880355), wk =   0.0039062
        k(   97) = (  -0.0887455   0.2641065   0.0000000), wk =   0.0039062
        k(   98) = (  -0.1331182   0.3081243  -0.0440178), wk =   0.0078125
        k(   99) = (  -0.1774909   0.3521420  -0.0880355), wk =   0.0078125
        k(  100) = (  -0.2218637   0.3961598  -0.1320533), wk =   0.0078125
        k(  101) = (   0.4437273  -0.2641065   0.5282130), wk =   0.0078125
        k(  102) = (   0.3993546  -0.2200888   0.4841953), wk =   0.0078125
        k(  103) = (   0.3549819  -0.1760710   0.4401775), wk =   0.0078125
        k(  104) = (   0.3106091  -0.1320533   0.3961598), wk =   0.0078125
        k(  105) = (   0.2662364  -0.0880355   0.3521420), wk =   0.0078125
        k(  106) = (   0.2218637  -0.0440178   0.3081243), wk =   0.0078125
        k(  107) = (   0.1774909   0.0000000   0.2641065), wk =   0.0039062
        k(  108) = (   0.0443727   0.2200888   0.1320533), wk =   0.0078125
        k(  109) = (   0.0000000   0.2641065   0.0880355), wk =   0.0039062
        k(  110) = (  -0.0887455   0.3521420   0.0000000), wk =   0.0039062
        k(  111) = (  -0.1331182   0.3961598  -0.0440178), wk =   0.0078125
        k(  112) = (  -0.1774909   0.4401775  -0.0880355), wk =   0.0078125
        k(  113) = (   0.4881001  -0.2200888   0.5722308), wk =   0.0078125
        k(  114) = (   0.4437273  -0.1760710   0.5282130), wk =   0.0078125
        k(  115) = (   0.3993546  -0.1320533   0.4841953), wk =   0.0078125
        k(  116) = (   0.3549819  -0.0880355   0.4401775), wk =   0.0078125
        k(  117) = (   0.3106091  -0.0440178   0.3961598), wk =   0.0078125
        k(  118) = (   0.2662364   0.0000000   0.3521420), wk =   0.0039062
        k(  119) = (   0.0887455   0.2641065   0.1760710), wk =   0.0078125
        k(  120) = (   0.0443727   0.3081243   0.1320533), wk =   0.0078125
        k(  121) = (   0.0000000   0.3521420   0.0880355), wk =   0.0039062
        k(  122) = (  -0.0887455   0.4401775  -0.0000000), wk =   0.0039062
        k(  123) = (  -0.1331182   0.4841953  -0.0440178), wk =   0.0078125
        k(  124) = (   0.5324728  -0.1760710   0.6162485), wk =   0.0078125
        k(  125) = (   0.4881001  -0.1320533   0.5722308), wk =   0.0078125
        k(  126) = (   0.4437273  -0.0880355   0.5282130), wk =   0.0078125
        k(  127) = (   0.3993546  -0.0440178   0.4841953), wk =   0.0078125
        k(  128) = (   0.3549819   0.0000000   0.4401775), wk =   0.0039062
        k(  129) = (   0.1331182   0.3081243   0.2200888), wk =   0.0078125
        k(  130) = (   0.0887455   0.3521420   0.1760710), wk =   0.0078125
        k(  131) = (   0.0443727   0.3961598   0.1320533), wk =   0.0078125
        k(  132) = (   0.0000000   0.4401775   0.0880355), wk =   0.0039062
        k(  133) = (  -0.0887455   0.5282130   0.0000000), wk =   0.0039062
        k(  134) = (   0.5768455  -0.1320533   0.6602663), wk =   0.0078125
        k(  135) = (   0.5324728  -0.0880355   0.6162485), wk =   0.0078125
        k(  136) = (   0.4881001  -0.0440178   0.5722308), wk =   0.0078125
        k(  137) = (   0.4437273   0.0000000   0.5282130), wk =   0.0039062
        k(  138) = (   0.1774909   0.3521420   0.2641065), wk =   0.0078125
        k(  139) = (   0.1331182   0.3961598   0.2200888), wk =   0.0078125
        k(  140) = (   0.0887455   0.4401775   0.1760710), wk =   0.0078125
        k(  141) = (   0.0443727   0.4841953   0.1320533), wk =   0.0078125
        k(  142) = (   0.0000000   0.5282130   0.0880355), wk =   0.0039062
        k(  143) = (   0.6212183  -0.0880355   0.7042840), wk =   0.0039062
        k(  144) = (   0.5768455  -0.0440178   0.6602663), wk =   0.0078125
        k(  145) = (   0.5324728   0.0000000   0.6162485), wk =   0.0039062
        k(  146) = (  -0.4881001  -0.3081243  -0.3961598), wk =   0.0078125
        k(  147) = (  -0.5324728  -0.2641065  -0.4401775), wk =   0.0078125
        k(  148) = (  -0.5768455  -0.2200888  -0.4841953), wk =   0.0078125
        k(  149) = (  -0.6212183  -0.1760710  -0.5282130), wk =   0.0078125
        k(  150) = (  -0.6655910  -0.1320533  -0.5722308), wk =   0.0078125
        k(  151) = (  -0.7099637  -0.0880355  -0.6162485), wk =   0.0039062
        k(  152) = (  -0.0887455  -0.7042840   0.0000000), wk =   0.0019531
        k(  153) = (  -0.4437273  -0.2641065  -0.3521420), wk =   0.0078125
        k(  154) = (  -0.4881001  -0.2200888  -0.3961598), wk =   0.0078125
        k(  155) = (  -0.5324728  -0.1760710  -0.4401775), wk =   0.0078125
        k(  156) = (  -0.5768455  -0.1320533  -0.4841953), wk =   0.0078125
        k(  157) = (  -0.6212183  -0.0880355  -0.5282130), wk =   0.0078125
        k(  158) = (  -0.6655910  -0.0440178  -0.5722308), wk =   0.0078125
        k(  159) = (   0.0000000  -0.7042840   0.0880355), wk =   0.0019531
        k(  160) = (  -0.3993546  -0.2200888  -0.3081243), wk =   0.0078125
        k(  161) = (  -0.4437273  -0.1760710  -0.3521420), wk =   0.0078125
        k(  162) = (  -0.4881001  -0.1320533  -0.3961598), wk =   0.0078125
        k(  163) = (  -0.5324728  -0.0880355  -0.4401775), wk =   0.0078125
        k(  164) = (  -0.5768455  -0.0440178  -0.4841953), wk =   0.0078125
        k(  165) = (  -0.6212183   0.0000000  -0.5282130), wk =   0.0039062
        k(  166) = (  -0.3549819  -0.1760710  -0.2641065), wk =   0.0078125
        k(  167) = (  -0.3993546  -0.1320533  -0.3081243), wk =   0.0078125
        k(  168) = (  -0.4437273  -0.0880355  -0.3521420), wk =   0.0078125
        k(  169) = (  -0.4881001  -0.0440178  -0.3961598), wk =   0.0078125
        k(  170) = (  -0.5324728   0.0000000  -0.4401775), wk =   0.0039062
        k(  171) = (  -0.3106091  -0.1320533  -0.2200888), wk =   0.0078125
        k(  172) = (  -0.3549819  -0.0880355  -0.2641065), wk =   0.0078125
        k(  173) = (  -0.3993546  -0.0440178  -0.3081243), wk =   0.0078125
        k(  174) = (  -0.4437273   0.0000000  -0.3521420), wk =   0.0039062
        k(  175) = (  -0.2662364  -0.0880355  -0.1760710), wk =   0.0078125
        k(  176) = (  -0.3106091  -0.0440178  -0.2200888), wk =   0.0078125
        k(  177) = (  -0.3549819   0.0000000  -0.2641065), wk =   0.0039062
        k(  178) = (  -0.2218637  -0.0440178  -0.1320533), wk =   0.0078125
        k(  179) = (  -0.2662364   0.0000000  -0.1760710), wk =   0.0039062
        k(  180) = (  -0.1774909   0.0000000  -0.0880355), wk =   0.0039062
        k(  181) = (  -0.1774909   0.0000000   0.0000000), wk =   0.0009766
        k(  182) = (  -0.2218637   0.0440178  -0.0440178), wk =   0.0039062
        k(  183) = (  -0.2662364   0.0880355  -0.0880355), wk =   0.0039062
        k(  184) = (  -0.3106091   0.1320533  -0.1320533), wk =   0.0039062
        k(  185) = (  -0.3549819   0.1760710  -0.1760710), wk =   0.0039062
        k(  186) = (  -0.3993546   0.2200888  -0.2200888), wk =   0.0039062
        k(  187) = (   0.2662364  -0.4401775   0.4401775), wk =   0.0039062
        k(  188) = (   0.2218637  -0.3961598   0.3961598), wk =   0.0039062
        k(  189) = (   0.1774909  -0.3521420   0.3521420), wk =   0.0039062
        k(  190) = (   0.1331182  -0.3081243   0.3081243), wk =   0.0039062
        k(  191) = (   0.0887455  -0.2641065   0.2641065), wk =   0.0039062
        k(  192) = (   0.0443727  -0.2200888   0.2200888), wk =   0.0039062
        k(  193) = (   0.0000000  -0.1760710   0.1760710), wk =   0.0019531
        k(  194) = (  -0.1774909   0.3521420   0.0000000), wk =   0.0039062
        k(  195) = (  -0.2218637   0.3961598  -0.0440178), wk =   0.0078125
        k(  196) = (   0.4437273  -0.2641065   0.6162485), wk =   0.0078125
        k(  197) = (   0.3993546  -0.2200888   0.5722308), wk =   0.0078125
        k(  198) = (   0.3549819  -0.1760710   0.5282130), wk =   0.0039062
        k(  199) = (  -0.0000000   0.2641065   0.1760710), wk =   0.0039062
        k(  200) = (  -0.1774909   0.4401775   0.0000000), wk =   0.0039062
        k(  201) = (   0.4881001  -0.2200888   0.6602663), wk =   0.0078125
        k(  202) = (   0.4437273  -0.1760710   0.6162485), wk =   0.0078125
        k(  203) = (   0.3993546  -0.1320533   0.5722308), wk =   0.0078125
        k(  204) = (   0.3549819  -0.0880355   0.5282130), wk =   0.0078125
        k(  205) = (   0.3106091  -0.0440178   0.4841953), wk =   0.0078125
        k(  206) = (   0.2662364  -0.0000000   0.4401775), wk =   0.0039062
        k(  207) = (   0.0443727   0.3081243   0.2200888), wk =   0.0078125
        k(  208) = (   0.0000000   0.3521420   0.1760710), wk =   0.0039062
        k(  209) = (   0.5324728  -0.1760710   0.7042840), wk =   0.0039062
        k(  210) = (   0.4881001  -0.1320533   0.6602663), wk =   0.0078125
        k(  211) = (   0.4437273  -0.0880355   0.6162485), wk =   0.0078125
        k(  212) = (   0.3993546  -0.0440178   0.5722308), wk =   0.0078125
        k(  213) = (   0.3549819   0.0000000   0.5282130), wk =   0.0039062
        k(  214) = (   0.0887455   0.3521420   0.2641065), wk =   0.0078125
        k(  215) = (   0.0443727   0.3961598   0.2200888), wk =   0.0078125
        k(  216) = (   0.0000000   0.4401775   0.1760710), wk =   0.0039062
        k(  217) = (   0.5324728  -0.0880355   0.7042840), wk =   0.0039062
        k(  218) = (   0.4881001  -0.0440178   0.6602663), wk =   0.0078125
        k(  219) = (   0.4437273   0.0000000   0.6162485), wk =   0.0039062
        k(  220) = (  -0.5768455  -0.3081243  -0.3961598), wk =   0.0078125
        k(  221) = (  -0.6212183  -0.2641065  -0.4401775), wk =   0.0078125
        k(  222) = (  -0.6655910  -0.2200888  -0.4841953), wk =   0.0078125
        k(  223) = (  -0.7099637  -0.1760710  -0.5282130), wk =   0.0039062
        k(  224) = (  -0.1774909  -0.7042840   0.0000000), wk =   0.0019531
        k(  225) = (  -0.5324728  -0.2641065  -0.3521420), wk =   0.0078125
        k(  226) = (  -0.5768455  -0.2200888  -0.3961598), wk =   0.0078125
        k(  227) = (  -0.6212183  -0.1760710  -0.4401775), wk =   0.0078125
        k(  228) = (  -0.6655910  -0.1320533  -0.4841953), wk =   0.0078125
        k(  229) = (  -0.7099637  -0.0880355  -0.5282130), wk =   0.0039062
        k(  230) = (  -0.4881001  -0.2200888  -0.3081243), wk =   0.0078125
        k(  231) = (  -0.5324728  -0.1760710  -0.3521420), wk =   0.0078125
        k(  232) = (  -0.5768455  -0.1320533  -0.3961598), wk =   0.0078125
        k(  233) = (  -0.6212183  -0.0880355  -0.4401775), wk =   0.0078125
        k(  234) = (  -0.6655910  -0.0440178  -0.4841953), wk =   0.0078125
        k(  235) = (   0.0000000  -0.7042840   0.1760710), wk =   0.0019531
        k(  236) = (  -0.4437273  -0.1760710  -0.2641065), wk =   0.0078125
        k(  237) = (  -0.4881001  -0.1320533  -0.3081243), wk =   0.0078125
        k(  238) = (  -0.5324728  -0.0880355  -0.3521420), wk =   0.0078125
        k(  239) = (  -0.5768455  -0.0440178  -0.3961598), wk =   0.0078125
        k(  240) = (  -0.6212183   0.0000000  -0.4401775), wk =   0.0039062
        k(  241) = (  -0.3993546  -0.1320533  -0.2200888), wk =   0.0078125
        k(  242) = (  -0.4437273  -0.0880355  -0.2641065), wk =   0.0078125
        k(  243) = (  -0.4881001  -0.0440178  -0.3081243), wk =   0.0078125
        k(  244) = (  -0.5324728   0.0000000  -0.3521420), wk =   0.0039062
        k(  245) = (  -0.3549819  -0.0880355  -0.1760710), wk =   0.0078125
        k(  246) = (  -0.3993546  -0.0440178  -0.2200888), wk =   0.0078125
        k(  247) = (  -0.4437273  -0.0000000  -0.2641065), wk =   0.0039062
        k(  248) = (  -0.3106091  -0.0440178  -0.1320533), wk =   0.0078125
        k(  249) = (  -0.3549819   0.0000000  -0.1760710), wk =   0.0039062
        k(  250) = (  -0.2662364   0.0000000  -0.0880355), wk =   0.0039062
        k(  251) = (  -0.2662364   0.0000000   0.0000000), wk =   0.0009766
        k(  252) = (  -0.3106091   0.0440178  -0.0440178), wk =   0.0039062
        k(  253) = (  -0.3549819   0.0880355  -0.0880355), wk =   0.0039062
        k(  254) = (  -0.3993546   0.1320533  -0.1320533), wk =   0.0039062
        k(  255) = (  -0.4437273   0.1760710  -0.1760710), wk =   0.0039062
        k(  256) = (   0.2218637  -0.4841953   0.4841953), wk =   0.0039062
        k(  257) = (   0.1774909  -0.4401775   0.4401775), wk =   0.0039062
        k(  258) = (   0.1331182  -0.3961598   0.3961598), wk =   0.0039062
        k(  259) = (   0.0887455  -0.3521420   0.3521420), wk =   0.0039062
        k(  260) = (   0.0443727  -0.3081243   0.3081243), wk =   0.0039062
        k(  261) = (   0.0000000  -0.2641065   0.2641065), wk =   0.0019531
        k(  262) = (   0.4437273  -0.1760710   0.7042840), wk =   0.0039062
        k(  263) = (   0.3993546  -0.1320533   0.6602663), wk =   0.0078125
        k(  264) = (   0.3549819  -0.0880355   0.6162485), wk =   0.0039062
        k(  265) = (   0.0000000   0.3521420   0.2641065), wk =   0.0039062
        k(  266) = (   0.4437273  -0.0880355   0.7042840), wk =   0.0039062
        k(  267) = (   0.3993546  -0.0440178   0.6602663), wk =   0.0078125
        k(  268) = (   0.3549819   0.0000000   0.6162485), wk =   0.0039062
        k(  269) = (  -0.6655910  -0.3081243  -0.3961598), wk =   0.0078125
        k(  270) = (  -0.7099637  -0.2641065  -0.4401775), wk =   0.0039062
        k(  271) = (  -0.2662364  -0.7042840   0.0000000), wk =   0.0019531
        k(  272) = (  -0.6212183  -0.2641065  -0.3521420), wk =   0.0078125
        k(  273) = (  -0.6655910  -0.2200888  -0.3961598), wk =   0.0078125
        k(  274) = (  -0.7099637  -0.1760710  -0.4401775), wk =   0.0039062
        k(  275) = (  -0.5768455  -0.2200888  -0.3081243), wk =   0.0078125
        k(  276) = (  -0.6212183  -0.1760710  -0.3521420), wk =   0.0078125
        k(  277) = (  -0.6655910  -0.1320533  -0.3961598), wk =   0.0078125
        k(  278) = (  -0.7099637  -0.0880355  -0.4401775), wk =   0.0039062
        k(  279) = (  -0.5324728  -0.1760710  -0.2641065), wk =   0.0078125
        k(  280) = (  -0.5768455  -0.1320533  -0.3081243), wk =   0.0078125
        k(  281) = (  -0.6212183  -0.0880355  -0.3521420), wk =   0.0078125
        k(  282) = (  -0.6655910  -0.0440178  -0.3961598), wk =   0.0078125
        k(  283) = (   0.0000000  -0.7042840   0.2641065), wk =   0.0019531
        k(  284) = (  -0.4881001  -0.1320533  -0.2200888), wk =   0.0078125
        k(  285) = (  -0.5324728  -0.0880355  -0.2641065), wk =   0.0078125
        k(  286) = (  -0.5768455  -0.0440178  -0.3081243), wk =   0.0078125
        k(  287) = (  -0.6212183   0.0000000  -0.3521420), wk =   0.0039062
        k(  288) = (  -0.4437273  -0.0880355  -0.1760710), wk =   0.0078125
        k(  289) = (  -0.4881001  -0.0440178  -0.2200888), wk =   0.0078125
        k(  290) = (  -0.5324728   0.0000000  -0.2641065), wk =   0.0039062
        k(  291) = (  -0.3993546  -0.0440178  -0.1320533), wk =   0.0078125
        k(  292) = (  -0.4437273  -0.0000000  -0.1760710), wk =   0.0039062
        k(  293) = (  -0.3549819   0.0000000  -0.0880355), wk =   0.0039062
        k(  294) = (  -0.3549819   0.0000000   0.0000000), wk =   0.0009766
        k(  295) = (  -0.3993546   0.0440178  -0.0440178), wk =   0.0039062
        k(  296) = (  -0.4437273   0.0880355  -0.0880355), wk =   0.0039062
        k(  297) = (  -0.4881001   0.1320533  -0.1320533), wk =   0.0039062
        k(  298) = (   0.1774909  -0.5282130   0.5282130), wk =   0.0039062
        k(  299) = (   0.1331182  -0.4841953   0.4841953), wk =   0.0039062
        k(  300) = (   0.0887455  -0.4401775   0.4401775), wk =   0.0039062
        k(  301) = (   0.0443727  -0.3961598   0.3961598), wk =   0.0039062
        k(  302) = (   0.0000000  -0.3521420   0.3521420), wk =   0.0019531
        k(  303) = (  -0.3549819  -0.7042840   0.0000000), wk =   0.0009766
        k(  304) = (  -0.7099637  -0.2641065  -0.3521420), wk =   0.0039062
        k(  305) = (  -0.6655910  -0.2200888  -0.3081243), wk =   0.0078125
        k(  306) = (  -0.7099637  -0.1760710  -0.3521420), wk =   0.0039062
        k(  307) = (  -0.6212183  -0.1760710  -0.2641065), wk =   0.0078125
        k(  308) = (  -0.6655910  -0.1320533  -0.3081243), wk =   0.0078125
        k(  309) = (  -0.7099637  -0.0880355  -0.3521420), wk =   0.0039062
        k(  310) = (  -0.5768455  -0.1320533  -0.2200888), wk =   0.0078125
        k(  311) = (  -0.6212183  -0.0880355  -0.2641065), wk =   0.0078125
        k(  312) = (  -0.6655910  -0.0440178  -0.3081243), wk =   0.0078125
        k(  313) = (   0.0000000  -0.7042840   0.3521420), wk =   0.0019531
        k(  314) = (  -0.5324728  -0.0880355  -0.1760710), wk =   0.0078125
        k(  315) = (  -0.5768455  -0.0440178  -0.2200888), wk =   0.0078125
        k(  316) = (  -0.6212183   0.0000000  -0.2641065), wk =   0.0039062
        k(  317) = (  -0.4881001  -0.0440178  -0.1320533), wk =   0.0078125
        k(  318) = (  -0.5324728   0.0000000  -0.1760710), wk =   0.0039062
        k(  319) = (  -0.4437273   0.0000000  -0.0880355), wk =   0.0039062
        k(  320) = (  -0.4437273   0.0000000   0.0000000), wk =   0.0009766
        k(  321) = (  -0.4881001   0.0440178  -0.0440178), wk =   0.0039062
        k(  322) = (  -0.5324728   0.0880355  -0.0880355), wk =   0.0039062
        k(  323) = (   0.1331182  -0.5722308   0.5722308), wk =   0.0039062
        k(  324) = (   0.0887455  -0.5282130   0.5282130), wk =   0.0039062
        k(  325) = (   0.0443727  -0.4841953   0.4841953), wk =   0.0039062
        k(  326) = (   0.0000000  -0.4401775   0.4401775), wk =   0.0019531
        k(  327) = (  -0.7099637  -0.1760710  -0.2641065), wk =   0.0039062
        k(  328) = (  -0.6655910  -0.1320533  -0.2200888), wk =   0.0078125
        k(  329) = (  -0.7099637  -0.0880355  -0.2641065), wk =   0.0039062
        k(  330) = (  -0.6212183  -0.0880355  -0.1760710), wk =   0.0078125
        k(  331) = (  -0.6655910  -0.0440178  -0.2200888), wk =   0.0078125
        k(  332) = (   0.0000000  -0.7042840   0.4401775), wk =   0.0019531
        k(  333) = (  -0.5768455  -0.0440178  -0.1320533), wk =   0.0078125
        k(  334) = (  -0.6212183   0.0000000  -0.1760710), wk =   0.0039062
        k(  335) = (  -0.5324728   0.0000000  -0.0880355), wk =   0.0039062
        k(  336) = (  -0.5324728   0.0000000   0.0000000), wk =   0.0009766
        k(  337) = (  -0.5768455   0.0440178  -0.0440178), wk =   0.0039062
        k(  338) = (   0.0887455  -0.6162485   0.6162485), wk =   0.0039062
        k(  339) = (   0.0443727  -0.5722308   0.5722308), wk =   0.0039062
        k(  340) = (   0.0000000  -0.5282130   0.5282130), wk =   0.0019531
        k(  341) = (  -0.7099637  -0.0880355  -0.1760710), wk =   0.0039062
        k(  342) = (  -0.6655910  -0.0440178  -0.1320533), wk =   0.0078125
        k(  343) = (   0.0000000  -0.7042840   0.5282130), wk =   0.0019531
        k(  344) = (  -0.6212183   0.0000000  -0.0880355), wk =   0.0039062
        k(  345) = (  -0.6212183   0.0000000   0.0000000), wk =   0.0009766
        k(  346) = (   0.0443727  -0.6602663   0.6602663), wk =   0.0039062
        k(  347) = (   0.0000000  -0.6162485   0.6162485), wk =   0.0019531
        k(  348) = (   0.0000000  -0.7042840   0.6162485), wk =   0.0019531
        k(  349) = (   0.7099637   0.0000000   0.0000000), wk =   0.0004883

                       cryst. coord.
        k(    1) = (   0.0000000   0.0000000   0.0000000), wk =   0.0004883
        k(    2) = (   0.0000000   0.0000000   0.0625000), wk =   0.0039062
        k(    3) = (   0.0000000   0.0000000   0.1250000), wk =   0.0039062
        k(    4) = (   0.0000000   0.0000000   0.1875000), wk =   0.0039062
        k(    5) = (   0.0000000   0.0000000   0.2500000), wk =   0.0039062
        k(    6) = (   0.0000000   0.0000000   0.3125000), wk =   0.0039062
        k(    7) = (   0.0000000   0.0000000   0.3750000), wk =   0.0039062
        k(    8) = (   0.0000000   0.0000000   0.4375000), wk =   0.0039062
        k(    9) = (  -0.0000000   0.0000000  -0.5000000), wk =   0.0019531
        k(   10) = (   0.0000000   0.0625000   0.0625000), wk =   0.0019531
        k(   11) = (   0.0000000   0.0625000   0.1250000), wk =   0.0078125
        k(   12) = (   0.0000000   0.0625000   0.1875000), wk =   0.0078125
        k(   13) = (   0.0000000   0.0625000   0.2500000), wk =   0.0078125
        k(   14) = (   0.0000000   0.0625000   0.3125000), wk =   0.0078125
        k(   15) = (  -0.0000000   0.0625000   0.3750000), wk =   0.0078125
        k(   16) = (   0.0000000   0.0625000   0.4375000), wk =   0.0078125
        k(   17) = (   0.0000000   0.0625000  -0.5000000), wk =   0.0078125
        k(   18) = (  -0.0000000   0.0625000  -0.4375000), wk =   0.0078125
        k(   19) = (   0.0000000   0.0625000  -0.3750000), wk =   0.0078125
        k(   20) = (  -0.0000000   0.0625000  -0.3125000), wk =   0.0078125
        k(   21) = (  -0.0000000   0.0625000  -0.2500000), wk =   0.0078125
        k(   22) = (  -0.0000000   0.0625000  -0.1875000), wk =   0.0078125
        k(   23) = (   0.0000000   0.0625000  -0.1250000), wk =   0.0078125
        k(   24) = (  -0.0000000   0.0625000  -0.0625000), wk =   0.0039062
        k(   25) = (   0.0000000   0.1250000   0.1250000), wk =   0.0019531
        k(   26) = (   0.0000000   0.1250000   0.1875000), wk =   0.0078125
        k(   27) = (   0.0000000   0.1250000   0.2500000), wk =   0.0078125
        k(   28) = (   0.0000000   0.1250000   0.3125000), wk =   0.0078125
        k(   29) = (   0.0000000   0.1250000   0.3750000), wk =   0.0078125
        k(   30) = (   0.0000000   0.1250000   0.4375000), wk =   0.0078125
        k(   31) = (  -0.0000000   0.1250000  -0.5000000), wk =   0.0078125
        k(   32) = (   0.0000000   0.1250000  -0.4375000), wk =   0.0078125
        k(   33) = (  -0.0000000   0.1250000  -0.3750000), wk =   0.0078125
        k(   34) = (   0.0000000   0.1250000  -0.3125000), wk =   0.0078125
        k(   35) = (   0.0000000   0.1250000  -0.2500000), wk =   0.0078125
        k(   36) = (   0.0000000   0.1250000  -0.1875000), wk =   0.0078125
        k(   37) = (  -0.0000000   0.1250000  -0.1250000), wk =   0.0039062
        k(   38) = (   0.0000000   0.1875000   0.1875000), wk =   0.0019531
        k(   39) = (   0.0000000   0.1875000   0.2500000), wk =   0.0078125
        k(   40) = (   0.0000000   0.1875000   0.3125000), wk =   0.0078125
        k(   41) = (   0.0000000   0.1875000   0.3750000), wk =   0.0078125
        k(   42) = (   0.0000000   0.1875000   0.4375000), wk =   0.0078125
        k(   43) = (   0.0000000   0.1875000  -0.5000000), wk =   0.0078125
        k(   44) = (   0.0000000   0.1875000  -0.4375000), wk =   0.0078125
        k(   45) = (   0.0000000   0.1875000  -0.3750000), wk =   0.0078125
        k(   46) = (  -0.0000000   0.1875000  -0.3125000), wk =   0.0078125
        k(   47) = (   0.0000000   0.1875000  -0.2500000), wk =   0.0078125
        k(   48) = (   0.0000000   0.1875000  -0.1875000), wk =   0.0039062
        k(   49) = (   0.0000000   0.2500000   0.2500000), wk =   0.0019531
        k(   50) = (   0.0000000   0.2500000   0.3125000), wk =   0.0078125
        k(   51) = (   0.0000000   0.2500000   0.3750000), wk =   0.0078125
        k(   52) = (   0.0000000   0.2500000   0.4375000), wk =   0.0078125
        k(   53) = (   0.0000000   0.2500000  -0.5000000), wk =   0.0078125
        k(   54) = (   0.0000000   0.2500000  -0.4375000), wk =   0.0078125
        k(   55) = (   0.0000000   0.2500000  -0.3750000), wk =   0.0078125
        k(   56) = (   0.0000000   0.2500000  -0.3125000), wk =   0.0078125
        k(   57) = (  -0.0000000   0.2500000  -0.2500000), wk =   0.0039062
        k(   58) = (   0.0000000   0.3125000   0.3125000), wk =   0.0019531
        k(   59) = (  -0.0000000   0.3125000   0.3750000), wk =   0.0078125
        k(   60) = (   0.0000000   0.3125000   0.4375000), wk =   0.0078125
        k(   61) = (   0.0000000   0.3125000  -0.5000000), wk =   0.0078125
        k(   62) = (   0.0000000   0.3125000  -0.4375000), wk =   0.0078125
        k(   63) = (   0.0000000   0.3125000  -0.3750000), wk =   0.0078125
        k(   64) = (  -0.0000000   0.3125000  -0.3125000), wk =   0.0039062
        k(   65) = (   0.0000000   0.3750000   0.3750000), wk =   0.0019531
        k(   66) = (   0.0000000   0.3750000   0.4375000), wk =   0.0078125
        k(   67) = (   0.0000000   0.3750000  -0.5000000), wk =   0.0078125
        k(   68) = (  -0.0000000   0.3750000  -0.4375000), wk =   0.0078125
        k(   69) = (   0.0000000   0.3750000  -0.3750000), wk =   0.0039062
        k(   70) = (   0.0000000   0.4375000   0.4375000), wk =   0.0019531
        k(   71) = (   0.0000000   0.4375000  -0.5000000), wk =   0.0078125
        k(   72) = (   0.0000000   0.4375000  -0.4375000), wk =   0.0039062
        k(   73) = (   0.0000000  -0.5000000  -0.5000000), wk =   0.0009766
        k(   74) = (   0.0625000   0.0000000   0.0625000), wk =   0.0009766
        k(   75) = (   0.0625000   0.0000000   0.1250000), wk =   0.0039062
        k(   76) = (   0.0625000   0.0000000   0.1875000), wk =   0.0039062
        k(   77) = (   0.0625000   0.0000000   0.2500000), wk =   0.0039062
        k(   78) = (   0.0625000   0.0000000   0.3125000), wk =   0.0039062
        k(   79) = (   0.0625000   0.0000000   0.3750000), wk =   0.0039062
        k(   80) = (   0.0625000   0.0000000   0.4375000), wk =   0.0039062
        k(   81) = (   0.0625000   0.0000000  -0.5000000), wk =   0.0039062
        k(   82) = (   0.0625000   0.0000000  -0.4375000), wk =   0.0039062
        k(   83) = (   0.0625000   0.0000000  -0.3750000), wk =   0.0039062
        k(   84) = (   0.0625000   0.0000000  -0.3125000), wk =   0.0039062
        k(   85) = (   0.0625000   0.0000000  -0.2500000), wk =   0.0039062
        k(   86) = (   0.0625000   0.0000000  -0.1875000), wk =   0.0039062
        k(   87) = (   0.0625000   0.0000000  -0.1250000), wk =   0.0039062
        k(   88) = (   0.0625000   0.0000000  -0.0625000), wk =   0.0019531
        k(   89) = (   0.0625000   0.1250000   0.1875000), wk =   0.0039062
        k(   90) = (   0.0625000   0.1250000   0.2500000), wk =   0.0078125
        k(   91) = (   0.0625000   0.1250000   0.3125000), wk =   0.0078125
        k(   92) = (   0.0625000   0.1250000   0.3750000), wk =   0.0078125
        k(   93) = (   0.0625000   0.1250000   0.4375000), wk =   0.0078125
        k(   94) = (   0.0625000   0.1250000  -0.5000000), wk =   0.0078125
        k(   95) = (   0.0625000   0.1250000  -0.4375000), wk =   0.0039062
        k(   96) = (   0.0625000   0.1875000   0.1250000), wk =   0.0039062
        k(   97) = (   0.0625000   0.1875000   0.2500000), wk =   0.0039062
        k(   98) = (   0.0625000   0.1875000   0.3125000), wk =   0.0078125
        k(   99) = (   0.0625000   0.1875000   0.3750000), wk =   0.0078125
        k(  100) = (   0.0625000   0.1875000   0.4375000), wk =   0.0078125
        k(  101) = (   0.0625000   0.1875000  -0.5000000), wk =   0.0078125
        k(  102) = (   0.0625000   0.1875000  -0.4375000), wk =   0.0078125
        k(  103) = (   0.0625000   0.1875000  -0.3750000), wk =   0.0078125
        k(  104) = (   0.0625000   0.1875000  -0.3125000), wk =   0.0078125
        k(  105) = (   0.0625000   0.1875000  -0.2500000), wk =   0.0078125
        k(  106) = (   0.0625000   0.1875000  -0.1875000), wk =   0.0078125
        k(  107) = (   0.0625000   0.1875000  -0.1250000), wk =   0.0039062
        k(  108) = (   0.0625000   0.2500000   0.1250000), wk =   0.0078125
        k(  109) = (   0.0625000   0.2500000   0.1875000), wk =   0.0039062
        k(  110) = (   0.0625000   0.2500000   0.3125000), wk =   0.0039062
        k(  111) = (   0.0625000   0.2500000   0.3750000), wk =   0.0078125
        k(  112) = (   0.0625000   0.2500000   0.4375000), wk =   0.0078125
        k(  113) = (   0.0625000   0.2500000  -0.5000000), wk =   0.0078125
        k(  114) = (   0.0625000   0.2500000  -0.4375000), wk =   0.0078125
        k(  115) = (   0.0625000   0.2500000  -0.3750000), wk =   0.0078125
        k(  116) = (   0.0625000   0.2500000  -0.3125000), wk =   0.0078125
        k(  117) = (   0.0625000   0.2500000  -0.2500000), wk =   0.0078125
        k(  118) = (   0.0625000   0.2500000  -0.1875000), wk =   0.0039062
        k(  119) = (   0.0625000   0.3125000   0.1250000), wk =   0.0078125
        k(  120) = (   0.0625000   0.3125000   0.1875000), wk =   0.0078125
        k(  121) = (   0.0625000   0.3125000   0.2500000), wk =   0.0039062
        k(  122) = (   0.0625000   0.3125000   0.3750000), wk =   0.0039062
        k(  123) = (   0.0625000   0.3125000   0.4375000), wk =   0.0078125
        k(  124) = (   0.0625000   0.3125000  -0.5000000), wk =   0.0078125
        k(  125) = (   0.0625000   0.3125000  -0.4375000), wk =   0.0078125
        k(  126) = (   0.0625000   0.3125000  -0.3750000), wk =   0.0078125
        k(  127) = (   0.0625000   0.3125000  -0.3125000), wk =   0.0078125
        k(  128) = (   0.0625000   0.3125000  -0.2500000), wk =   0.0039062
        k(  129) = (   0.0625000   0.3750000   0.1250000), wk =   0.0078125
        k(  130) = (   0.0625000   0.3750000   0.1875000), wk =   0.0078125
        k(  131) = (   0.0625000   0.3750000   0.2500000), wk =   0.0078125
        k(  132) = (   0.0625000   0.3750000   0.3125000), wk =   0.0039062
        k(  133) = (   0.0625000   0.3750000   0.4375000), wk =   0.0039062
        k(  134) = (   0.0625000   0.3750000  -0.5000000), wk =   0.0078125
        k(  135) = (   0.0625000   0.3750000  -0.4375000), wk =   0.0078125
        k(  136) = (   0.0625000   0.3750000  -0.3750000), wk =   0.0078125
        k(  137) = (   0.0625000   0.3750000  -0.3125000), wk =   0.0039062
        k(  138) = (   0.0625000   0.4375000   0.1250000), wk =   0.0078125
        k(  139) = (   0.0625000   0.4375000   0.1875000), wk =   0.0078125
        k(  140) = (   0.0625000   0.4375000   0.2500000), wk =   0.0078125
        k(  141) = (   0.0625000   0.4375000   0.3125000), wk =   0.0078125
        k(  142) = (   0.0625000   0.4375000   0.3750000), wk =   0.0039062
        k(  143) = (   0.0625000   0.4375000  -0.5000000), wk =   0.0039062
        k(  144) = (   0.0625000   0.4375000  -0.4375000), wk =   0.0078125
        k(  145) = (   0.0625000   0.4375000  -0.3750000), wk =   0.0039062
        k(  146) = (   0.0625000  -0.5000000   0.1250000), wk =   0.0078125
        k(  147) = (   0.0625000  -0.5000000   0.1875000), wk =   0.0078125
        k(  148) = (   0.0625000  -0.5000000   0.2500000), wk =   0.0078125
        k(  149) = (   0.0625000  -0.5000000   0.3125000), wk =   0.0078125
        k(  150) = (   0.0625000  -0.5000000   0.3750000), wk =   0.0078125
        k(  151) = (   0.0625000  -0.5000000   0.4375000), wk =   0.0039062
        k(  152) = (   0.0625000  -0.5000000  -0.4375000), wk =   0.0019531
        k(  153) = (   0.0625000  -0.4375000   0.1250000), wk =   0.0078125
        k(  154) = (   0.0625000  -0.4375000   0.1875000), wk =   0.0078125
        k(  155) = (   0.0625000  -0.4375000   0.2500000), wk =   0.0078125
        k(  156) = (   0.0625000  -0.4375000   0.3125000), wk =   0.0078125
        k(  157) = (   0.0625000  -0.4375000   0.3750000), wk =   0.0078125
        k(  158) = (   0.0625000  -0.4375000   0.4375000), wk =   0.0078125
        k(  159) = (   0.0625000  -0.4375000  -0.5000000), wk =   0.0019531
        k(  160) = (   0.0625000  -0.3750000   0.1250000), wk =   0.0078125
        k(  161) = (   0.0625000  -0.3750000   0.1875000), wk =   0.0078125
        k(  162) = (   0.0625000  -0.3750000   0.2500000), wk =   0.0078125
        k(  163) = (   0.0625000  -0.3750000   0.3125000), wk =   0.0078125
        k(  164) = (   0.0625000  -0.3750000   0.3750000), wk =   0.0078125
        k(  165) = (   0.0625000  -0.3750000   0.4375000), wk =   0.0039062
        k(  166) = (   0.0625000  -0.3125000   0.1250000), wk =   0.0078125
        k(  167) = (   0.0625000  -0.3125000   0.1875000), wk =   0.0078125
        k(  168) = (   0.0625000  -0.3125000   0.2500000), wk =   0.0078125
        k(  169) = (   0.0625000  -0.3125000   0.3125000), wk =   0.0078125
        k(  170) = (   0.0625000  -0.3125000   0.3750000), wk =   0.0039062
        k(  171) = (   0.0625000  -0.2500000   0.1250000), wk =   0.0078125
        k(  172) = (   0.0625000  -0.2500000   0.1875000), wk =   0.0078125
        k(  173) = (   0.0625000  -0.2500000   0.2500000), wk =   0.0078125
        k(  174) = (   0.0625000  -0.2500000   0.3125000), wk =   0.0039062
        k(  175) = (   0.0625000  -0.1875000   0.1250000), wk =   0.0078125
        k(  176) = (   0.0625000  -0.1875000   0.1875000), wk =   0.0078125
        k(  177) = (   0.0625000  -0.1875000   0.2500000), wk =   0.0039062
        k(  178) = (   0.0625000  -0.1250000   0.1250000), wk =   0.0078125
        k(  179) = (   0.0625000  -0.1250000   0.1875000), wk =   0.0039062
        k(  180) = (   0.0625000  -0.0625000   0.1250000), wk =   0.0039062
        k(  181) = (   0.1250000   0.0000000   0.1250000), wk =   0.0009766
        k(  182) = (   0.1250000   0.0000000   0.1875000), wk =   0.0039062
        k(  183) = (   0.1250000   0.0000000   0.2500000), wk =   0.0039062
        k(  184) = (   0.1250000   0.0000000   0.3125000), wk =   0.0039062
        k(  185) = (   0.1250000   0.0000000   0.3750000), wk =   0.0039062
        k(  186) = (   0.1250000   0.0000000   0.4375000), wk =   0.0039062
        k(  187) = (   0.1250000   0.0000000  -0.5000000), wk =   0.0039062
        k(  188) = (   0.1250000   0.0000000  -0.4375000), wk =   0.0039062
        k(  189) = (   0.1250000   0.0000000  -0.3750000), wk =   0.0039062
        k(  190) = (   0.1250000   0.0000000  -0.3125000), wk =   0.0039062
        k(  191) = (   0.1250000   0.0000000  -0.2500000), wk =   0.0039062
        k(  192) = (   0.1250000   0.0000000  -0.1875000), wk =   0.0039062
        k(  193) = (   0.1250000   0.0000000  -0.1250000), wk =   0.0019531
        k(  194) = (   0.1250000   0.2500000   0.3750000), wk =   0.0039062
        k(  195) = (   0.1250000   0.2500000   0.4375000), wk =   0.0078125
        k(  196) = (   0.1250000   0.2500000  -0.5000000), wk =   0.0078125
        k(  197) = (   0.1250000   0.2500000  -0.4375000), wk =   0.0078125
        k(  198) = (   0.1250000   0.2500000  -0.3750000), wk =   0.0039062
        k(  199) = (   0.1250000   0.3125000   0.1875000), wk =   0.0039062
        k(  200) = (   0.1250000   0.3125000   0.4375000), wk =   0.0039062
        k(  201) = (   0.1250000   0.3125000  -0.5000000), wk =   0.0078125
        k(  202) = (   0.1250000   0.3125000  -0.4375000), wk =   0.0078125
        k(  203) = (   0.1250000   0.3125000  -0.3750000), wk =   0.0078125
        k(  204) = (   0.1250000   0.3125000  -0.3125000), wk =   0.0078125
        k(  205) = (   0.1250000   0.3125000  -0.2500000), wk =   0.0078125
        k(  206) = (   0.1250000   0.3125000  -0.1875000), wk =   0.0039062
        k(  207) = (   0.1250000   0.3750000   0.1875000), wk =   0.0078125
        k(  208) = (   0.1250000   0.3750000   0.2500000), wk =   0.0039062
        k(  209) = (   0.1250000   0.3750000  -0.5000000), wk =   0.0039062
        k(  210) = (   0.1250000   0.3750000  -0.4375000), wk =   0.0078125
        k(  211) = (   0.1250000   0.3750000  -0.3750000), wk =   0.0078125
        k(  212) = (   0.1250000   0.3750000  -0.3125000), wk =   0.0078125
        k(  213) = (   0.1250000   0.3750000  -0.2500000), wk =   0.0039062
        k(  214) = (   0.1250000   0.4375000   0.1875000), wk =   0.0078125
        k(  215) = (   0.1250000   0.4375000   0.2500000), wk =   0.0078125
        k(  216) = (   0.1250000   0.4375000   0.3125000), wk =   0.0039062
        k(  217) = (   0.1250000   0.4375000  -0.4375000), wk =   0.0039062
        k(  218) = (   0.1250000   0.4375000  -0.3750000), wk =   0.0078125
        k(  219) = (   0.1250000   0.4375000  -0.3125000), wk =   0.0039062
        k(  220) = (   0.1250000  -0.5000000   0.1875000), wk =   0.0078125
        k(  221) = (   0.1250000  -0.5000000   0.2500000), wk =   0.0078125
        k(  222) = (   0.1250000  -0.5000000   0.3125000), wk =   0.0078125
        k(  223) = (   0.1250000  -0.5000000   0.3750000), wk =   0.0039062
        k(  224) = (   0.1250000  -0.5000000  -0.3750000), wk =   0.0019531
        k(  225) = (   0.1250000  -0.4375000   0.1875000), wk =   0.0078125
        k(  226) = (   0.1250000  -0.4375000   0.2500000), wk =   0.0078125
        k(  227) = (   0.1250000  -0.4375000   0.3125000), wk =   0.0078125
        k(  228) = (   0.1250000  -0.4375000   0.3750000), wk =   0.0078125
        k(  229) = (   0.1250000  -0.4375000   0.4375000), wk =   0.0039062
        k(  230) = (   0.1250000  -0.3750000   0.1875000), wk =   0.0078125
        k(  231) = (   0.1250000  -0.3750000   0.2500000), wk =   0.0078125
        k(  232) = (   0.1250000  -0.3750000   0.3125000), wk =   0.0078125
        k(  233) = (   0.1250000  -0.3750000   0.3750000), wk =   0.0078125
        k(  234) = (   0.1250000  -0.3750000   0.4375000), wk =   0.0078125
        k(  235) = (   0.1250000  -0.3750000  -0.5000000), wk =   0.0019531
        k(  236) = (   0.1250000  -0.3125000   0.1875000), wk =   0.0078125
        k(  237) = (   0.1250000  -0.3125000   0.2500000), wk =   0.0078125
        k(  238) = (   0.1250000  -0.3125000   0.3125000), wk =   0.0078125
        k(  239) = (   0.1250000  -0.3125000   0.3750000), wk =   0.0078125
        k(  240) = (   0.1250000  -0.3125000   0.4375000), wk =   0.0039062
        k(  241) = (   0.1250000  -0.2500000   0.1875000), wk =   0.0078125
        k(  242) = (   0.1250000  -0.2500000   0.2500000), wk =   0.0078125
        k(  243) = (   0.1250000  -0.2500000   0.3125000), wk =   0.0078125
        k(  244) = (   0.1250000  -0.2500000   0.3750000), wk =   0.0039062
        k(  245) = (   0.1250000  -0.1875000   0.1875000), wk =   0.0078125
        k(  246) = (   0.1250000  -0.1875000   0.2500000), wk =   0.0078125
        k(  247) = (   0.1250000  -0.1875000   0.3125000), wk =   0.0039062
        k(  248) = (   0.1250000  -0.1250000   0.1875000), wk =   0.0078125
        k(  249) = (   0.1250000  -0.1250000   0.2500000), wk =   0.0039062
        k(  250) = (   0.1250000  -0.0625000   0.1875000), wk =   0.0039062
        k(  251) = (   0.1875000   0.0000000   0.1875000), wk =   0.0009766
        k(  252) = (   0.1875000   0.0000000   0.2500000), wk =   0.0039062
        k(  253) = (   0.1875000   0.0000000   0.3125000), wk =   0.0039062
        k(  254) = (   0.1875000   0.0000000   0.3750000), wk =   0.0039062
        k(  255) = (   0.1875000   0.0000000   0.4375000), wk =   0.0039062
        k(  256) = (   0.1875000   0.0000000  -0.5000000), wk =   0.0039062
        k(  257) = (   0.1875000   0.0000000  -0.4375000), wk =   0.0039062
        k(  258) = (   0.1875000   0.0000000  -0.3750000), wk =   0.0039062
        k(  259) = (   0.1875000   0.0000000  -0.3125000), wk =   0.0039062
        k(  260) = (   0.1875000   0.0000000  -0.2500000), wk =   0.0039062
        k(  261) = (   0.1875000   0.0000000  -0.1875000), wk =   0.0019531
        k(  262) = (   0.1875000   0.3750000  -0.4375000), wk =   0.0039062
        k(  263) = (   0.1875000   0.3750000  -0.3750000), wk =   0.0078125
        k(  264) = (   0.1875000   0.3750000  -0.3125000), wk =   0.0039062
        k(  265) = (   0.1875000   0.4375000   0.2500000), wk =   0.0039062
        k(  266) = (   0.1875000   0.4375000  -0.3750000), wk =   0.0039062
        k(  267) = (   0.1875000   0.4375000  -0.3125000), wk =   0.0078125
        k(  268) = (   0.1875000   0.4375000  -0.2500000), wk =   0.0039062
        k(  269) = (   0.1875000  -0.5000000   0.2500000), wk =   0.0078125
        k(  270) = (   0.1875000  -0.5000000   0.3125000), wk =   0.0039062
        k(  271) = (   0.1875000  -0.5000000  -0.3125000), wk =   0.0019531
        k(  272) = (   0.1875000  -0.4375000   0.2500000), wk =   0.0078125
        k(  273) = (   0.1875000  -0.4375000   0.3125000), wk =   0.0078125
        k(  274) = (   0.1875000  -0.4375000   0.3750000), wk =   0.0039062
        k(  275) = (   0.1875000  -0.3750000   0.2500000), wk =   0.0078125
        k(  276) = (   0.1875000  -0.3750000   0.3125000), wk =   0.0078125
        k(  277) = (   0.1875000  -0.3750000   0.3750000), wk =   0.0078125
        k(  278) = (   0.1875000  -0.3750000   0.4375000), wk =   0.0039062
        k(  279) = (   0.1875000  -0.3125000   0.2500000), wk =   0.0078125
        k(  280) = (   0.1875000  -0.3125000   0.3125000), wk =   0.0078125
        k(  281) = (   0.1875000  -0.3125000   0.3750000), wk =   0.0078125
        k(  282) = (   0.1875000  -0.3125000   0.4375000), wk =   0.0078125
        k(  283) = (   0.1875000  -0.3125000  -0.5000000), wk =   0.0019531
        k(  284) = (   0.1875000  -0.2500000   0.2500000), wk =   0.0078125
        k(  285) = (   0.1875000  -0.2500000   0.3125000), wk =   0.0078125
        k(  286) = (   0.1875000  -0.2500000   0.3750000), wk =   0.0078125
        k(  287) = (   0.1875000  -0.2500000   0.4375000), wk =   0.0039062
        k(  288) = (   0.1875000  -0.1875000   0.2500000), wk =   0.0078125
        k(  289) = (   0.1875000  -0.1875000   0.3125000), wk =   0.0078125
        k(  290) = (   0.1875000  -0.1875000   0.3750000), wk =   0.0039062
        k(  291) = (   0.1875000  -0.1250000   0.2500000), wk =   0.0078125
        k(  292) = (   0.1875000  -0.1250000   0.3125000), wk =   0.0039062
        k(  293) = (   0.1875000  -0.0625000   0.2500000), wk =   0.0039062
        k(  294) = (   0.2500000   0.0000000   0.2500000), wk =   0.0009766
        k(  295) = (   0.2500000   0.0000000   0.3125000), wk =   0.0039062
        k(  296) = (   0.2500000   0.0000000   0.3750000), wk =   0.0039062
        k(  297) = (   0.2500000   0.0000000   0.4375000), wk =   0.0039062
        k(  298) = (   0.2500000   0.0000000  -0.5000000), wk =   0.0039062
        k(  299) = (   0.2500000   0.0000000  -0.4375000), wk =   0.0039062
        k(  300) = (   0.2500000   0.0000000  -0.3750000), wk =   0.0039062
        k(  301) = (   0.2500000   0.0000000  -0.3125000), wk =   0.0039062
        k(  302) = (   0.2500000   0.0000000  -0.2500000), wk =   0.0019531
        k(  303) = (   0.2500000  -0.5000000  -0.2500000), wk =   0.0009766
        k(  304) = (   0.2500000  -0.4375000   0.3125000), wk =   0.0039062
        k(  305) = (   0.2500000  -0.3750000   0.3125000), wk =   0.0078125
        k(  306) = (   0.2500000  -0.3750000   0.3750000), wk =   0.0039062
        k(  307) = (   0.2500000  -0.3125000   0.3125000), wk =   0.0078125
        k(  308) = (   0.2500000  -0.3125000   0.3750000), wk =   0.0078125
        k(  309) = (   0.2500000  -0.3125000   0.4375000), wk =   0.0039062
        k(  310) = (   0.2500000  -0.2500000   0.3125000), wk =   0.0078125
        k(  311) = (   0.2500000  -0.2500000   0.3750000), wk =   0.0078125
        k(  312) = (   0.2500000  -0.2500000   0.4375000), wk =   0.0078125
        k(  313) = (   0.2500000  -0.2500000  -0.5000000), wk =   0.0019531
        k(  314) = (   0.2500000  -0.1875000   0.3125000), wk =   0.0078125
        k(  315) = (   0.2500000  -0.1875000   0.3750000), wk =   0.0078125
        k(  316) = (   0.2500000  -0.1875000   0.4375000), wk =   0.0039062
        k(  317) = (   0.2500000  -0.1250000   0.3125000), wk =   0.0078125
        k(  318) = (   0.2500000  -0.1250000   0.3750000), wk =   0.0039062
        k(  319) = (   0.2500000  -0.0625000   0.3125000), wk =   0.0039062
        k(  320) = (   0.3125000   0.0000000   0.3125000), wk =   0.0009766
        k(  321) = (   0.3125000   0.0000000   0.3750000), wk =   0.0039062
        k(  322) = (   0.3125000   0.0000000   0.4375000), wk =   0.0039062
        k(  323) = (   0.3125000   0.0000000  -0.5000000), wk =   0.0039062
        k(  324) = (   0.3125000   0.0000000  -0.4375000), wk =   0.0039062
        k(  325) = (   0.3125000   0.0000000  -0.3750000), wk =   0.0039062
        k(  326) = (   0.3125000   0.0000000  -0.3125000), wk =   0.0019531
        k(  327) = (   0.3125000  -0.3125000   0.3750000), wk =   0.0039062
        k(  328) = (   0.3125000  -0.2500000   0.3750000), wk =   0.0078125
        k(  329) = (   0.3125000  -0.2500000   0.4375000), wk =   0.0039062
        k(  330) = (   0.3125000  -0.1875000   0.3750000), wk =   0.0078125
        k(  331) = (   0.3125000  -0.1875000   0.4375000), wk =   0.0078125
        k(  332) = (   0.3125000  -0.1875000  -0.5000000), wk =   0.0019531
        k(  333) = (   0.3125000  -0.1250000   0.3750000), wk =   0.0078125
        k(  334) = (   0.3125000  -0.1250000   0.4375000), wk =   0.0039062
        k(  335) = (   0.3125000  -0.0625000   0.3750000), wk =   0.0039062
        k(  336) = (   0.3750000   0.0000000   0.3750000), wk =   0.0009766
        k(  337) = (   0.3750000   0.0000000   0.4375000), wk =   0.0039062
        k(  338) = (   0.3750000   0.0000000  -0.5000000), wk =   0.0039062
        k(  339) = (   0.3750000   0.0000000  -0.4375000), wk =   0.0039062
        k(  340) = (   0.3750000   0.0000000  -0.3750000), wk =   0.0019531
        k(  341) = (   0.3750000  -0.1875000   0.4375000), wk =   0.0039062
        k(  342) = (   0.3750000  -0.1250000   0.4375000), wk =   0.0078125
        k(  343) = (   0.3750000  -0.1250000  -0.5000000), wk =   0.0019531
        k(  344) = (   0.3750000  -0.0625000   0.4375000), wk =   0.0039062
        k(  345) = (   0.4375000   0.0000000   0.4375000), wk =   0.0009766
        k(  346) = (   0.4375000   0.0000000  -0.5000000), wk =   0.0039062
        k(  347) = (   0.4375000   0.0000000  -0.4375000), wk =   0.0019531
        k(  348) = (   0.4375000  -0.0625000  -0.5000000), wk =   0.0019531
        k(  349) = (  -0.5000000   0.0000000  -0.5000000), wk =   0.0004883

     Dense  grid:     3527 G-vectors     FFT dimensions: (  24,  24,  24)

     Dynamical RAM for                 wfc:       0.01 MB

     Dynamical RAM for     wfc (w. buffer):       1.76 MB

     Dynamical RAM for           str. fact:       0.01 MB

     Dynamical RAM for           local pot:       0.00 MB

     Dynamical RAM for          nlocal pot:       0.00 MB

     Dynamical RAM for                qrad:       0.09 MB

     Dynamical RAM for          rho,v,vnew:       0.06 MB

     Dynamical RAM for               rhoin:       0.02 MB

     Dynamical RAM for            rho*nmix:       0.11 MB

     Dynamical RAM for           G-vectors:       0.03 MB

     Dynamical RAM for          h,s,v(r/c):       0.01 MB

     Dynamical RAM for          <psi|beta>:       0.00 MB

     Dynamical RAM for                 psi:       0.01 MB

     Dynamical RAM for                hpsi:       0.01 MB

     Dynamical RAM for      wfcinit/wfcrot:       0.01 MB

     Estimated static dynamical RAM per process >       2.05 MB

     Estimated max dynamical RAM per process >       2.18 MB

     Estimated total dynamical RAM >      17.46 MB

     Initial potential from superposition of free atoms

     starting charge       2.9979, renormalised to       3.0000

     negative rho (up, down):  2.143E-05 0.000E+00
     Starting wfcs are    4 randomized atomic wfcs +    2 random wfcs

     total cpu time spent up to now is        0.2 secs

     Self-consistent Calculation

     iteration #  1     ecut=    40.00 Ry     beta= 0.70
     Davidson diagonalization with overlap

---- Real-time Memory Report at c_bands before calling an iterative solver
            55 MiB given to the printing process from OS
             0 MiB allocation reported by mallinfo(arena+hblkhd)
         11592 MiB available memory on the node where the printing process lives
------------------
     ethr =  1.00E-02,  avg # of iterations =  5.7

     Threshold (ethr) on eigenvalues was too large:
     Diagonalizing with lowered threshold

     Davidson diagonalization with overlap

---- Real-time Memory Report at c_bands before calling an iterative solver
            57 MiB given to the printing process from OS
             0 MiB allocation reported by mallinfo(arena+hblkhd)
         11588 MiB available memory on the node where the printing process lives
------------------
     ethr =  1.92E-04,  avg # of iterations =  1.9

     negative rho (up, down):  4.398E-06 0.000E+00

     total cpu time spent up to now is        1.3 secs

     total energy              =      -4.19080448 Ry
     estimated scf accuracy    <       0.00573747 Ry

     iteration #  2     ecut=    40.00 Ry     beta= 0.70
     Davidson diagonalization with overlap

---- Real-time Memory Report at c_bands before calling an iterative solver
            57 MiB given to the printing process from OS
             0 MiB allocation reported by mallinfo(arena+hblkhd)
         11590 MiB available memory on the node where the printing process lives
------------------
     ethr =  1.91E-04,  avg # of iterations =  1.0

     total cpu time spent up to now is        1.7 secs

     total energy              =      -4.19084385 Ry
     estimated scf accuracy    <       0.00044390 Ry

     iteration #  3     ecut=    40.00 Ry     beta= 0.70
     Davidson diagonalization with overlap

---- Real-time Memory Report at c_bands before calling an iterative solver
            57 MiB given to the printing process from OS
             0 MiB allocation reported by mallinfo(arena+hblkhd)
         11590 MiB available memory on the node where the printing process lives
------------------
     ethr =  1.48E-05,  avg # of iterations =  2.0

     total cpu time spent up to now is        2.1 secs

     total energy              =      -4.19084707 Ry
     estimated scf accuracy    <       0.00000031 Ry

     iteration #  4     ecut=    40.00 Ry     beta= 0.70
     Davidson diagonalization with overlap

---- Real-time Memory Report at c_bands before calling an iterative solver
            58 MiB given to the printing process from OS
             0 MiB allocation reported by mallinfo(arena+hblkhd)
         11590 MiB available memory on the node where the printing process lives
------------------
     c_bands:  1 eigenvalues not converged
     ethr =  1.02E-08,  avg # of iterations =  2.2

     total cpu time spent up to now is        2.5 secs

     total energy              =      -4.19084711 Ry
     estimated scf accuracy    <          5.9E-09 Ry

     iteration #  5     ecut=    40.00 Ry     beta= 0.70
     Davidson diagonalization with overlap

---- Real-time Memory Report at c_bands before calling an iterative solver
            58 MiB given to the printing process from OS
             0 MiB allocation reported by mallinfo(arena+hblkhd)
         11596 MiB available memory on the node where the printing process lives
------------------
     ethr =  1.97E-10,  avg # of iterations =  1.4

     total cpu time spent up to now is        2.8 secs

     total energy              =      -4.19084711 Ry
     estimated scf accuracy    <          9.5E-12 Ry

     iteration #  6     ecut=    40.00 Ry     beta= 0.70
     Davidson diagonalization with overlap

---- Real-time Memory Report at c_bands before calling an iterative solver
            58 MiB given to the printing process from OS
             0 MiB allocation reported by mallinfo(arena+hblkhd)
         11813 MiB available memory on the node where the printing process lives
------------------
     ethr =  3.17E-13,  avg # of iterations =  2.2

     total cpu time spent up to now is        3.3 secs

     total energy              =      -4.19084711 Ry
     estimated scf accuracy    <          1.5E-12 Ry

     iteration #  7     ecut=    40.00 Ry     beta= 0.70
     Davidson diagonalization with overlap

---- Real-time Memory Report at c_bands before calling an iterative solver
            58 MiB given to the printing process from OS
             0 MiB allocation reported by mallinfo(arena+hblkhd)
         11815 MiB available memory on the node where the printing process lives
------------------
     ethr =  1.00E-13,  avg # of iterations =  1.0

     total cpu time spent up to now is        3.6 secs

     End of self-consistent calculation

          k = 0.0000 0.0000 0.0000 (   459 PWs)   bands (ev):

    -3.1386  21.4282  21.4282  21.5227  22.9160  22.9423

     occupation numbers 
     1.0000   0.0000   0.0000   0.0000   0.0000   0.0000

          k =-0.0444 0.0440-0.0440 (   443 PWs)   bands (ev):

    -3.0257  19.5884  21.0318  21.0962  23.4926  23.5101

     occupation numbers 
     1.0000   0.0000   0.0000   0.0000   0.0000   0.0000

          k =-0.0887 0.0880-0.0880 (   446 PWs)   bands (ev):

    -2.6884  16.9943  20.4356  20.5122  23.6095  24.5405

     occupation numbers 
     1.0000   0.0000   0.0000   0.0000   0.0000   0.0000

          k =-0.1331 0.1321-0.1321 (   452 PWs)   bands (ev):

    -2.1288  14.4337  19.9526  20.0467  23.4395  24.6616

     occupation numbers 
     1.0000   0.0000   0.0000   0.0000   0.0000   0.0000

          k =-0.1775 0.1761-0.1761 (   446 PWs)   bands (ev):

    -1.3508  11.9934  19.6325  19.7456  23.2977  23.5449

     occupation numbers 
     1.0000   0.0000   0.0000   0.0000   0.0000   0.0000

          k =-0.2219 0.2201-0.2201 (   444 PWs)   bands (ev):

    -0.3597   9.7017  19.4872  19.6198  22.4377  22.6858

     occupation numbers 
     1.0000   0.0000   0.0000   0.0000   0.0000   0.0000

          k =-0.2662 0.2641-0.2641 (   435 PWs)   bands (ev):

     0.8383   7.5730  19.5212  19.6733  21.4891  21.7191

     occupation numbers 
     1.0000   1.0002   0.0000   0.0000   0.0000   0.0000

          k =-0.3106 0.3081-0.3081 (   436 PWs)   bands (ev):

     2.2349   5.6175  19.7368  19.9086  20.7202  20.9310

     occupation numbers 
     1.0000   1.0000   0.0000   0.0000   0.0000   0.0000

          k = 0.3550-0.3521 0.3521 (   434 PWs)   bands (ev):

     3.6982   3.9680  20.1331  20.1390  20.3233  20.3315

     occupation numbers 
     1.0000   1.0000   0.0000   0.0000   0.0000   0.0000

          k = 0.0000 0.0880 0.0000 (   435 PWs)   bands (ev):

    -2.9889  20.1916  20.2656  20.4491  22.6353  24.3943

     occupation numbers 
     1.0000   0.0000   0.0000   0.0000   0.0000   0.0000

          k =-0.0444 0.1321-0.0440 (   442 PWs)   bands (ev):

    -2.7274  17.8967  19.5039  20.5649  22.8538  24.8144

     occupation numbers 
     1.0000   0.0000   0.0000   0.0000   0.0000   0.0000

          k =-0.0887 0.1761-0.0880 (   451 PWs)   bands (ev):

    -2.2428  15.3446  18.9477  20.2962  23.2634  24.2963

     occupation numbers 
     1.0000   0.0000   0.0000   0.0000   0.0000   0.0000

          k =-0.1331 0.2201-0.1321 (   450 PWs)   bands (ev):

    -1.5386  12.8744  18.5688  20.0032  22.0987  24.4651

     occupation numbers 
     1.0000   0.0000   0.0000   0.0000   0.0000   0.0000

          k =-0.1775 0.2641-0.1761 (   443 PWs)   bands (ev):

    -0.6195  10.5386  18.3699  19.8349  20.9113  24.3930

     occupation numbers 
     1.0000   0.0000   0.0000   0.0000   0.0000   0.0000

          k =-0.2219 0.3081-0.2201 (   440 PWs)   bands (ev):

     0.5084   8.3584  18.3521  19.7554  19.9676  23.3816

     occupation numbers 
     1.0000   0.7711   0.0000   0.0000   0.0000   0.0000

          k =-0.2662 0.3521-0.2641 (   441 PWs)   bands (ev):

     1.8378   6.3465  18.5166  19.0182  20.0454  22.5426

     occupation numbers 
     1.0000   1.0000   0.0000   0.0000   0.0000   0.0000

          k = 0.3994-0.3081 0.3962 (   444 PWs)   bands (ev):

     3.3521   4.5211  18.3658  18.8661  20.4100  21.8831

     occupation numbers 
     1.0000   1.0000   0.0000   0.0000   0.0000   0.0000

          k = 0.3550-0.2641 0.3521 (   445 PWs)   bands (ev):

     2.8411   5.0925  17.8996  19.3995  20.9637  21.4073

     occupation numbers 
     1.0000   1.0000   0.0000   0.0000   0.0000   0.0000

          k = 0.3106-0.2201 0.3081 (   439 PWs)   bands (ev):

     1.3825   6.9832  17.6211  20.1169  21.1158  21.7022

     occupation numbers 
     1.0000   1.0000   0.0000   0.0000   0.0000   0.0000

          k = 0.2662-0.1761 0.2641 (   442 PWs)   bands (ev):

     0.1179   9.0506  17.5308  20.9135  21.1122  22.6136

     occupation numbers 
     1.0000   0.0003   0.0000   0.0000   0.0000   0.0000

          k = 0.2219-0.1321 0.2201 (   445 PWs)   bands (ev):

    -0.9426  11.2813  17.6282  21.0443  22.1256  23.6454

     occupation numbers 
     1.0000   0.0000   0.0000   0.0000   0.0000   0.0000

          k = 0.1775-0.0880 0.1761 (   449 PWs)   bands (ev):

    -1.7922  13.6584  17.9138  21.2757  23.3147  24.0564

     occupation numbers 
     1.0000   0.0000   0.0000   0.0000   0.0000   0.0000

          k = 0.1331-0.0440 0.1321 (   449 PWs)   bands (ev):

    -2.4252  16.1404  18.3975  21.6249  23.7413  24.1433

     occupation numbers 
     1.0000   0.0000   0.0000   0.0000   0.0000   0.0000

          k = 0.0887 0.0000 0.0880 (   437 PWs)   bands (ev):

    -2.8373  18.4648  19.2535  21.7684  23.1031  23.9943

     occupation numbers 
     1.0000   0.0000   0.0000   0.0000   0.0000   0.0000

          k = 0.0000 0.1761 0.0000 (   443 PWs)   bands (ev):

    -2.5419  18.6585  18.7264  18.8217  21.8765  23.4459

     occupation numbers 
     1.0000   0.0000   0.0000   0.0000   0.0000   0.0000

          k =-0.0444 0.2201-0.0440 (   451 PWs)   bands (ev):

    -2.1334  16.3571  18.0622  19.2021  21.7156  22.0897

     occupation numbers 
     1.0000   0.0000   0.0000   0.0000   0.0000   0.0000

          k =-0.0887 0.2641-0.0880 (   449 PWs)   bands (ev):

    -1.5046  13.9082  17.6155  19.1376  20.3193  23.0846

     occupation numbers 
     1.0000   0.0000   0.0000   0.0000   0.0000   0.0000

          k =-0.1331 0.3081-0.1321 (   444 PWs)   bands (ev):

    -0.6599  11.5510  17.3514  18.8037  19.2254  24.5640

     occupation numbers 
     1.0000   0.0000   0.0000   0.0000   0.0000   0.0000

          k =-0.1775 0.3521-0.1761 (   443 PWs)   bands (ev):

     0.3951   9.3322  17.2695  17.8376  19.0576  25.2835

     occupation numbers 
     1.0000   0.0000   0.0000   0.0000   0.0000   0.0000

          k =-0.2219 0.3962-0.2201 (   442 PWs)   bands (ev):

     1.6535   7.2726  16.9309  17.3717  19.1851  24.4001

     occupation numbers 
     1.0000   1.0000   0.0000   0.0000   0.0000   0.0000

          k = 0.4437-0.2641 0.4402 (   444 PWs)   bands (ev):

     3.1045   5.3878  16.2060  17.6561  19.5090  23.6841

     occupation numbers 
     1.0000   1.0000   0.0000   0.0000   0.0000   0.0000

          k = 0.3994-0.2201 0.3962 (   446 PWs)   bands (ev):

     3.6460   4.7813  15.6715  18.1257  20.0257  23.1476

     occupation numbers 
     1.0000   1.0000   0.0000   0.0000   0.0000   0.0000

          k = 0.3550-0.1761 0.3521 (   441 PWs)   bands (ev):

     2.1371   6.5930  15.3320  18.7808  20.7314  22.7938

     occupation numbers 
     1.0000   1.0000   0.0000   0.0000   0.0000   0.0000

          k = 0.3106-0.1321 0.3081 (   441 PWs)   bands (ev):

     0.8099   8.5876  15.1918  19.6202  21.6192  22.6224

     occupation numbers 
     1.0000   0.2042   0.0000   0.0000   0.0000   0.0000

          k = 0.2662-0.0880 0.2641 (   445 PWs)   bands (ev):

    -0.3168  10.7349  15.2603  20.6356  22.6287  22.6775

     occupation numbers 
     1.0000   0.0000   0.0000   0.0000   0.0000   0.0000

          k = 0.2219-0.0440 0.2201 (   448 PWs)   bands (ev):

    -1.2353  12.9815  15.5750  21.7915  22.7796  23.8834

     occupation numbers 
     1.0000   0.0000   0.0000   0.0000   0.0000   0.0000

          k = 0.1775 0.0000 0.1761 (   449 PWs)   bands (ev):

    -1.9397  15.0226  16.4101  22.6439  22.9405  24.3270

     occupation numbers 
     1.0000   0.0000   0.0000   0.0000   0.0000   0.0000

          k = 0.0000 0.2641 0.0000 (   447 PWs)   bands (ev):

    -1.8015  17.2991  17.3328  17.3969  20.0622  20.9423

     occupation numbers 
     1.0000   0.0000   0.0000   0.0000   0.0000   0.0000

          k =-0.0444 0.3081-0.0440 (   446 PWs)   bands (ev):

    -1.2493  15.0449  16.8521  17.8868  18.5479  21.0510

     occupation numbers 
     1.0000   0.0000   0.0000   0.0000   0.0000   0.0000

          k =-0.0887 0.3521-0.0880 (   444 PWs)   bands (ev):

    -0.4806  12.7162  16.5242  17.0695  18.1070  22.1587

     occupation numbers 
     1.0000   0.0000   0.0000   0.0000   0.0000   0.0000

          k =-0.1331 0.3962-0.1321 (   443 PWs)   bands (ev):

     0.4992  10.4806  15.9049  16.3798  18.0916  23.7771

     occupation numbers 
     1.0000   0.0000   0.0000   0.0000   0.0000   0.0000

          k =-0.1775 0.4402-0.1761 (   443 PWs)   bands (ev):

     1.6835   8.3858  14.9145  16.4175  18.1987  25.5939

     occupation numbers 
     1.0000   0.6988   0.0000   0.0000   0.0000   0.0000

          k = 0.4881-0.2201 0.4842 (   443 PWs)   bands (ev):

     3.0629   6.4546  14.1139  16.6385  18.4797  25.6784

     occupation numbers 
     1.0000   1.0000   0.0000   0.0000   0.0000   0.0000

          k = 0.4437-0.1761 0.4402 (   443 PWs)   bands (ev):

     4.4953   4.8325  13.5102  17.0436  18.9503  25.0871

     occupation numbers 
     1.0000   1.0000   0.0000   0.0000   0.0000   0.0000

          k = 0.3994-0.1321 0.3962 (   443 PWs)   bands (ev):

     3.0960   6.4021  13.1110  17.6341  19.6119  24.6742

     occupation numbers 
     1.0000   1.0000   0.0000   0.0000   0.0000   0.0000

          k = 0.3550-0.0880 0.3521 (   440 PWs)   bands (ev):

     1.7114   8.3045  12.9316  18.4106  20.4584  24.4394

     occupation numbers 
     1.0000   0.8971   0.0000   0.0000   0.0000   0.0000

          k = 0.3106-0.0440 0.3081 (   439 PWs)   bands (ev):

     0.5224  10.3049  13.0256  19.3720  21.4770  24.3585

     occupation numbers 
     1.0000   0.0000   0.0000   0.0000   0.0000   0.0000

          k = 0.2662 0.0000 0.2641 (   445 PWs)   bands (ev):

    -0.4621  12.0692  13.7112  20.5122  22.6426  24.0974

     occupation numbers 
     1.0000   0.0000   0.0000   0.0000   0.0000   0.0000

          k = 0.0000 0.3521 0.0000 (   442 PWs)   bands (ev):

    -0.7742  16.0146  16.2464  16.3075  16.8423  20.0183

     occupation numbers 
     1.0000   0.0000   0.0000   0.0000   0.0000   0.0000

          k =-0.0444 0.3962-0.0440 (   443 PWs)   bands (ev):

    -0.0830  13.9754  15.3796  15.8855  16.8956  20.1883

     occupation numbers 
     1.0000   0.0000   0.0000   0.0000   0.0000   0.0000

          k =-0.0887 0.4402-0.0880 (   443 PWs)   bands (ev):

     0.8196  11.7736  14.1234  15.6783  17.1451  21.3893

     occupation numbers 
     1.0000   0.0000   0.0000   0.0000   0.0000   0.0000

          k =-0.1331 0.4842-0.1321 (   442 PWs)   bands (ev):

     1.9270   9.6673  13.0531  15.6534  17.2888  23.1325

     occupation numbers 
     1.0000   0.0000   0.0000   0.0000   0.0000   0.0000

          k = 0.5325-0.1761 0.5282 (   443 PWs)   bands (ev):

     3.2300   7.7043  12.1768  15.8111  17.5419  25.1285

     occupation numbers 
     1.0000   1.0022   0.0000   0.0000   0.0000   0.0000

          k = 0.4881-0.1321 0.4842 (   443 PWs)   bands (ev):

     4.7018   5.9210  11.5046  16.1520  17.9676  27.1288

     occupation numbers 
     1.0000   1.0000   0.0000   0.0000   0.0000   0.0000

          k = 0.4437-0.0880 0.4402 (   445 PWs)   bands (ev):

     4.2497   6.4023  11.0544  16.6776  18.5813  26.7502

     occupation numbers 
     1.0000   1.0000   0.0000   0.0000   0.0000   0.0000

          k = 0.3994-0.0440 0.3962 (   439 PWs)   bands (ev):

     2.8160   8.1520  10.8858  17.3890  19.3813  26.4581

     occupation numbers 
     1.0000   1.0771   0.0000   0.0000   0.0000   0.0000

          k = 0.3550 0.0000 0.3521 (   438 PWs)   bands (ev):

     1.5691   9.6589  11.3429  18.2874  20.3553  26.1169

     occupation numbers 
     1.0000   0.0000   0.0000   0.0000   0.0000   0.0000

          k = 0.0000 0.4402 0.0000 (   444 PWs)   bands (ev):

     0.5300  13.8308  15.0024  15.4039  15.4626  19.2166

     occupation numbers 
     1.0000   0.0000   0.0000   0.0000   0.0000   0.0000

          k =-0.0444 0.4842-0.0440 (   441 PWs)   bands (ev):

     1.3538  12.4456  13.2225  15.1630  16.0826  19.4902

     occupation numbers 
     1.0000   0.0000   0.0000   0.0000   0.0000   0.0000

          k =-0.0887 0.5282-0.0880 (   443 PWs)   bands (ev):

     2.3816  10.9580  11.5047  15.0762  16.4568  20.8128

     occupation numbers 
     1.0000   0.0000   0.0000   0.0000   0.0000   0.0000

          k = 0.5768-0.1321 0.5722 (   443 PWs)   bands (ev):

     3.6028   9.0871  10.4567  15.1711  16.7390  22.6840

     occupation numbers 
     1.0000   0.0001   0.0000   0.0000   0.0000   0.0000

          k = 0.5325-0.0880 0.5282 (   441 PWs)   bands (ev):

     4.9938   7.2834   9.7045  15.4485  17.1348  24.8225

     occupation numbers 
     1.0000   1.0000   0.0000   0.0000   0.0000   0.0000

          k = 0.4881-0.0440 0.4842 (   444 PWs)   bands (ev):

     5.5785   6.5512   9.2420  15.9095  17.7028  27.0839

     occupation numbers 
     1.0000   1.0000   0.0000   0.0000   0.0000   0.0000

          k = 0.4437 0.0000 0.4402 (   440 PWs)   bands (ev):

     4.1144   7.7953   9.4178  16.5558  18.4544  28.6618

     occupation numbers 
     1.0000   1.0080   0.0000   0.0000   0.0000   0.0000

          k = 0.0000 0.5282 0.0000 (   446 PWs)   bands (ev):

     2.0970  11.0477  14.2748  14.8043  14.8612  18.6034

     occupation numbers 
     1.0000   0.0000   0.0000   0.0000   0.0000   0.0000

          k =-0.0444 0.5722-0.0440 (   451 PWs)   bands (ev):

     3.0413   9.8118  12.6638  14.6831  15.5423  19.0019

     occupation numbers 
     1.0000   0.0000   0.0000   0.0000   0.0000   0.0000

          k = 0.6212-0.0880 0.6162 (   450 PWs)   bands (ev):

     4.1705   8.7776  10.7706  14.7160  16.0393  20.4566

     occupation numbers 
     1.0000   0.0261   0.0000   0.0000   0.0000   0.0000

          k = 0.5768-0.0440 0.5722 (   439 PWs)   bands (ev):

     5.4316   7.9564   9.0069  14.9306  16.4600  22.4547

     occupation numbers 
     1.0000   1.0427   0.0006   0.0000   0.0000   0.0000

          k = 0.5325 0.0000 0.5282 (   437 PWs)   bands (ev):

     6.4720   7.0207   8.1118  15.3279  16.9972  24.7172

     occupation numbers 
     1.0000   1.0000   1.0833   0.0000   0.0000   0.0000

          k = 0.0000 0.6162 0.0000 (   452 PWs)   bands (ev):

     3.8931   8.5240  13.8367  14.4457  14.5015  18.2199

     occupation numbers 
     1.0000   0.3331   0.0000   0.0000   0.0000   0.0000

          k = 0.6656-0.0440 0.6603 (   448 PWs)   bands (ev):

     4.8908   7.4814  12.3923  14.4437  15.2720  18.7513

     occupation numbers 
     1.0000   1.0000   0.0000   0.0000   0.0000   0.0000

          k = 0.6212 0.0000 0.6162 (   446 PWs)   bands (ev):

     5.6817   7.0369  10.6249  14.5962  15.8993  20.3363

     occupation numbers 
     1.0000   1.0000   0.0000   0.0000   0.0000   0.0000

          k = 0.0000-0.7043 0.0000 (   444 PWs)   bands (ev):

     5.4189   6.7562  13.6905  14.3263  14.3818  18.0898

     occupation numbers 
     1.0000   1.0000   0.0000   0.0000   0.0000   0.0000

          k =-0.0887 0.0000 0.0000 (   443 PWs)   bands (ev):

    -2.9866  20.1727  20.1727  20.4989  22.5980  24.4240

     occupation numbers 
     1.0000   0.0000   0.0000   0.0000   0.0000   0.0000

          k =-0.1331 0.0440-0.0440 (   441 PWs)   bands (ev):

    -2.7225  17.8742  19.4369  20.5571  22.8122  24.8616

     occupation numbers 
     1.0000   0.0000   0.0000   0.0000   0.0000   0.0000

          k =-0.1775 0.0880-0.0880 (   450 PWs)   bands (ev):

    -2.2356  15.3205  18.8684  20.2781  23.4552  24.4065

     occupation numbers 
     1.0000   0.0000   0.0000   0.0000   0.0000   0.0000

          k =-0.2219 0.1321-0.1321 (   447 PWs)   bands (ev):

    -1.5291  12.8506  18.4771  19.9768  22.4263  24.5556

     occupation numbers 
     1.0000   0.0000   0.0000   0.0000   0.0000   0.0000

          k =-0.2662 0.1761-0.1761 (   442 PWs)   bands (ev):

    -0.6078  10.5158  18.2658  19.8010  21.2209  24.2016

     occupation numbers 
     1.0000   0.0000   0.0000   0.0000   0.0000   0.0000

          k =-0.3106 0.2201-0.2201 (   442 PWs)   bands (ev):

     0.5223   8.3370  18.2361  19.7705  20.1961  23.2110

     occupation numbers 
     1.0000   0.8240   0.0000   0.0000   0.0000   0.0000

          k =-0.3550 0.2641-0.2641 (   440 PWs)   bands (ev):

     1.8538   6.3269  18.3891  19.2703  20.0036  22.3875

     occupation numbers 
     1.0000   1.0000   0.0000   0.0000   0.0000   0.0000

          k = 0.3106-0.3962 0.3962 (   447 PWs)   bands (ev):

     3.3695   4.5038  18.5993  18.7262  20.3545  21.7439

     occupation numbers 
     1.0000   1.0000   0.0000   0.0000   0.0000   0.0000

          k = 0.2662-0.3521 0.3521 (   443 PWs)   bands (ev):

     2.8254   5.1123  18.1080  19.2487  20.9004  21.2839

     occupation numbers 
     1.0000   1.0000   0.0000   0.0000   0.0000   0.0000

          k = 0.2219-0.3081 0.3081 (   439 PWs)   bands (ev):

     1.3687   7.0049  17.8036  19.9551  21.0094  21.6311

     occupation numbers 
     1.0000   1.0000   0.0000   0.0000   0.0000   0.0000

          k = 0.1775-0.2641 0.2641 (   443 PWs)   bands (ev):

     0.1062   9.0737  17.6870  20.7771  20.9854  22.5360

     occupation numbers 
     1.0000   0.0002   0.0000   0.0000   0.0000   0.0000

          k = 0.1331-0.2201 0.2201 (   447 PWs)   bands (ev):

    -0.9520  11.3054  17.7584  20.9664  21.9463  23.5629

     occupation numbers 
     1.0000   0.0000   0.0000   0.0000   0.0000   0.0000

          k = 0.0887-0.1761 0.1761 (   449 PWs)   bands (ev):

    -1.7993  13.6822  18.0195  21.2136  23.1329  24.0211

     occupation numbers 
     1.0000   0.0000   0.0000   0.0000   0.0000   0.0000

          k = 0.0444-0.1321 0.1321 (   447 PWs)   bands (ev):

    -2.4300  16.1596  18.4835  21.5741  23.6937  24.1223

     occupation numbers 
     1.0000   0.0000   0.0000   0.0000   0.0000   0.0000

          k = 0.0000-0.0880 0.0880 (   443 PWs)   bands (ev):

    -2.8397  18.4602  19.3386  21.7190  23.1081  23.9730

     occupation numbers 
     1.0000   0.0000   0.0000   0.0000   0.0000   0.0000

          k =-0.0887 0.1761 0.0000 (   451 PWs)   bands (ev):

    -2.3911  16.7739  17.8250  20.9541  22.6454  23.6586

     occupation numbers 
     1.0000   0.0000   0.0000   0.0000   0.0000   0.0000

          k =-0.1331 0.2201-0.0440 (   449 PWs)   bands (ev):

    -1.8332  14.5796  17.0003  21.0660  21.9184  23.6826

     occupation numbers 
     1.0000   0.0000   0.0000   0.0000   0.0000   0.0000

          k =-0.1775 0.2641-0.0880 (   448 PWs)   bands (ev):

    -1.0575  12.2121  16.6055  20.6147  20.9226  24.8475

     occupation numbers 
     1.0000   0.0000   0.0000   0.0000   0.0000   0.0000

          k =-0.2219 0.3081-0.1321 (   444 PWs)   bands (ev):

    -0.0694   9.9489  16.4267  19.4601  20.8562  24.0838

     occupation numbers 
     1.0000   0.0000   0.0000   0.0000   0.0000   0.0000

          k =-0.2662 0.3521-0.1761 (   440 PWs)   bands (ev):

     1.1249   7.8352  16.4417  18.4897  20.9432  23.1159

     occupation numbers 
     1.0000   1.0131   0.0000   0.0000   0.0000   0.0000

          k = 0.3994-0.3081 0.4842 (   439 PWs)   bands (ev):

     2.5168   5.8896  16.6381  17.7191  21.1988  22.3176

     occupation numbers 
     1.0000   1.0000   0.0000   0.0000   0.0000   0.0000

          k = 0.3550-0.2641 0.4402 (   442 PWs)   bands (ev):

     3.9636   4.2579  16.8845  17.2811  21.5163  21.8175

     occupation numbers 
     1.0000   1.0000   0.0000   0.0000   0.0000   0.0000

          k = 0.0000 0.1761 0.0880 (   447 PWs)   bands (ev):

    -2.3934  16.7732  17.9048  20.8853  22.6273  23.6481

     occupation numbers 
     1.0000   0.0000   0.0000   0.0000   0.0000   0.0000

          k =-0.0887 0.2641 0.0000 (   445 PWs)   bands (ev):

    -1.6517  15.3187  16.5086  19.6303  20.2006  21.8995

     occupation numbers 
     1.0000   0.0000   0.0000   0.0000   0.0000   0.0000

          k =-0.1331 0.3081-0.0440 (   444 PWs)   bands (ev):

    -0.9518  13.2590  15.7621  18.7832  19.9323  22.7387

     occupation numbers 
     1.0000   0.0000   0.0000   0.0000   0.0000   0.0000

          k =-0.1775 0.3521-0.0880 (   443 PWs)   bands (ev):

    -0.0383  11.0142  15.4659  17.5533  19.9605  24.2164

     occupation numbers 
     1.0000   0.0000   0.0000   0.0000   0.0000   0.0000

          k =-0.2219 0.3962-0.1321 (   439 PWs)   bands (ev):

     1.0826   8.8724  15.3767  16.5309  20.0415  24.9769

     occupation numbers 
     1.0000   0.0066   0.0000   0.0000   0.0000   0.0000

          k = 0.4437-0.2641 0.5282 (   439 PWs)   bands (ev):

     2.4031   6.8829  15.3192  15.8695  20.2706  24.1943

     occupation numbers 
     1.0000   1.0000   0.0000   0.0000   0.0000   0.0000

          k = 0.3994-0.2201 0.4842 (   441 PWs)   bands (ev):

     3.9027   5.0766  14.8556  16.0047  20.6727  23.5212

     occupation numbers 
     1.0000   1.0000   0.0000   0.0000   0.0000   0.0000

          k = 0.3550-0.1761 0.4402 (   440 PWs)   bands (ev):

     3.3990   5.6381  14.4161  16.5074  21.2507  23.0244

     occupation numbers 
     1.0000   1.0000   0.0000   0.0000   0.0000   0.0000

          k = 0.3106-0.1321 0.3962 (   438 PWs)   bands (ev):

     1.9513   7.5053  14.1585  17.2234  21.9770  22.7323

     occupation numbers 
     1.0000   1.0001   0.0000   0.0000   0.0000   0.0000

          k = 0.2662-0.0880 0.3521 (   440 PWs)   bands (ev):

     0.6946   9.5314  14.1100  18.1345  22.4152  23.0536

     occupation numbers 
     1.0000   0.0000   0.0000   0.0000   0.0000   0.0000

          k = 0.2219-0.0440 0.3081 (   444 PWs)   bands (ev):

    -0.3595  11.6550  14.3195  19.2326  22.4040  23.9690

     occupation numbers 
     1.0000   0.0000   0.0000   0.0000   0.0000   0.0000

          k = 0.1775 0.0000 0.2641 (   445 PWs)   bands (ev):

    -1.2039  13.5580  15.0833  20.5054  22.1036  23.6422

     occupation numbers 
     1.0000   0.0000   0.0000   0.0000   0.0000   0.0000

          k = 0.0444 0.2201 0.1321 (   451 PWs)   bands (ev):

    -1.8379  14.5993  17.0843  20.9795  21.8953  23.6578

     occupation numbers 
     1.0000   0.0000   0.0000   0.0000   0.0000   0.0000

          k = 0.0000 0.2641 0.0880 (   449 PWs)   bands (ev):

    -1.6541  15.3217  16.5848  19.5597  20.1959  21.8825

     occupation numbers 
     1.0000   0.0000   0.0000   0.0000   0.0000   0.0000

          k =-0.0887 0.3521 0.0000 (   449 PWs)   bands (ev):

    -0.6262  14.1186  15.3772  17.0447  18.4742  20.9954

     occupation numbers 
     1.0000   0.0000   0.0000   0.0000   0.0000   0.0000

          k =-0.1331 0.3962-0.0440 (   446 PWs)   bands (ev):

     0.2108  12.1922  14.6884  15.7818  18.9252  21.9146

     occupation numbers 
     1.0000   0.0000   0.0000   0.0000   0.0000   0.0000

          k =-0.1775 0.4402-0.0880 (   441 PWs)   bands (ev):

     1.2559  10.0735  14.2700  14.9050  19.1024  23.5224

     occupation numbers 
     1.0000   0.0000   0.0000   0.0000   0.0000   0.0000

          k = 0.4881-0.2201 0.5722 (   442 PWs)   bands (ev):

     2.5015   8.0589  13.5290  14.7755  19.3223  25.3433

     occupation numbers 
     1.0000   1.0760   0.0000   0.0000   0.0000   0.0000

          k = 0.4437-0.1761 0.5282 (   440 PWs)   bands (ev):

     3.9339   6.2036  12.8263  15.0096  19.6881  25.5332

     occupation numbers 
     1.0000   1.0000   0.0000   0.0000   0.0000   0.0000

          k = 0.3994-0.1321 0.4842 (   438 PWs)   bands (ev):

     4.4692   5.5985  12.3048  15.4658  20.2270  25.0053

     occupation numbers 
     1.0000   1.0000   0.0000   0.0000   0.0000   0.0000

          k = 0.3550-0.0880 0.4402 (   435 PWs)   bands (ev):

     2.9814   7.3598  11.9981  16.1231  20.9431  24.6124

     occupation numbers 
     1.0000   1.0000   0.0000   0.0000   0.0000   0.0000

          k = 0.3106-0.0440 0.3962 (   437 PWs)   bands (ev):

     1.6671   9.2368  11.9672  16.9741  21.8280  24.3322

     occupation numbers 
     1.0000   0.0000   0.0000   0.0000   0.0000   0.0000

          k = 0.2662 0.0000 0.3521 (   444 PWs)   bands (ev):

     0.5508  10.8717  12.5448  18.0132  22.8511  23.8050

     occupation numbers 
     1.0000   0.0000   0.0000   0.0000   0.0000   0.0000

          k = 0.0887 0.2641 0.1761 (   449 PWs)   bands (ev):

    -1.0646  12.2364  16.7095  20.5917  20.8128  24.6875

     occupation numbers 
     1.0000   0.0000   0.0000   0.0000   0.0000   0.0000

          k = 0.0444 0.3081 0.1321 (   445 PWs)   bands (ev):

    -0.9565  13.2797  15.8448  18.7751  19.8425  22.7071

     occupation numbers 
     1.0000   0.0000   0.0000   0.0000   0.0000   0.0000

          k = 0.0000 0.3521 0.0880 (   441 PWs)   bands (ev):

    -0.6285  14.1245  15.4491  17.0436  18.4031  20.9783

     occupation numbers 
     1.0000   0.0000   0.0000   0.0000   0.0000   0.0000

          k =-0.0887 0.4402-0.0000 (   441 PWs)   bands (ev):

     0.6760  13.1808  13.8456  14.7083  17.5611  20.2244

     occupation numbers 
     1.0000   0.0000   0.0000   0.0000   0.0000   0.0000

          k =-0.1331 0.4842-0.0440 (   442 PWs)   bands (ev):

     1.6431  11.3724  12.7239  14.1236  18.1470  21.2514

     occupation numbers 
     1.0000   0.0000   0.0000   0.0000   0.0000   0.0000

          k = 0.5325-0.1761 0.6162 (   442 PWs)   bands (ev):

     2.8102   9.3872  11.7541  14.0388  18.4625  22.9839

     occupation numbers 
     1.0000   0.0000   0.0000   0.0000   0.0000   0.0000

          k = 0.4881-0.1321 0.5722 (   441 PWs)   bands (ev):

     4.1642   7.5106  10.9570  14.2176  18.8182  25.0212

     occupation numbers 
     1.0000   1.0001   0.0000   0.0000   0.0000   0.0000

          k = 0.4437-0.0880 0.5282 (   442 PWs)   bands (ev):

     5.5512   5.9244  10.3727  14.6112  19.3185  26.8653

     occupation numbers 
     1.0000   1.0000   0.0000   0.0000   0.0000   0.0000

          k = 0.3994-0.0440 0.4842 (   439 PWs)   bands (ev):

     4.2062   7.3505  10.0658  15.2061  19.9896  26.6933

     occupation numbers 
     1.0000   1.0000   0.0000   0.0000   0.0000   0.0000

          k = 0.3550 0.0000 0.4402 (   436 PWs)   bands (ev):

     2.8412   8.7328  10.3891  15.9955  20.8324  26.0439

     occupation numbers 
     1.0000   0.0460   0.0000   0.0000   0.0000   0.0000

          k = 0.1331 0.3081 0.2201 (   443 PWs)   bands (ev):

    -0.0787   9.9734  16.5558  19.4361  20.7195  23.8185

     occupation numbers 
     1.0000   0.0000   0.0000   0.0000   0.0000   0.0000

          k = 0.0887 0.3521 0.1761 (   448 PWs)   bands (ev):

    -0.0453  11.0389  15.5688  17.5435  19.8453  24.1570

     occupation numbers 
     1.0000   0.0000   0.0000   0.0000   0.0000   0.0000

          k = 0.0444 0.3962 0.1321 (   443 PWs)   bands (ev):

     0.2062  12.2139  14.7636  15.7832  18.8339  21.8841

     occupation numbers 
     1.0000   0.0000   0.0000   0.0000   0.0000   0.0000

          k = 0.0000 0.4402 0.0880 (   443 PWs)   bands (ev):

     0.6737  13.1891  13.8556  14.7673  17.4899  20.2073

     occupation numbers 
     1.0000   0.0000   0.0000   0.0000   0.0000   0.0000

          k =-0.0887 0.5282 0.0000 (   445 PWs)   bands (ev):

     2.2405  11.1640  12.5090  13.9886  16.9064  19.6386

     occupation numbers 
     1.0000   0.0000   0.0000   0.0000   0.0000   0.0000

          k = 0.5768-0.1321 0.6603 (   446 PWs)   bands (ev):

     3.3248  10.0311  10.9285  13.5656  17.6221  20.7898

     occupation numbers 
     1.0000   0.0000   0.0000   0.0000   0.0000   0.0000

          k = 0.5325-0.0880 0.6162 (   441 PWs)   bands (ev):

     4.5880   8.8110   9.4432  13.6347  18.0715  22.6480

     occupation numbers 
     1.0000   0.0165   0.0000   0.0000   0.0000   0.0000

          k = 0.4881-0.0440 0.5722 (   442 PWs)   bands (ev):

     5.9660   7.1988   8.7207  13.9527  18.5611  24.8245

     occupation numbers 
     1.0000   1.0000   0.0531   0.0000   0.0000   0.0000

          k = 0.4437 0.0000 0.5282 (   443 PWs)   bands (ev):

     5.6100   7.1379   8.7251  14.4803  19.1929  27.0981

     occupation numbers 
     1.0000   1.0000   0.0505   0.0000   0.0000   0.0000

          k = 0.1775 0.3521 0.2641 (   440 PWs)   bands (ev):

     1.1134   7.8586  16.5970  18.4652  20.7776  22.8713

     occupation numbers 
     1.0000   1.0171   0.0000   0.0000   0.0000   0.0000

          k = 0.1331 0.3962 0.2201 (   440 PWs)   bands (ev):

     1.0734   8.8972  15.4999  16.5243  19.8975  24.6846

     occupation numbers 
     1.0000   0.0044   0.0000   0.0000   0.0000   0.0000

          k = 0.0887 0.4402 0.1761 (   445 PWs)   bands (ev):

     1.2490  10.0987  14.3116  14.9592  18.9854  23.4786

     occupation numbers 
     1.0000   0.0000   0.0000   0.0000   0.0000   0.0000

          k = 0.0444 0.4842 0.1321 (   442 PWs)   bands (ev):

     1.6385  11.3946  12.7252  14.1994  18.0552  21.2217

     occupation numbers 
     1.0000   0.0000   0.0000   0.0000   0.0000   0.0000

          k = 0.0000 0.5282 0.0880 (   445 PWs)   bands (ev):

     2.2382  11.1629  12.5189  14.0573  16.8353  19.6215

     occupation numbers 
     1.0000   0.0000   0.0000   0.0000   0.0000   0.0000

          k = 0.6212-0.0880 0.7043 (   448 PWs)   bands (ev):

     4.0331   8.6572  12.1052  13.6004  16.5135  19.2741

     occupation numbers 
     1.0000   0.1068   0.0000   0.0000   0.0000   0.0000

          k = 0.5768-0.0440 0.6603 (   446 PWs)   bands (ev):

     5.1640   7.7533  10.6247  13.3004  17.3584  20.5535

     occupation numbers 
     1.0000   1.0046   0.0000   0.0000   0.0000   0.0000

          k = 0.5325 0.0000 0.6162 (   443 PWs)   bands (ev):

     6.0796   7.4235   8.9664  13.5023  17.9403  22.5342

     occupation numbers 
     1.0000   1.0000   0.0013   0.0000   0.0000   0.0000

          k =-0.4881-0.3081-0.3962 (   444 PWs)   bands (ev):

     2.5032   5.9114  16.8156  17.6984  21.0013  22.0969

     occupation numbers 
     1.0000   1.0000   0.0000   0.0000   0.0000   0.0000

          k =-0.5325-0.2641-0.4402 (   439 PWs)   bands (ev):

     2.3918   6.9065  15.3861  15.9442  20.0963  23.9258

     occupation numbers 
     1.0000   1.0000   0.0000   0.0000   0.0000   0.0000

          k =-0.5768-0.2201-0.4842 (   441 PWs)   bands (ev):

     2.4924   8.0840  13.5304  14.8936  19.1761  25.2208

     occupation numbers 
     1.0000   1.0811   0.0000   0.0000   0.0000   0.0000

          k =-0.6212-0.1761-0.5282 (   441 PWs)   bands (ev):

     2.8035   9.4125  11.7504  14.1396  18.3444  22.9443

     occupation numbers 
     1.0000   0.0000   0.0000   0.0000   0.0000   0.0000

          k =-0.6656-0.1321-0.5722 (   447 PWs)   bands (ev):

     3.3203  10.0297  10.9492  13.6461  17.5301  20.7603

     occupation numbers 
     1.0000   0.0000   0.0000   0.0000   0.0000   0.0000

          k =-0.7100-0.0880-0.6162 (   452 PWs)   bands (ev):

     4.0309   8.6553  12.1160  13.6690  16.4425  19.2568

     occupation numbers 
     1.0000   0.1089   0.0000   0.0000   0.0000   0.0000

          k =-0.0887-0.7043 0.0000 (   452 PWs)   bands (ev):

     5.5513   6.8996  11.9705  13.4723  16.3826  19.1505

     occupation numbers 
     1.0000   1.0000   0.0000   0.0000   0.0000   0.0000

          k =-0.4437-0.2641-0.3521 (   445 PWs)   bands (ev):

     3.9647   4.2613  16.9525  17.3958  21.2748  21.6338

     occupation numbers 
     1.0000   1.0000   0.0000   0.0000   0.0000   0.0000

          k =-0.4881-0.2201-0.3962 (   441 PWs)   bands (ev):

     3.8900   5.0981  14.8539  16.1731  20.4675  23.2770

     occupation numbers 
     1.0000   1.0000   0.0000   0.0000   0.0000   0.0000

          k =-0.5325-0.1761-0.4402 (   442 PWs)   bands (ev):

     3.9230   6.2272  12.8194  15.1608  19.5114  25.2513

     occupation numbers 
     1.0000   1.0000   0.0000   0.0000   0.0000   0.0000

          k =-0.5768-0.1321-0.4842 (   444 PWs)   bands (ev):

     4.1555   7.5355  10.9501  14.3454  18.6707  24.9641

     occupation numbers 
     1.0000   1.0001   0.0000   0.0000   0.0000   0.0000

          k =-0.6212-0.0880-0.5282 (   440 PWs)   bands (ev):

     4.5815   8.8262   9.4477  13.7379  17.9529  22.6099

     occupation numbers 
     1.0000   0.0133   0.0000   0.0000   0.0000   0.0000

          k =-0.6656-0.0440-0.5722 (   447 PWs)   bands (ev):

     5.1597   7.7493  10.6474  13.3815  17.2662  20.5241

     occupation numbers 
     1.0000   1.0043   0.0000   0.0000   0.0000   0.0000

          k = 0.0000-0.7043 0.0880 (   454 PWs)   bands (ev):

     5.5492   6.8975  11.9817  13.5408  16.3117  19.1332

     occupation numbers 
     1.0000   1.0000   0.0000   0.0000   0.0000   0.0000

          k =-0.3994-0.2201-0.3081 (   445 PWs)   bands (ev):

     2.5349   5.8721  16.6216  17.9436  20.9997  22.0858

     occupation numbers 
     1.0000   1.0000   0.0000   0.0000   0.0000   0.0000

          k =-0.4437-0.1761-0.3521 (   439 PWs)   bands (ev):

     3.4191   5.6229  14.4042  16.7108  21.0139  22.8044

     occupation numbers 
     1.0000   1.0000   0.0000   0.0000   0.0000   0.0000

          k =-0.4881-0.1321-0.3962 (   439 PWs)   bands (ev):

     4.4904   5.5863  12.2938  15.6457  20.0196  24.7505

     occupation numbers 
     1.0000   1.0000   0.0000   0.0000   0.0000   0.0000

          k =-0.5325-0.0880-0.4402 (   444 PWs)   bands (ev):

     5.5538   5.9348  10.3629  14.7664  19.1406  26.6245

     occupation numbers 
     1.0000   1.0000   0.0000   0.0000   0.0000   0.0000

          k =-0.5768-0.0440-0.4842 (   442 PWs)   bands (ev):

     5.9581   7.2220   8.7140  14.0820  18.4130  24.7763

     occupation numbers 
     1.0000   1.0000   0.0575   0.0000   0.0000   0.0000

          k =-0.6212 0.0000-0.5282 (   441 PWs)   bands (ev):

     6.0734   7.4188   8.9903  13.6060  17.8215  22.4965

     occupation numbers 
     1.0000   1.0000   0.0009   0.0000   0.0000   0.0000

          k =-0.3550-0.1761-0.2641 (   439 PWs)   bands (ev):

     1.1410   7.8159  16.4179  18.7463  20.7706  22.8532

     occupation numbers 
     1.0000   1.0104   0.0000   0.0000   0.0000   0.0000

          k =-0.3994-0.1321-0.3081 (   440 PWs)   bands (ev):

     1.9696   7.4881  14.1424  17.4553  21.7085  22.5368

     occupation numbers 
     1.0000   1.0000   0.0000   0.0000   0.0000   0.0000

          k =-0.4437-0.0880-0.3521 (   437 PWs)   bands (ev):

     3.0016   7.3449  11.9841  16.3302  20.7054  24.3798

     occupation numbers 
     1.0000   1.0000   0.0000   0.0000   0.0000   0.0000

          k =-0.4881-0.0440-0.3962 (   443 PWs)   bands (ev):

     4.2282   7.3379  10.0534  15.3880  19.7814  26.4220

     occupation numbers 
     1.0000   1.0000   0.0000   0.0000   0.0000   0.0000

          k =-0.5325 0.0000-0.4402 (   442 PWs)   bands (ev):

     5.6335   7.1275   8.7148  14.6362  19.0147  27.0121

     occupation numbers 
     1.0000   1.0000   0.0569   0.0000   0.0000   0.0000

          k =-0.3106-0.1321-0.2201 (   442 PWs)   bands (ev):

    -0.0553   9.9279  16.4003  19.7437  20.7076  23.7939

     occupation numbers 
     1.0000   0.0000   0.0000   0.0000   0.0000   0.0000

          k =-0.3550-0.0880-0.2641 (   441 PWs)   bands (ev):

     0.7108   9.5124  14.0910  18.3931  22.2018  22.7955

     occupation numbers 
     1.0000   0.0000   0.0000   0.0000   0.0000   0.0000

          k =-0.3994-0.0440-0.3081 (   439 PWs)   bands (ev):

     1.6855   9.2201  11.9506  17.2075  21.5607  24.1157

     occupation numbers 
     1.0000   0.0000   0.0000   0.0000   0.0000   0.0000

          k =-0.4437 0.0000-0.3521 (   435 PWs)   bands (ev):

     2.8615   8.7182  10.3745  16.2035  20.5943  25.7755

     occupation numbers 
     1.0000   0.0547   0.0000   0.0000   0.0000   0.0000

          k =-0.2662-0.0880-0.1761 (   448 PWs)   bands (ev):

    -1.0457  12.1895  16.5777  20.7960  20.9241  24.6495

     occupation numbers 
     1.0000   0.0000   0.0000   0.0000   0.0000   0.0000

          k =-0.3106-0.0440-0.2201 (   448 PWs)   bands (ev):

    -0.3454  11.6342  14.2983  19.5168  22.2366  23.6700

     occupation numbers 
     1.0000   0.0000   0.0000   0.0000   0.0000   0.0000

          k =-0.3550 0.0000-0.2641 (   441 PWs)   bands (ev):

     0.5671  10.8530  12.5260  18.2722  22.5567  23.6014

     occupation numbers 
     1.0000   0.0000   0.0000   0.0000   0.0000   0.0000

          k =-0.2219-0.0440-0.1321 (   449 PWs)   bands (ev):

    -1.8236  14.5553  16.9722  20.9628  22.2325  23.6044

     occupation numbers 
     1.0000   0.0000   0.0000   0.0000   0.0000   0.0000

          k =-0.2662 0.0000-0.1761 (   449 PWs)   bands (ev):

    -1.1921  13.5352  15.0601  20.8128  21.9633  23.5087

     occupation numbers 
     1.0000   0.0000   0.0000   0.0000   0.0000   0.0000

          k =-0.1775 0.0000-0.0880 (   450 PWs)   bands (ev):

    -2.3839  16.7465  17.7984  20.8763  22.6169  23.9728

     occupation numbers 
     1.0000   0.0000   0.0000   0.0000   0.0000   0.0000

          k =-0.1775 0.0000 0.0000 (   443 PWs)   bands (ev):

    -2.5323  18.6135  18.6135  18.8258  21.8157  23.8245

     occupation numbers 
     1.0000   0.0000   0.0000   0.0000   0.0000   0.0000

          k =-0.2219 0.0440-0.0440 (   454 PWs)   bands (ev):

    -2.1191  16.3104  17.9722  19.1529  21.8648  22.2205

     occupation numbers 
     1.0000   0.0000   0.0000   0.0000   0.0000   0.0000

          k =-0.2662 0.0880-0.0880 (   446 PWs)   bands (ev):

    -1.4856  13.8614  17.5142  19.0806  20.6582  22.9748

     occupation numbers 
     1.0000   0.0000   0.0000   0.0000   0.0000   0.0000

          k =-0.3106 0.1321-0.1321 (   444 PWs)   bands (ev):

    -0.6364  11.5061  17.2392  18.8524  19.4217  24.4350

     occupation numbers 
     1.0000   0.0000   0.0000   0.0000   0.0000   0.0000

          k =-0.3550 0.1761-0.1761 (   444 PWs)   bands (ev):

     0.4230   9.2900  17.1470  18.1028  18.9987  25.1198

     occupation numbers 
     1.0000   0.0000   0.0000   0.0000   0.0000   0.0000

          k =-0.3994 0.2201-0.2201 (   443 PWs)   bands (ev):

     1.6856   7.2338  17.1891  17.2379  19.0953  24.2494

     occupation numbers 
     1.0000   1.0000   0.0000   0.0000   0.0000   0.0000

          k = 0.2662-0.4402 0.4402 (   447 PWs)   bands (ev):

     3.1403   5.3529  16.4411  17.5127  19.4028  23.5503

     occupation numbers 
     1.0000   1.0000   0.0000   0.0000   0.0000   0.0000

          k = 0.2219-0.3962 0.3962 (   444 PWs)   bands (ev):

     3.6157   4.8201  15.8811  17.9726  19.9061  23.0315

     occupation numbers 
     1.0000   1.0000   0.0000   0.0000   0.0000   0.0000

          k = 0.1775-0.3521 0.3521 (   443 PWs)   bands (ev):

     2.1098   6.6363  15.5152  18.6182  20.5998  22.6953

     occupation numbers 
     1.0000   1.0000   0.0000   0.0000   0.0000   0.0000

          k = 0.1331-0.3081 0.3081 (   443 PWs)   bands (ev):

     0.7868   8.6338  15.3486  19.4483  21.4767  22.5410

     occupation numbers 
     1.0000   0.1346   0.0000   0.0000   0.0000   0.0000

          k = 0.0887-0.2641 0.2641 (   443 PWs)   bands (ev):

    -0.3355  10.7826  15.3917  20.4553  22.5258  22.5628

     occupation numbers 
     1.0000   0.0000   0.0000   0.0000   0.0000   0.0000

          k = 0.0444-0.2201 0.2201 (   451 PWs)   bands (ev):

    -1.2495  13.0263  15.6853  21.6093  22.7203  23.7274

     occupation numbers 
     1.0000   0.0000   0.0000   0.0000   0.0000   0.0000

          k = 0.0000-0.1761 0.1761 (   451 PWs)   bands (ev):

    -1.9493  15.0526  16.5112  22.5898  22.7899  24.3013

     occupation numbers 
     1.0000   0.0000   0.0000   0.0000   0.0000   0.0000

          k =-0.1775 0.3521 0.0000 (   446 PWs)   bands (ev):

    -0.1832  12.3583  13.9352  17.4393  21.0368  22.9108

     occupation numbers 
     1.0000   0.0000   0.0000   0.0000   0.0000   0.0000

          k =-0.2219 0.3962-0.0440 (   442 PWs)   bands (ev):

     0.7959  10.5876  13.2670  16.2686  21.5274  23.9884

     occupation numbers 
     1.0000   0.0000   0.0000   0.0000   0.0000   0.0000

          k = 0.4437-0.2641 0.6162 (   436 PWs)   bands (ev):

     1.9788   8.5888  13.1639  15.2931  21.7558  24.0016

     occupation numbers 
     1.0000   0.2022   0.0000   0.0000   0.0000   0.0000

          k = 0.3994-0.2201 0.5722 (   438 PWs)   bands (ev):

     3.3557   6.6904  13.2942  14.5435  22.0479  23.2697

     occupation numbers 
     1.0000   1.0000   0.0000   0.0000   0.0000   0.0000

          k = 0.3550-0.1761 0.5282 (   442 PWs)   bands (ev):

     4.7595   5.1099  13.4485  14.1850  22.3198  22.8347

     occupation numbers 
     1.0000   1.0000   0.0000   0.0000   0.0000   0.0000

          k =-0.0000 0.2641 0.1761 (   449 PWs)   bands (ev):

    -1.2134  13.5910  15.1811  20.4771  21.9958  23.5755

     occupation numbers 
     1.0000   0.0000   0.0000   0.0000   0.0000   0.0000

          k =-0.1775 0.4402 0.0000 (   443 PWs)   bands (ev):

     1.1130  11.4251  12.9507  14.5557  20.1433  22.2262

     occupation numbers 
     1.0000   0.0000   0.0000   0.0000   0.0000   0.0000

          k = 0.4881-0.2201 0.6603 (   442 PWs)   bands (ev):

     2.2192   9.7816  12.3507  13.5523  20.7899  23.4984

     occupation numbers 
     1.0000   0.0000   0.0000   0.0000   0.0000   0.0000

          k = 0.4437-0.1761 0.6162 (   441 PWs)   bands (ev):

     3.5200   7.9111  12.1131  12.9616  21.1731  24.9836

     occupation numbers 
     1.0000   1.0291   0.0000   0.0000   0.0000   0.0000

          k = 0.3994-0.1321 0.5722 (   437 PWs)   bands (ev):

     4.9872   6.1604  11.6775  13.0412  21.6222  24.6844

     occupation numbers 
     1.0000   1.0000   0.0000   0.0000   0.0000   0.0000

          k = 0.3550-0.0880 0.5282 (   436 PWs)   bands (ev):

     4.5010   6.6870  11.2871  13.5154  22.2093  24.1813

     occupation numbers 
     1.0000   1.0000   0.0000   0.0000   0.0000   0.0000

          k = 0.3106-0.0440 0.4842 (   435 PWs)   bands (ev):

     3.0768   8.4334  11.1376  14.2312  22.9222  23.7556

     occupation numbers 
     1.0000   0.5677   0.0000   0.0000   0.0000   0.0000

          k = 0.2662-0.0000 0.4402 (   437 PWs)   bands (ev):

     1.8369   9.9421  11.5940  15.1542  22.9872  23.6846

     occupation numbers 
     1.0000   0.0000   0.0000   0.0000   0.0000   0.0000

          k = 0.0444 0.3081 0.2201 (   444 PWs)   bands (ev):

    -0.3735  11.7011  14.4285  19.2014  22.2740  23.6667

     occupation numbers 
     1.0000   0.0000   0.0000   0.0000   0.0000   0.0000

          k = 0.0000 0.3521 0.1761 (   442 PWs)   bands (ev):

    -0.1925  12.3937  14.0299  17.4276  20.9251  22.8489

     occupation numbers 
     1.0000   0.0000   0.0000   0.0000   0.0000   0.0000

          k = 0.5325-0.1761 0.7043 (   442 PWs)   bands (ev):

     2.6698  10.7586  11.4145  12.6779  19.4925  21.6924

     occupation numbers 
     1.0000   0.0000   0.0000   0.0000   0.0000   0.0000

          k = 0.4881-0.1321 0.6603 (   441 PWs)   bands (ev):

     3.8890   9.2245  10.5887  12.1755  20.2815  23.0966

     occupation numbers 
     1.0000   0.0000   0.0000   0.0000   0.0000   0.0000

          k = 0.4437-0.0880 0.6162 (   440 PWs)   bands (ev):

     5.2767   7.4946   9.9268  12.2846  20.8054  25.0582

     occupation numbers 
     1.0000   1.0000   0.0000   0.0000   0.0000   0.0000

          k = 0.3994-0.0440 0.5722 (   438 PWs)   bands (ev):

     5.8183   6.8285   9.4950  12.7077  21.3888  26.2478

     occupation numbers 
     1.0000   1.0000   0.0000   0.0000   0.0000   0.0000

          k = 0.3550 0.0000 0.5282 (   438 PWs)   bands (ev):

     4.3665   8.0728   9.6784  13.3648  22.1070  25.4706

     occupation numbers 
     1.0000   1.0791   0.0000   0.0000   0.0000   0.0000

          k = 0.0887 0.3521 0.2641 (   442 PWs)   bands (ev):

     0.6761   9.5798  14.2408  18.1009  22.2264  22.7861

     occupation numbers 
     1.0000   0.0000   0.0000   0.0000   0.0000   0.0000

          k = 0.0444 0.3962 0.2201 (   439 PWs)   bands (ev):

     0.7821  10.6349  13.3737  16.2534  21.3923  23.8392

     occupation numbers 
     1.0000   0.0000   0.0000   0.0000   0.0000   0.0000

          k = 0.0000 0.4402 0.1761 (   443 PWs)   bands (ev):

     1.1038  11.4624  13.0361  14.5542  20.0308  22.1696

     occupation numbers 
     1.0000   0.0000   0.0000   0.0000   0.0000   0.0000

          k = 0.5325-0.0880 0.7043 (   444 PWs)   bands (ev):

     4.4515   9.0425  10.3589  12.1489  19.0993  21.3574

     occupation numbers 
     1.0000   0.0003   0.0000   0.0000   0.0000   0.0000

          k = 0.4881-0.0440 0.6603 (   440 PWs)   bands (ev):

     5.7082   8.2368   9.0788  11.8378  20.0241  22.8840

     occupation numbers 
     1.0000   1.0114   0.0001   0.0000   0.0000   0.0000

          k = 0.4437 0.0000 0.6162 (   439 PWs)   bands (ev):

     6.7442   7.2511   8.3496  12.1287  20.6808  24.9927

     occupation numbers 
     1.0000   1.0000   0.7934   0.0000   0.0000   0.0000

          k =-0.5768-0.3081-0.3962 (   441 PWs)   bands (ev):

     1.9285   7.5520  14.3147  17.1879  21.6887  22.5577

     occupation numbers 
     1.0000   1.0001   0.0000   0.0000   0.0000   0.0000

          k =-0.6212-0.2641-0.4402 (   442 PWs)   bands (ev):

     1.9606   8.6378  13.2908  15.2765  21.5887  23.6844

     occupation numbers 
     1.0000   0.1295   0.0000   0.0000   0.0000   0.0000

          k =-0.6656-0.2201-0.4842 (   443 PWs)   bands (ev):

     2.2056   9.8298  12.4381  13.5583  20.6536  23.4104

     occupation numbers 
     1.0000   0.0000   0.0000   0.0000   0.0000   0.0000

          k =-0.7100-0.1761-0.5282 (   440 PWs)   bands (ev):

     2.6608  10.7973  11.4234  12.7524  19.3799  21.6380

     occupation numbers 
     1.0000   0.0000   0.0000   0.0000   0.0000   0.0000

          k =-0.1775-0.7043 0.0000 (   442 PWs)   bands (ev):

     5.9489   7.3210  10.2257  11.9994  18.9680  21.2436

     occupation numbers 
     1.0000   1.0000   0.0000   0.0000   0.0000   0.0000

          k =-0.5325-0.2641-0.3521 (   440 PWs)   bands (ev):

     3.3724   5.6815  14.5972  16.4716  20.9841  22.8210

     occupation numbers 
     1.0000   1.0000   0.0000   0.0000   0.0000   0.0000

          k =-0.5768-0.2201-0.3962 (   441 PWs)   bands (ev):

     3.3334   6.7374  13.4335  14.5369  21.8401  22.9840

     occupation numbers 
     1.0000   1.0000   0.0000   0.0000   0.0000   0.0000

          k =-0.6212-0.1761-0.4402 (   442 PWs)   bands (ev):

     3.5022   7.9604  12.1564  13.0309  21.0061  24.7260

     occupation numbers 
     1.0000   1.0440   0.0000   0.0000   0.0000   0.0000

          k =-0.6656-0.1321-0.4842 (   441 PWs)   bands (ev):

     3.8758   9.2720  10.5872  12.2719  20.1447  23.0196

     occupation numbers 
     1.0000   0.0000   0.0000   0.0000   0.0000   0.0000

          k =-0.7100-0.0880-0.5282 (   446 PWs)   bands (ev):

     4.4428   9.0361  10.3983  12.2380  18.9868  21.3038

     occupation numbers 
     1.0000   0.0004   0.0000   0.0000   0.0000   0.0000

          k =-0.4881-0.2201-0.3081 (   439 PWs)   bands (ev):

     3.9415   5.0472  15.0503  15.9798  20.4317  23.2855

     occupation numbers 
     1.0000   1.0000   0.0000   0.0000   0.0000   0.0000

          k =-0.5325-0.1761-0.3521 (   441 PWs)   bands (ev):

     4.7646   5.1225  13.5147  14.2749  22.0468  22.6059

     occupation numbers 
     1.0000   1.0000   0.0000   0.0000   0.0000   0.0000

          k =-0.5768-0.1321-0.3962 (   437 PWs)   bands (ev):

     4.9669   6.2061  11.6726  13.1809  21.4206  24.3834

     occupation numbers 
     1.0000   1.0000   0.0000   0.0000   0.0000   0.0000

          k =-0.6212-0.0880-0.4402 (   440 PWs)   bands (ev):

     5.2597   7.5432   9.9150  12.4100  20.6381  24.9427

     occupation numbers 
     1.0000   1.0001   0.0000   0.0000   0.0000   0.0000

          k =-0.6656-0.0440-0.4842 (   439 PWs)   bands (ev):

     5.6956   8.2314   9.1218  11.9424  19.8871  22.8099

     occupation numbers 
     1.0000   1.0182   0.0001   0.0000   0.0000   0.0000

          k = 0.0000-0.7043 0.1761 (   446 PWs)   bands (ev):

     5.9407   7.3129  10.2654  12.0895  18.8555  21.1901

     occupation numbers 
     1.0000   1.0000   0.0000   0.0000   0.0000   0.0000

          k =-0.4437-0.1761-0.2641 (   442 PWs)   bands (ev):

     2.4395   6.8483  15.3854  15.9975  20.0555  23.9257

     occupation numbers 
     1.0000   1.0000   0.0000   0.0000   0.0000   0.0000

          k =-0.4881-0.1321-0.3081 (   444 PWs)   bands (ev):

     3.3960   6.6603  13.2833  14.7339  21.7887  23.0177

     occupation numbers 
     1.0000   1.0000   0.0000   0.0000   0.0000   0.0000

          k =-0.5325-0.0880-0.3521 (   437 PWs)   bands (ev):

     4.5448   6.6618  11.2679  13.6924  21.9711  23.9066

     occupation numbers 
     1.0000   1.0000   0.0000   0.0000   0.0000   0.0000

          k =-0.5768-0.0440-0.3962 (   441 PWs)   bands (ev):

     5.8637   6.8092   9.4765  12.8614  21.1875  25.9472

     occupation numbers 
     1.0000   1.0000   0.0000   0.0000   0.0000   0.0000

          k =-0.6212 0.0000-0.4402 (   441 PWs)   bands (ev):

     6.7277   7.2929   8.3414  12.2570  20.5134  24.8946

     occupation numbers 
     1.0000   1.0000   0.8134   0.0000   0.0000   0.0000

          k =-0.3994-0.1321-0.2201 (   442 PWs)   bands (ev):

     1.1149   8.8342  15.3464  16.7792  19.8525  24.6740

     occupation numbers 
     1.0000   0.0118   0.0000   0.0000   0.0000   0.0000

          k =-0.4437-0.0880-0.2641 (   440 PWs)   bands (ev):

     2.0154   8.5549  13.1361  15.5239  21.5261  23.7087

     occupation numbers 
     1.0000   0.2658   0.0000   0.0000   0.0000   0.0000

          k =-0.4881-0.0440-0.3081 (   437 PWs)   bands (ev):

     3.1173   8.4041  11.1112  14.4383  22.6470  23.5027

     occupation numbers 
     1.0000   0.6489   0.0000   0.0000   0.0000   0.0000

          k =-0.5325 0.0000-0.3521 (   440 PWs)   bands (ev):

     4.4106   8.0479   9.6550  13.5459  21.8703  25.1753

     occupation numbers 
     1.0000   1.0730   0.0000   0.0000   0.0000   0.0000

          k =-0.3550-0.0880-0.1761 (   446 PWs)   bands (ev):

    -0.0103  10.9727  15.4224  17.8383  19.7977  24.0402

     occupation numbers 
     1.0000   0.0000   0.0000   0.0000   0.0000   0.0000

          k =-0.3994-0.0440-0.2201 (   444 PWs)   bands (ev):

     0.8283  10.5501  13.2317  16.5301  21.3249  23.7569

     occupation numbers 
     1.0000   0.0000   0.0000   0.0000   0.0000   0.0000

          k =-0.4437-0.0000-0.2641 (   441 PWs)   bands (ev):

     1.8735   9.9089  11.5626  15.3892  22.7514  23.3852

     occupation numbers 
     1.0000   0.0000   0.0000   0.0000   0.0000   0.0000

          k =-0.3106-0.0440-0.1321 (   445 PWs)   bands (ev):

    -0.9282  13.2140  15.7140  19.0953  19.7969  22.5986

     occupation numbers 
     1.0000   0.0000   0.0000   0.0000   0.0000   0.0000

          k =-0.3550 0.0000-0.1761 (   444 PWs)   bands (ev):

    -0.1551  12.3168  13.8948  17.7293  20.8615  22.7412

     occupation numbers 
     1.0000   0.0000   0.0000   0.0000   0.0000   0.0000

          k =-0.2662 0.0000-0.0880 (   447 PWs)   bands (ev):

    -1.6327  15.2691  16.4590  19.5159  20.5451  21.7874

     occupation numbers 
     1.0000   0.0000   0.0000   0.0000   0.0000   0.0000

          k =-0.2662 0.0000 0.0000 (   443 PWs)   bands (ev):

    -1.7800  17.2640  17.2640  17.2701  20.4033  20.8590

     occupation numbers 
     1.0000   0.0000   0.0000   0.0000   0.0000   0.0000

          k =-0.3106 0.0440-0.0440 (   444 PWs)   bands (ev):

    -1.2208  14.9778  16.7421  17.8221  18.8602  20.9417

     occupation numbers 
     1.0000   0.0000   0.0000   0.0000   0.0000   0.0000

          k =-0.3550 0.0880-0.0880 (   446 PWs)   bands (ev):

    -0.4454  12.6506  16.4047  17.3276  18.0644  22.0237

     occupation numbers 
     1.0000   0.0000   0.0000   0.0000   0.0000   0.0000

          k =-0.3994 0.1321-0.1321 (   445 PWs)   bands (ev):

     0.5410  10.4188  16.1716  16.2508  18.0052  23.6189

     occupation numbers 
     1.0000   0.0000   0.0000   0.0000   0.0000   0.0000

          k =-0.4437 0.1761-0.1761 (   444 PWs)   bands (ev):

     1.7316   8.3285  15.1618  16.2801  18.0950  25.4205

     occupation numbers 
     1.0000   0.8441   0.0000   0.0000   0.0000   0.0000

          k = 0.2219-0.4842 0.4842 (   443 PWs)   bands (ev):

     3.1168   6.4027  14.3381  16.4928  18.3619  25.5527

     occupation numbers 
     1.0000   1.0000   0.0000   0.0000   0.0000   0.0000

          k = 0.1775-0.4402 0.4402 (   443 PWs)   bands (ev):

     4.4996   4.8414  13.7099  16.8900  18.8199  24.9788

     occupation numbers 
     1.0000   1.0000   0.0000   0.0000   0.0000   0.0000

          k = 0.1331-0.3962 0.3962 (   441 PWs)   bands (ev):

     3.0556   6.4667  13.2858  17.4726  19.4698  24.5847

     occupation numbers 
     1.0000   1.0000   0.0000   0.0000   0.0000   0.0000

          k = 0.0887-0.3521 0.3521 (   438 PWs)   bands (ev):

     1.6771   8.3729  13.0822  18.2414  20.3058  24.3679

     occupation numbers 
     1.0000   0.7332   0.0000   0.0000   0.0000   0.0000

          k = 0.0444-0.3081 0.3081 (   441 PWs)   bands (ev):

     0.4945  10.3733  13.1551  19.1955  21.3156  24.3007

     occupation numbers 
     1.0000   0.0000   0.0000   0.0000   0.0000   0.0000

          k = 0.0000-0.2641 0.2641 (   445 PWs)   bands (ev):

    -0.4832  12.1277  13.8295  20.3292  22.4764  24.0360

     occupation numbers 
     1.0000   0.0000   0.0000   0.0000   0.0000   0.0000

          k = 0.4437-0.1761 0.7043 (   440 PWs)   bands (ev):

     3.3810   9.2791  10.8158  12.5276  22.3547  23.9088

     occupation numbers 
     1.0000   0.0000   0.0000   0.0000   0.0000   0.0000

          k = 0.3994-0.1321 0.6603 (   441 PWs)   bands (ev):

     4.7276   7.8951  10.4529  11.7791  23.1726  24.3688

     occupation numbers 
     1.0000   1.0250   0.0000   0.0000   0.0000   0.0000

          k = 0.3550-0.0880 0.6162 (   440 PWs)   bands (ev):

     6.0778   6.4373  10.5006  11.4552  23.5136  24.0767

     occupation numbers 
     1.0000   1.0000   0.0000   0.0000   0.0000   0.0000

          k = 0.0000 0.3521 0.2641 (   440 PWs)   bands (ev):

     0.5300  10.9325  12.6610  17.9768  22.5327  23.6543

     occupation numbers 
     1.0000   0.0000   0.0000   0.0000   0.0000   0.0000

          k = 0.4437-0.0880 0.7043 (   441 PWs)   bands (ev):

     5.1443   8.8818   9.5423  10.9092  21.9672  23.7169

     occupation numbers 
     1.0000   0.0057   0.0000   0.0000   0.0000   0.0000

          k = 0.3994-0.0440 0.6603 (   442 PWs)   bands (ev):

     6.5128   7.6072   9.0768  10.6384  22.9480  25.2118

     occupation numbers 
     1.0000   1.0004   0.0002   0.0000   0.0000   0.0000

          k = 0.3550 0.0000 0.6162 (   440 PWs)   bands (ev):

     6.1006   7.6775   9.1588  11.0239  23.6231  25.0980

     occupation numbers 
     1.0000   1.0014   0.0000   0.0000   0.0000   0.0000

          k =-0.6656-0.3081-0.3962 (   435 PWs)   bands (ev):

     1.6397   9.3066  12.0957  16.9334  21.5254  24.1698

     occupation numbers 
     1.0000   0.0000   0.0000   0.0000   0.0000   0.0000

          k =-0.7100-0.2641-0.4402 (   435 PWs)   bands (ev):

     1.8164  10.0046  11.7072  15.1332  22.8307  23.3776

     occupation numbers 
     1.0000   0.0000   0.0000   0.0000   0.0000   0.0000

          k =-0.2662-0.7043 0.0000 (   444 PWs)   bands (ev):

     6.6131   7.9714   8.7495  10.6337  21.8371  23.6324

     occupation numbers 
     1.0000   1.0478   0.0375   0.0000   0.0000   0.0000

          k =-0.6212-0.2641-0.3521 (   436 PWs)   bands (ev):

     2.9476   7.4290  12.1479  16.0784  20.6618  24.4259

     occupation numbers 
     1.0000   1.0000   0.0000   0.0000   0.0000   0.0000

          k =-0.6656-0.2201-0.3962 (   437 PWs)   bands (ev):

     3.0499   8.5041  11.2631  14.2053  22.6091  23.5750

     occupation numbers 
     1.0000   0.3805   0.0000   0.0000   0.0000   0.0000

          k =-0.7100-0.1761-0.4402 (   438 PWs)   bands (ev):

     3.3609   9.3429  10.9151  12.5219  22.1968  23.7511

     occupation numbers 
     1.0000   0.0000   0.0000   0.0000   0.0000   0.0000

          k =-0.5768-0.2201-0.3081 (   442 PWs)   bands (ev):

     4.4315   5.6615  12.4783  15.4177  19.9687  24.7865

     occupation numbers 
     1.0000   1.0000   0.0000   0.0000   0.0000   0.0000

          k =-0.6212-0.1761-0.3521 (   436 PWs)   bands (ev):

     4.4685   6.7562  11.4308  13.4874  21.9140  23.9773

     occupation numbers 
     1.0000   1.0000   0.0000   0.0000   0.0000   0.0000

          k =-0.6656-0.1321-0.3962 (   443 PWs)   bands (ev):

     4.7016   7.9662  10.5522  11.7810  22.9819  24.0671

     occupation numbers 
     1.0000   1.0460   0.0000   0.0000   0.0000   0.0000

          k =-0.7100-0.0880-0.4402 (   441 PWs)   bands (ev):

     5.1250   8.9464   9.5495  10.9953  21.8088  23.6029

     occupation numbers 
     1.0000   0.0019   0.0000   0.0000   0.0000   0.0000

          k =-0.5325-0.1761-0.2641 (   445 PWs)   bands (ev):

     3.9934   6.1587  13.0218  14.9604  19.4539  25.2754

     occupation numbers 
     1.0000   1.0000   0.0000   0.0000   0.0000   0.0000

          k =-0.5768-0.1321-0.3081 (   442 PWs)   bands (ev):

     5.0499   6.1244  11.8277  13.0256  21.3514  24.4425

     occupation numbers 
     1.0000   1.0000   0.0000   0.0000   0.0000   0.0000

          k =-0.6212-0.0880-0.3521 (   441 PWs)   bands (ev):

     6.0896   6.4634  10.5502  11.5226  23.2414  23.8383

     occupation numbers 
     1.0000   1.0000   0.0000   0.0000   0.0000   0.0000

          k =-0.6656-0.0440-0.3962 (   444 PWs)   bands (ev):

     6.4889   7.6754   9.0719  10.7461  22.7631  25.0204

     occupation numbers 
     1.0000   1.0014   0.0002   0.0000   0.0000   0.0000

          k = 0.0000-0.7043 0.2641 (   438 PWs)   bands (ev):

     6.5945   7.9586   8.8143  10.7391  21.6787  23.5248

     occupation numbers 
     1.0000   1.0434   0.0158   0.0000   0.0000   0.0000

          k =-0.4881-0.1321-0.2201 (   441 PWs)   bands (ev):

     2.5559   8.0080  13.7315  14.7400  19.1126  25.1045

     occupation numbers 
     1.0000   1.0603   0.0000   0.0000   0.0000   0.0000

          k =-0.5325-0.0880-0.2641 (   442 PWs)   bands (ev):

     3.5803   7.8669  12.1863  13.0423  20.9276  24.7038

     occupation numbers 
     1.0000   1.0187   0.0000   0.0000   0.0000   0.0000

          k =-0.5768-0.0440-0.3081 (   443 PWs)   bands (ev):

     4.7932   7.8579  10.4442  11.9229  22.8956  24.1093

     occupation numbers 
     1.0000   1.0170   0.0000   0.0000   0.0000   0.0000

          k =-0.6212 0.0000-0.3521 (   444 PWs)   bands (ev):

     6.1698   7.6465   9.1424  11.1577  23.4010  24.7923

     occupation numbers 
     1.0000   1.0009   0.0000   0.0000   0.0000   0.0000

          k =-0.4437-0.0880-0.1761 (   445 PWs)   bands (ev):

     1.3042  10.0175  14.3428  15.0198  18.9171  23.3334

     occupation numbers 
     1.0000   0.0000   0.0000   0.0000   0.0000   0.0000

          k =-0.4881-0.0440-0.2201 (   442 PWs)   bands (ev):

     2.2738   9.7320  12.3345  13.7419  20.5691  23.2796

     occupation numbers 
     1.0000   0.0000   0.0000   0.0000   0.0000   0.0000

          k =-0.5325 0.0000-0.2641 (   442 PWs)   bands (ev):

     3.4414   9.2356  10.7918  12.7062  22.1034  23.6532

     occupation numbers 
     1.0000   0.0000   0.0000   0.0000   0.0000   0.0000

          k =-0.3994-0.0440-0.1321 (   448 PWs)   bands (ev):

     0.2527  12.1310  14.6446  16.0346  18.7630  21.7545

     occupation numbers 
     1.0000   0.0000   0.0000   0.0000   0.0000   0.0000

          k =-0.4437-0.0000-0.1761 (   445 PWs)   bands (ev):

     1.1614  11.3692  12.9136  14.7866  19.9478  22.0404

     occupation numbers 
     1.0000   0.0000   0.0000   0.0000   0.0000   0.0000

          k =-0.3550 0.0000-0.0880 (   448 PWs)   bands (ev):

    -0.5909  14.0509  15.3150  17.3390  18.3345  20.8635

     occupation numbers 
     1.0000   0.0000   0.0000   0.0000   0.0000   0.0000

          k =-0.3550 0.0000 0.0000 (   447 PWs)   bands (ev):

    -0.7366  15.9605  16.1578  16.1578  17.1435  19.9113

     occupation numbers 
     1.0000   0.0000   0.0000   0.0000   0.0000   0.0000

          k =-0.3994 0.0440-0.0440 (   441 PWs)   bands (ev):

    -0.0363  13.8940  15.6494  15.7591  16.8045  20.0614

     occupation numbers 
     1.0000   0.0000   0.0000   0.0000   0.0000   0.0000

          k =-0.4437 0.0880-0.0880 (   445 PWs)   bands (ev):

     0.8751  11.6952  14.3754  15.5443  17.0442  21.2377

     occupation numbers 
     1.0000   0.0000   0.0000   0.0000   0.0000   0.0000

          k =-0.4881 0.1321-0.1321 (   442 PWs)   bands (ev):

     1.9909   9.5935  13.2848  15.5125  17.1775  22.9584

     occupation numbers 
     1.0000   0.0000   0.0000   0.0000   0.0000   0.0000

          k = 0.1775-0.5282 0.5282 (   445 PWs)   bands (ev):

     3.3017   7.6367  12.3868  15.6636  17.4199  24.9348

     occupation numbers 
     1.0000   1.0007   0.0000   0.0000   0.0000   0.0000

          k = 0.1331-0.4842 0.4842 (   442 PWs)   bands (ev):

     4.7774   5.8638  11.6921  15.9983  17.8353  26.9849

     occupation numbers 
     1.0000   1.0000   0.0000   0.0000   0.0000   0.0000

          k = 0.0887-0.4402 0.4402 (   444 PWs)   bands (ev):

     4.1972   6.4869  11.2196  16.5178  18.4393  26.6727

     occupation numbers 
     1.0000   1.0000   0.0000   0.0000   0.0000   0.0000

          k = 0.0444-0.3962 0.3962 (   435 PWs)   bands (ev):

     2.7709   8.2399  11.0313  17.2234  19.2304  26.3979

     occupation numbers 
     1.0000   1.0073   0.0000   0.0000   0.0000   0.0000

          k = 0.0000-0.3521 0.3521 (   437 PWs)   bands (ev):

     1.5324   9.7405  11.4772  18.1161  20.1972  26.0474

     occupation numbers 
     1.0000   0.0000   0.0000   0.0000   0.0000   0.0000

          k =-0.3550-0.7043 0.0000 (   444 PWs)   bands (ev):

     7.5458   7.5458   8.4853   9.8732  24.9714  24.9714

     occupation numbers 
     1.0001   1.0001   0.4279   0.0000   0.0000   0.0000

          k =-0.7100-0.2641-0.3521 (   436 PWs)   bands (ev):

     2.8051   8.8161  10.5221  15.9484  20.5467  25.8466

     occupation numbers 
     1.0000   0.0154   0.0000   0.0000   0.0000   0.0000

          k =-0.6656-0.2201-0.3081 (   441 PWs)   bands (ev):

     4.1621   7.4394  10.2102  15.1527  19.7240  26.4888

     occupation numbers 
     1.0000   1.0000   0.0000   0.0000   0.0000   0.0000

          k =-0.7100-0.1761-0.3521 (   438 PWs)   bands (ev):

     4.3314   8.1573   9.8080  13.3307  21.8083  25.2665

     occupation numbers 
     1.0000   1.0753   0.0000   0.0000   0.0000   0.0000

          k =-0.6212-0.1761-0.2641 (   441 PWs)   bands (ev):

     5.5674   5.9422  10.5366  14.5519  19.0743  26.6016

     occupation numbers 
     1.0000   1.0000   0.0000   0.0000   0.0000   0.0000

          k =-0.6656-0.1321-0.3081 (   441 PWs)   bands (ev):

     5.7785   6.9155   9.6351  12.6666  21.1119  26.0132

     occupation numbers 
     1.0000   1.0000   0.0000   0.0000   0.0000   0.0000

          k =-0.7100-0.0880-0.3521 (   445 PWs)   bands (ev):

     6.0675   7.7627   9.2707  11.0073  23.3207  24.8920

     occupation numbers 
     1.0000   1.0052   0.0000   0.0000   0.0000   0.0000

          k =-0.5768-0.1321-0.2201 (   440 PWs)   bands (ev):

     4.2435   7.4522  11.1417  14.1530  18.5961  24.7946

     occupation numbers 
     1.0000   1.0000   0.0000   0.0000   0.0000   0.0000

          k =-0.6212-0.0880-0.2641 (   441 PWs)   bands (ev):

     5.3621   7.4465  10.0812  12.2401  20.5511  24.8032

     occupation numbers 
     1.0000   1.0000   0.0000   0.0000   0.0000   0.0000

          k =-0.6656-0.0440-0.3081 (   443 PWs)   bands (ev):

     6.6008   7.5707   9.1867  10.6253  22.6661  24.9368

     occupation numbers 
     1.0000   1.0002   0.0000   0.0000   0.0000   0.0000

          k = 0.0000-0.7043 0.3521 (   444 PWs)   bands (ev):

     7.5127   7.6313   8.5268   9.9275  24.6626  24.7650

     occupation numbers 
     1.0001   1.0007   0.3267   0.0000   0.0000   0.0000

          k =-0.5325-0.0880-0.1761 (   442 PWs)   bands (ev):

     2.8824   9.3229  11.9562  13.9718  18.2625  22.7839

     occupation numbers 
     1.0000   0.0000   0.0000   0.0000   0.0000   0.0000

          k =-0.5768-0.0440-0.2201 (   440 PWs)   bands (ev):

     3.9688   9.1710  10.7450  12.1411  20.0497  22.8722

     occupation numbers 
     1.0000   0.0000   0.0000   0.0000   0.0000   0.0000

          k =-0.6212 0.0000-0.2641 (   444 PWs)   bands (ev):

     5.2305   8.8321   9.6519  10.9119  21.7075  23.4678

     occupation numbers 
     1.0000   0.0122   0.0000   0.0000   0.0000   0.0000

          k =-0.4881-0.0440-0.1321 (   443 PWs)   bands (ev):

     1.7072  11.3034  12.9287  14.0689  17.9682  21.0771

     occupation numbers 
     1.0000   0.0000   0.0000   0.0000   0.0000   0.0000

          k =-0.5325 0.0000-0.1761 (   442 PWs)   bands (ev):

     2.7421  10.6924  11.5645  12.6701  19.2838  21.4950

     occupation numbers 
     1.0000   0.0000   0.0000   0.0000   0.0000   0.0000

          k =-0.4437 0.0000-0.0880 (   443 PWs)   bands (ev):

     0.7316  13.0992  14.0210  14.7062  17.4030  20.0763

     occupation numbers 
     1.0000   0.0000   0.0000   0.0000   0.0000   0.0000

          k =-0.4437 0.0000 0.0000 (   444 PWs)   bands (ev):

     0.5880  14.0905  14.9296  15.2997  15.2997  19.0915

     occupation numbers 
     1.0000   0.0000   0.0000   0.0000   0.0000   0.0000

          k =-0.4881 0.0440-0.0440 (   443 PWs)   bands (ev):

     1.4227  12.6597  13.1503  15.0245  15.9677  19.3486

     occupation numbers 
     1.0000   0.0000   0.0000   0.0000   0.0000   0.0000

          k =-0.5325 0.0880-0.0880 (   441 PWs)   bands (ev):

     2.4609  10.9339  11.6545  14.9321  16.3390  20.6491

     occupation numbers 
     1.0000   0.0000   0.0000   0.0000   0.0000   0.0000

          k = 0.1331-0.5722 0.5722 (   444 PWs)   bands (ev):

     3.6918   9.0144  10.6419  15.0221  16.6147  22.4998

     occupation numbers 
     1.0000   0.0005   0.0000   0.0000   0.0000   0.0000

          k = 0.0887-0.5282 0.5282 (   440 PWs)   bands (ev):

     5.0903   7.2127   9.8771  15.2950  17.0030  24.6198

     occupation numbers 
     1.0000   1.0000   0.0000   0.0000   0.0000   0.0000

          k = 0.0444-0.4842 0.4842 (   444 PWs)   bands (ev):

     5.5178   6.6504   9.3986  15.7518  17.5638  26.8681

     occupation numbers 
     1.0000   1.0000   0.0000   0.0000   0.0000   0.0000

          k = 0.0000-0.4402 0.4402 (   443 PWs)   bands (ev):

     4.0592   7.8947   9.5653  16.3940  18.3087  28.6069

     occupation numbers 
     1.0000   1.0249   0.0000   0.0000   0.0000   0.0000

          k =-0.7100-0.1761-0.2641 (   445 PWs)   bands (ev):

     5.5573   7.2385   8.8701  14.4184  18.9455  26.8453

     occupation numbers 
     1.0000   1.0000   0.0069   0.0000   0.0000   0.0000

          k =-0.6656-0.1321-0.2201 (   442 PWs)   bands (ev):

     6.0670   7.1462   8.8687  13.8822  18.3330  24.5958

     occupation numbers 
     1.0000   1.0000   0.0070   0.0000   0.0000   0.0000

          k =-0.7100-0.0880-0.2641 (   439 PWs)   bands (ev):

     6.8455   7.2168   8.4740  12.0767  20.4237  24.7396

     occupation numbers 
     1.0000   1.0000   0.4574   0.0000   0.0000   0.0000

          k =-0.6212-0.0880-0.1761 (   441 PWs)   bands (ev):

     4.6859   8.8003   9.5551  13.5561  17.8631  22.4412

     occupation numbers 
     1.0000   0.0192   0.0000   0.0000   0.0000   0.0000

          k =-0.6656-0.0440-0.2201 (   443 PWs)   bands (ev):

     5.8122   8.3617   9.0437  11.7765  19.7869  22.6556

     occupation numbers 
     1.0000   0.7624   0.0003   0.0000   0.0000   0.0000

          k = 0.0000-0.7043 0.4402 (   440 PWs)   bands (ev):

     6.7147   8.1039   8.6977  10.5924  21.5747  23.3829

     occupation numbers 
     1.0000   1.0831   0.0692   0.0000   0.0000   0.0000

          k =-0.5768-0.0440-0.1321 (   447 PWs)   bands (ev):

     3.4141  10.2007  10.8702  13.4800  17.4326  20.6058

     occupation numbers 
     1.0000   0.0000   0.0000   0.0000   0.0000   0.0000

          k =-0.6212 0.0000-0.1761 (   443 PWs)   bands (ev):

     4.5497   9.2117  10.2865  12.0791  18.8830  21.1529

     occupation numbers 
     1.0000   0.0000   0.0000   0.0000   0.0000   0.0000

          k =-0.5325 0.0000-0.0880 (   444 PWs)   bands (ev):

     2.3200  11.3775  12.4174  13.8967  16.7357  19.4781

     occupation numbers 
     1.0000   0.0000   0.0000   0.0000   0.0000   0.0000

          k =-0.5325 0.0000 0.0000 (   444 PWs)   bands (ev):

     2.1789  11.2679  14.1888  14.6891  14.6891  18.4649

     occupation numbers 
     1.0000   0.0000   0.0000   0.0000   0.0000   0.0000

          k =-0.5768 0.0440-0.0440 (   447 PWs)   bands (ev):

     3.1355  10.0118  12.5602  14.5365  15.4159  18.8501

     occupation numbers 
     1.0000   0.0000   0.0000   0.0000   0.0000   0.0000

          k = 0.0887-0.6162 0.6162 (   450 PWs)   bands (ev):

     4.2757   8.9540  10.6784  14.5659  15.9125  20.2856

     occupation numbers 
     1.0000   0.0017   0.0000   0.0000   0.0000   0.0000

          k = 0.0444-0.5722 0.5722 (   438 PWs)   bands (ev):

     5.5445   8.0860   8.9553  14.7776  16.3296  22.2656

     occupation numbers 
     1.0000   1.0814   0.0016   0.0000   0.0000   0.0000

          k = 0.0000-0.5282 0.5282 (   440 PWs)   bands (ev):

     6.5842   6.9701   8.2432  15.1724  16.8623  24.5117

     occupation numbers 
     1.0000   1.0000   1.0030   0.0000   0.0000   0.0000

          k =-0.7100-0.0880-0.1761 (   443 PWs)   bands (ev):

     6.1924   7.5657   8.9056  13.4209  17.7291  22.3250

     occupation numbers 
     1.0000   1.0002   0.0039   0.0000   0.0000   0.0000

          k =-0.6656-0.0440-0.1321 (   448 PWs)   bands (ev):

     5.2777   7.9167  10.5395  13.2084  17.1637  20.3646

     occupation numbers 
     1.0000   1.0307   0.0000   0.0000   0.0000   0.0000

          k = 0.0000-0.7043 0.5282 (   444 PWs)   bands (ev):

     6.0620   7.4759  10.1513  11.9233  18.7492  21.0366

     occupation numbers 
     1.0000   1.0000   0.0000   0.0000   0.0000   0.0000

          k =-0.6212 0.0000-0.0880 (   450 PWs)   bands (ev):

     4.1385   8.8389  12.0076  13.4979  16.3353  19.1059

     occupation numbers 
     1.0000   0.0110   0.0000   0.0000   0.0000   0.0000

          k =-0.6212 0.0000 0.0000 (   452 PWs)   bands (ev):

     4.0010   8.7089  13.7429  14.3238  14.3238  18.0731

     occupation numbers 
     1.0000   0.0610   0.0000   0.0000   0.0000   0.0000

          k = 0.0444-0.6603 0.6603 (   446 PWs)   bands (ev):

     5.0093   7.6517  12.2836  14.2930  15.1401  18.5942

     occupation numbers 
     1.0000   1.0009   0.0000   0.0000   0.0000   0.0000

          k = 0.0000-0.6162 0.6162 (   448 PWs)   bands (ev):

     5.8014   7.1998  10.5264  14.4441  15.7696  20.1628

     occupation numbers 
     1.0000   1.0000   0.0000   0.0000   0.0000   0.0000

          k = 0.0000-0.7043 0.6162 (   450 PWs)   bands (ev):

     5.6713   7.0641  11.8709  13.3670  16.2019  18.9797

     occupation numbers 
     1.0000   1.0000   0.0000   0.0000   0.0000   0.0000

          k = 0.7100 0.0000 0.0000 (   444 PWs)   bands (ev):

     5.5412   6.9237  13.5941  14.2022  14.2022  17.9402

     occupation numbers 
     1.0000   1.0000   0.0000   0.0000   0.0000   0.0000

     the Fermi energy is     8.4960 ev

!    total energy              =      -4.19084711 Ry
     estimated scf accuracy    <          1.3E-15 Ry
     smearing contrib. (-TS)   =      -0.00000699 Ry
     internal energy E=F+TS    =      -4.19084012 Ry

     The total energy is F=E-TS. E is the sum of the following terms:
     one-electron contribution =       2.97715402 Ry
     hartree contribution      =       0.01011104 Ry
     xc contribution           =      -1.64373044 Ry
     ewald contribution        =      -5.53437473 Ry

     convergence has been achieved in   7 iterations

     Forces acting on atoms (cartesian axes, Ry/au):

     atom    1 type  1   force =     0.00000000    0.00000000    0.00000000
     The non-local contrib.  to forces
     atom    1 type  1   force =     0.00000000    0.00000000    0.00000000
     The ionic contribution  to forces
     atom    1 type  1   force =     0.00000000    0.00000000    0.00000000
     The local contribution  to forces
     atom    1 type  1   force =     0.00000000   -0.00000000   -0.00000000
     The core correction contribution to forces
     atom    1 type  1   force =     0.00000000    0.00000000    0.00000000
     The Hubbard contrib.    to forces
     atom    1 type  1   force =     0.00000000    0.00000000    0.00000000
     The SCF correction term to forces
     atom    1 type  1   force =    -0.00000000    0.00000000   -0.00000000

     Total force =     0.000000     Total SCF correction =     0.000000


     Computing stress (Cartesian axis) and pressure

          total   stress  (Ry/bohr**3)                   (kbar)     P=        6.94
   0.00009485   0.00000000   0.00000000           13.95        0.00        0.00
   0.00000000   0.00002338  -0.00000000            0.00        3.44       -0.00
   0.00000000  -0.00000000   0.00002338            0.00       -0.00        3.44

     kinetic stress (kbar)   1734.01      0.00     -0.00
                                0.00   1725.57      0.00
                                0.00      0.00   1725.57

     local   stress (kbar)   -105.11      0.00      0.00
                                0.00   -101.65     -0.00
                                0.00     -0.00   -101.65

     nonloc. stress (kbar)   1704.83     -0.00      0.00
                                0.00   1701.69     -0.00
                                0.00     -0.00   1701.69

     hartree stress (kbar)      4.58      0.00      0.00
                                0.00      4.89     -0.00
                                0.00     -0.00      4.89

     exc-cor stress (kbar)   -707.16      0.00      0.00
                                0.00   -707.16      0.00
                                0.00      0.00   -707.16

     corecor stress (kbar)      0.00      0.00      0.00
                                0.00      0.00      0.00
                                0.00      0.00      0.00

     ewald   stress (kbar)  -2617.20     -0.00     -0.00
                               -0.00  -2619.90      0.00
                               -0.00      0.00  -2619.90

     hubbard stress (kbar)      0.00      0.00      0.00
                                0.00      0.00      0.00
                                0.00      0.00      0.00

     DFT-D   stress (kbar)      0.00      0.00      0.00
                                0.00      0.00      0.00
                                0.00      0.00      0.00

     XDM     stress (kbar)      0.00      0.00      0.00
                                0.00      0.00      0.00
                                0.00      0.00      0.00

     dft-nl  stress (kbar)      0.00      0.00      0.00
                                0.00      0.00      0.00
                                0.00      0.00      0.00

     TS-vdW  stress (kbar)      0.00      0.00      0.00
                                0.00      0.00      0.00
                                0.00      0.00      0.00

     MDB     stress (kbar)      0.00      0.00      0.00
                                0.00      0.00      0.00
                                0.00      0.00      0.00

     3D-RISM stress (kbar)      0.00      0.00      0.00
                                0.00      0.00      0.00
                                0.00      0.00      0.00


     Writing all to output data dir ./tmp/al.save/ :
     XML data file, charge density, pseudopotentials, collected wavefunctions
 
     init_run     :      0.12s CPU      0.15s WALL (       1 calls)
     electrons    :      2.98s CPU      3.45s WALL (       1 calls)
     forces       :      0.01s CPU      0.01s WALL (       1 calls)
     stress       :      0.05s CPU      0.06s WALL (       1 calls)

     Called by init_run:
     wfcinit      :      0.12s CPU      0.14s WALL (       1 calls)
     wfcinit:atom :      0.00s CPU      0.00s WALL (     349 calls)
     wfcinit:wfcr :      0.11s CPU      0.13s WALL (     349 calls)
     potinit      :      0.00s CPU      0.00s WALL (       1 calls)
     hinit0       :      0.00s CPU      0.00s WALL (       1 calls)

     Called by electrons:
     c_bands      :      2.55s CPU      2.94s WALL (       8 calls)
     sum_band     :      0.43s CPU      0.49s WALL (       8 calls)
     v_of_rho     :      0.00s CPU      0.00s WALL (       8 calls)
     v_h          :      0.00s CPU      0.00s WALL (       8 calls)
     v_xc         :      0.00s CPU      0.00s WALL (       8 calls)
     mix_rho      :      0.00s CPU      0.00s WALL (       8 calls)

     Called by c_bands:
     init_us_2    :      0.04s CPU      0.04s WALL (    6631 calls)
     cegterg      :      2.48s CPU      2.86s WALL (    2792 calls)

     Called by sum_band:
     sum_band:wei :      0.03s CPU      0.03s WALL (       8 calls)
     sum_band:loo :      0.40s CPU      0.46s WALL (       8 calls)
     sum_band:buf :      0.01s CPU      0.01s WALL (    2792 calls)
     sum_band:ini :      0.02s CPU      0.02s WALL (    2792 calls)

     Called by *egterg:
     cdiaghg      :      0.25s CPU      0.29s WALL (    8509 calls)
     cegterg:over :      0.10s CPU      0.12s WALL (    6066 calls)
     cegterg:upda :      0.02s CPU      0.03s WALL (    6066 calls)
     cegterg:last :      0.03s CPU      0.03s WALL (    4975 calls)
     h_psi        :      2.01s CPU      2.33s WALL (    9207 calls)
     g_psi        :      0.01s CPU      0.01s WALL (    6066 calls)

     Called by h_psi:
     h_psi:calbec :      0.07s CPU      0.09s WALL (    9207 calls)
     vloc_psi     :      1.85s CPU      2.13s WALL (    9207 calls)
                                        0.00s GPU  (    9207 calls)
     add_vuspsi   :      0.03s CPU      0.03s WALL (    9207 calls)

     General routines
     calbec       :      0.08s CPU      0.09s WALL (   15140 calls)
     fft          :      0.00s CPU      0.00s WALL (      29 calls)
     ffts         :      0.00s CPU      0.00s WALL (       8 calls)
     fftw         :      1.94s CPU      2.24s WALL (  103122 calls)
 
     Parallel routines
 
     PWSCF        :      3.23s CPU      3.77s WALL

 
   This run was terminated on:  21:35:32  22Sep2026            

=------------------------------------------------------------------------------=
   JOB DONE.
=------------------------------------------------------------------------------=
