
     Program PWSCF v.7.5 starts on 23Sep2026 at 15:19:18 

     This program is part of the open-source Quantum ESPRESSO suite
     for quantum simulation of materials; please cite
         "P. Giannozzi et al., J. Phys.:Condens. Matter 21 395502 (2009);
         "P. Giannozzi et al., J. Phys.:Condens. Matter 29 465901 (2017);
         "P. Giannozzi et al., J. Chem. Phys. 152 154105 (2020);
          URL http://www.quantum-espresso.org", 
     in publications or presentations arising from this work. More details at
     http://www.quantum-espresso.org/quote

     Parallel version (MPI), running on     8 processors

     MPI processes distributed on     1 nodes
     2277 MiB available memory on the printing compute node when the environment starts
 
     Reading input from al.nscf.in

     Current dimensions of program PWSCF are:
     Max number of different atomic species (ntypx) = 10
     Max number of k-points (npk) =  40000
     Max angular momentum in pseudopotentials (lmaxx) =  4

     Atomic positions and unit cell read from directory:
     ./tmp/al.save/
 
     Message from routine setup:
     using ibrav=0 with symmetry is DISCOURAGED, use correct ibrav instead
 
     K-points division:     npool     =       8
     Subspace diagonalization in iterative solution of the eigenvalue problem:
     a serial algorithm will be used

 
     G-vector sticks info
     --------------------
     sticks:   dense  smooth     PW     G-vecs:    dense   smooth      PW
     Sum         313     313    121                 3527     3527     869
 
     Using Slab Decomposition
 


     bravais-lattice index     =            0
     lattice parameter (alat)  =       5.2862  a.u.
     unit-cell volume          =     104.4547 (a.u.)^3
     number of atoms/cell      =            1
     number of atomic types    =            1
     number of electrons       =         3.00
     number of Kohn-Sham states=            6
     kinetic-energy cutoff     =      40.0000  Ry
     charge density cutoff     =     160.0000  Ry
     Exchange-correlation= SLA  PZ   NOGX NOGC
                           (   1   1   0   0   0   0   0)

     celldm(1)=   5.286249  celldm(2)=   0.000000  celldm(3)=   0.000000
     celldm(4)=   0.000000  celldm(5)=   0.000000  celldm(6)=   0.000000

     crystal axes: (cart. coord. in units of alat)
               a(1) = (  -0.707107   0.000000   0.707107 )  
               a(2) = (   0.000000   0.707107   0.707107 )  
               a(3) = (  -0.707107   0.707107   0.000000 )  

     reciprocal axes: (cart. coord. in units 2 pi/alat)
               b(1) = ( -0.707107 -0.707107  0.707107 )  
               b(2) = (  0.707107  0.707107  0.707107 )  
               b(3) = ( -0.707107  0.707107 -0.707107 )  


     PseudoPot. # 1 for Al read from file:
     ./pseudo/Al.pz-vbc.UPF
     MD5 check sum: f06ceae8da0fe5c02c98e3688433298c
     Pseudo is Norm-conserving, Zval =  3.0
     Generated by new atomic code, or converted to UPF format
     Using radial grid of  171 points,  2 beta functions with: 
                l(1) =   0
                l(2) =   1

     atomic species   valence    mass     pseudopotential
     Al                3.00    26.98154     Al( 1.00)

     48 Sym. Ops., with inversion, found


                                    s                        frac. trans.

      isym =  1     identity                                     

 cryst.   s( 1) = (     1          0          0      )
                  (     0          1          0      )
                  (     0          0          1      )

 cart.    s( 1) = (  1.0000000  0.0000000  0.0000000 )
                  (  0.0000000  1.0000000  0.0000000 )
                  (  0.0000000  0.0000000  1.0000000 )


      isym =  2     180 deg rotation - cart. axis [0,0,1]        

 cryst.   s( 2) = (     0          1         -1      )
                  (     1          0         -1      )
                  (     0          0         -1      )

 cart.    s( 2) = ( -1.0000000  0.0000000  0.0000000 )
                  (  0.0000000 -1.0000000  0.0000000 )
                  (  0.0000000  0.0000000  1.0000000 )


      isym =  3     180 deg rotation - cart. axis [0,1,0]        

 cryst.   s( 3) = (    -1          0          0      )
                  (    -1          0          1      )
                  (    -1          1          0      )

 cart.    s( 3) = ( -1.0000000  0.0000000  0.0000000 )
                  (  0.0000000  1.0000000  0.0000000 )
                  (  0.0000000  0.0000000 -1.0000000 )


      isym =  4     180 deg rotation - cart. axis [1,0,0]        

 cryst.   s( 4) = (     0         -1          1      )
                  (     0         -1          0      )
                  (     1         -1          0      )

 cart.    s( 4) = (  1.0000000  0.0000000  0.0000000 )
                  (  0.0000000 -1.0000000  0.0000000 )
                  (  0.0000000  0.0000000 -1.0000000 )


      isym =  5     180 deg rotation - cart. axis [1,1,0]        

 cryst.   s( 5) = (     0         -1          0      )
                  (    -1          0          0      )
                  (     0          0         -1      )

 cart.    s( 5) = (  0.0000000  1.0000000  0.0000000 )
                  (  1.0000000  0.0000000  0.0000000 )
                  (  0.0000000  0.0000000 -1.0000000 )


      isym =  6     180 deg rotation - cart. axis [1,-1,0]       

 cryst.   s( 6) = (    -1          0          1      )
                  (     0         -1          1      )
                  (     0          0          1      )

 cart.    s( 6) = (  0.0000000 -1.0000000  0.0000000 )
                  ( -1.0000000  0.0000000  0.0000000 )
                  (  0.0000000  0.0000000 -1.0000000 )


      isym =  7      90 deg rotation - cart. axis [0,0,-1]       

 cryst.   s( 7) = (     0          1          0      )
                  (     0          1         -1      )
                  (    -1          1          0      )

 cart.    s( 7) = (  0.0000000  1.0000000  0.0000000 )
                  ( -1.0000000  0.0000000  0.0000000 )
                  (  0.0000000  0.0000000  1.0000000 )


      isym =  8      90 deg rotation - cart. axis [0,0,1]        

 cryst.   s( 8) = (     1          0         -1      )
                  (     1          0          0      )
                  (     1         -1          0      )

 cart.    s( 8) = (  0.0000000 -1.0000000  0.0000000 )
                  (  1.0000000  0.0000000  0.0000000 )
                  (  0.0000000  0.0000000  1.0000000 )


      isym =  9     180 deg rotation - cart. axis [1,0,1]        

 cryst.   s( 9) = (    -1          0          0      )
                  (     0          0         -1      )
                  (     0         -1          0      )

 cart.    s( 9) = (  0.0000000  0.0000000  1.0000000 )
                  (  0.0000000 -1.0000000  0.0000000 )
                  (  1.0000000  0.0000000  0.0000000 )


      isym = 10     180 deg rotation - cart. axis [-1,0,1]       

 cryst.   s(10) = (     1          0          0      )
                  (     1         -1          0      )
                  (     1          0         -1      )

 cart.    s(10) = (  0.0000000  0.0000000 -1.0000000 )
                  (  0.0000000 -1.0000000  0.0000000 )
                  ( -1.0000000  0.0000000  0.0000000 )


      isym = 11      90 deg rotation - cart. axis [0,1,0]        

 cryst.   s(11) = (     0          1         -1      )
                  (    -1          1          0      )
                  (     0          1          0      )

 cart.    s(11) = (  0.0000000  0.0000000  1.0000000 )
                  (  0.0000000  1.0000000  0.0000000 )
                  ( -1.0000000  0.0000000  0.0000000 )


      isym = 12      90 deg rotation - cart. axis [0,-1,0]       

 cryst.   s(12) = (     0         -1          1      )
                  (     0          0          1      )
                  (    -1          0          1      )

 cart.    s(12) = (  0.0000000  0.0000000 -1.0000000 )
                  (  0.0000000  1.0000000  0.0000000 )
                  (  1.0000000  0.0000000  0.0000000 )


      isym = 13     180 deg rotation - cart. axis [0,1,1]        

 cryst.   s(13) = (    -1          1          0      )
                  (     0          1          0      )
                  (     0          1         -1      )

 cart.    s(13) = ( -1.0000000  0.0000000  0.0000000 )
                  (  0.0000000  0.0000000  1.0000000 )
                  (  0.0000000  1.0000000  0.0000000 )


      isym = 14     180 deg rotation - cart. axis [0,1,-1]       

 cryst.   s(14) = (     0          0         -1      )
                  (     0         -1          0      )
                  (    -1          0          0      )

 cart.    s(14) = ( -1.0000000  0.0000000  0.0000000 )
                  (  0.0000000  0.0000000 -1.0000000 )
                  (  0.0000000 -1.0000000  0.0000000 )


      isym = 15      90 deg rotation - cart. axis [-1,0,0]       

 cryst.   s(15) = (     0          0          1      )
                  (    -1          0          1      )
                  (     0         -1          1      )

 cart.    s(15) = (  1.0000000  0.0000000  0.0000000 )
                  (  0.0000000  0.0000000  1.0000000 )
                  (  0.0000000 -1.0000000  0.0000000 )


      isym = 16      90 deg rotation - cart. axis [1,0,0]        

 cryst.   s(16) = (     1         -1          0      )
                  (     1          0         -1      )
                  (     1          0          0      )

 cart.    s(16) = (  1.0000000  0.0000000  0.0000000 )
                  (  0.0000000  0.0000000 -1.0000000 )
                  (  0.0000000  1.0000000  0.0000000 )


      isym = 17     120 deg rotation - cart. axis [-1,-1,-1]     

 cryst.   s(17) = (    -1          0          1      )
                  (    -1          1          0      )
                  (    -1          0          0      )

 cart.    s(17) = (  0.0000000  1.0000000  0.0000000 )
                  (  0.0000000  0.0000000  1.0000000 )
                  (  1.0000000  0.0000000  0.0000000 )


      isym = 18     120 deg rotation - cart. axis [-1,1,1]       

 cryst.   s(18) = (     0          1          0      )
                  (     0          0          1      )
                  (     1          0          0      )

 cart.    s(18) = (  0.0000000 -1.0000000  0.0000000 )
                  (  0.0000000  0.0000000  1.0000000 )
                  ( -1.0000000  0.0000000  0.0000000 )


      isym = 19     120 deg rotation - cart. axis [1,1,-1]       

 cryst.   s(19) = (     1          0         -1      )
                  (     0          0         -1      )
                  (     0          1         -1      )

 cart.    s(19) = (  0.0000000  1.0000000  0.0000000 )
                  (  0.0000000  0.0000000 -1.0000000 )
                  ( -1.0000000  0.0000000  0.0000000 )


      isym = 20     120 deg rotation - cart. axis [1,-1,1]       

 cryst.   s(20) = (     0         -1          0      )
                  (     1         -1          0      )
                  (     0         -1          1      )

 cart.    s(20) = (  0.0000000 -1.0000000  0.0000000 )
                  (  0.0000000  0.0000000 -1.0000000 )
                  (  1.0000000  0.0000000  0.0000000 )


      isym = 21     120 deg rotation - cart. axis [1,1,1]        

 cryst.   s(21) = (     0          0         -1      )
                  (     0          1         -1      )
                  (     1          0         -1      )

 cart.    s(21) = (  0.0000000  0.0000000  1.0000000 )
                  (  1.0000000  0.0000000  0.0000000 )
                  (  0.0000000  1.0000000  0.0000000 )


      isym = 22     120 deg rotation - cart. axis [-1,1,-1]      

 cryst.   s(22) = (    -1          1          0      )
                  (    -1          0          0      )
                  (    -1          0          1      )

 cart.    s(22) = (  0.0000000  0.0000000  1.0000000 )
                  ( -1.0000000  0.0000000  0.0000000 )
                  (  0.0000000 -1.0000000  0.0000000 )


      isym = 23     120 deg rotation - cart. axis [1,-1,-1]      

 cryst.   s(23) = (     0          0          1      )
                  (     1          0          0      )
                  (     0          1          0      )

 cart.    s(23) = (  0.0000000  0.0000000 -1.0000000 )
                  ( -1.0000000  0.0000000  0.0000000 )
                  (  0.0000000  1.0000000  0.0000000 )


      isym = 24     120 deg rotation - cart. axis [-1,-1,1]      

 cryst.   s(24) = (     1         -1          0      )
                  (     0         -1          1      )
                  (     0         -1          0      )

 cart.    s(24) = (  0.0000000  0.0000000 -1.0000000 )
                  (  1.0000000  0.0000000  0.0000000 )
                  (  0.0000000 -1.0000000  0.0000000 )


      isym = 25     inversion                                    

 cryst.   s(25) = (    -1          0          0      )
                  (     0         -1          0      )
                  (     0          0         -1      )

 cart.    s(25) = ( -1.0000000  0.0000000  0.0000000 )
                  (  0.0000000 -1.0000000  0.0000000 )
                  (  0.0000000  0.0000000 -1.0000000 )


      isym = 26     inv. 180 deg rotation - cart. axis [0,0,1]   

 cryst.   s(26) = (     0         -1          1      )
                  (    -1          0          1      )
                  (     0          0          1      )

 cart.    s(26) = (  1.0000000  0.0000000  0.0000000 )
                  (  0.0000000  1.0000000  0.0000000 )
                  (  0.0000000  0.0000000 -1.0000000 )


      isym = 27     inv. 180 deg rotation - cart. axis [0,1,0]   

 cryst.   s(27) = (     1          0          0      )
                  (     1          0         -1      )
                  (     1         -1          0      )

 cart.    s(27) = (  1.0000000  0.0000000  0.0000000 )
                  (  0.0000000 -1.0000000  0.0000000 )
                  (  0.0000000  0.0000000  1.0000000 )


      isym = 28     inv. 180 deg rotation - cart. axis [1,0,0]   

 cryst.   s(28) = (     0          1         -1      )
                  (     0          1          0      )
                  (    -1          1          0      )

 cart.    s(28) = ( -1.0000000  0.0000000  0.0000000 )
                  (  0.0000000  1.0000000  0.0000000 )
                  (  0.0000000  0.0000000  1.0000000 )


      isym = 29     inv. 180 deg rotation - cart. axis [1,1,0]   

 cryst.   s(29) = (     0          1          0      )
                  (     1          0          0      )
                  (     0          0          1      )

 cart.    s(29) = (  0.0000000 -1.0000000  0.0000000 )
                  ( -1.0000000  0.0000000  0.0000000 )
                  (  0.0000000  0.0000000  1.0000000 )


      isym = 30     inv. 180 deg rotation - cart. axis [1,-1,0]  

 cryst.   s(30) = (     1          0         -1      )
                  (     0          1         -1      )
                  (     0          0         -1      )

 cart.    s(30) = (  0.0000000  1.0000000  0.0000000 )
                  (  1.0000000  0.0000000  0.0000000 )
                  (  0.0000000  0.0000000  1.0000000 )


      isym = 31     inv.  90 deg rotation - cart. axis [0,0,-1]  

 cryst.   s(31) = (     0         -1          0      )
                  (     0         -1          1      )
                  (     1         -1          0      )

 cart.    s(31) = (  0.0000000 -1.0000000  0.0000000 )
                  (  1.0000000  0.0000000  0.0000000 )
                  (  0.0000000  0.0000000 -1.0000000 )


      isym = 32     inv.  90 deg rotation - cart. axis [0,0,1]   

 cryst.   s(32) = (    -1          0          1      )
                  (    -1          0          0      )
                  (    -1          1          0      )

 cart.    s(32) = (  0.0000000  1.0000000  0.0000000 )
                  ( -1.0000000  0.0000000  0.0000000 )
                  (  0.0000000  0.0000000 -1.0000000 )


      isym = 33     inv. 180 deg rotation - cart. axis [1,0,1]   

 cryst.   s(33) = (     1          0          0      )
                  (     0          0          1      )
                  (     0          1          0      )

 cart.    s(33) = (  0.0000000  0.0000000 -1.0000000 )
                  (  0.0000000  1.0000000  0.0000000 )
                  ( -1.0000000  0.0000000  0.0000000 )


      isym = 34     inv. 180 deg rotation - cart. axis [-1,0,1]  

 cryst.   s(34) = (    -1          0          0      )
                  (    -1          1          0      )
                  (    -1          0          1      )

 cart.    s(34) = (  0.0000000  0.0000000  1.0000000 )
                  (  0.0000000  1.0000000  0.0000000 )
                  (  1.0000000  0.0000000  0.0000000 )


      isym = 35     inv.  90 deg rotation - cart. axis [0,1,0]   

 cryst.   s(35) = (     0         -1          1      )
                  (     1         -1          0      )
                  (     0         -1          0      )

 cart.    s(35) = (  0.0000000  0.0000000 -1.0000000 )
                  (  0.0000000 -1.0000000  0.0000000 )
                  (  1.0000000  0.0000000  0.0000000 )


      isym = 36     inv.  90 deg rotation - cart. axis [0,-1,0]  

 cryst.   s(36) = (     0          1         -1      )
                  (     0          0         -1      )
                  (     1          0         -1      )

 cart.    s(36) = (  0.0000000  0.0000000  1.0000000 )
                  (  0.0000000 -1.0000000  0.0000000 )
                  ( -1.0000000  0.0000000  0.0000000 )


      isym = 37     inv. 180 deg rotation - cart. axis [0,1,1]   

 cryst.   s(37) = (     1         -1          0      )
                  (     0         -1          0      )
                  (     0         -1          1      )

 cart.    s(37) = (  1.0000000  0.0000000  0.0000000 )
                  (  0.0000000  0.0000000 -1.0000000 )
                  (  0.0000000 -1.0000000  0.0000000 )


      isym = 38     inv. 180 deg rotation - cart. axis [0,1,-1]  

 cryst.   s(38) = (     0          0          1      )
                  (     0          1          0      )
                  (     1          0          0      )

 cart.    s(38) = (  1.0000000  0.0000000  0.0000000 )
                  (  0.0000000  0.0000000  1.0000000 )
                  (  0.0000000  1.0000000  0.0000000 )


      isym = 39     inv.  90 deg rotation - cart. axis [-1,0,0]  

 cryst.   s(39) = (     0          0         -1      )
                  (     1          0         -1      )
                  (     0          1         -1      )

 cart.    s(39) = ( -1.0000000  0.0000000  0.0000000 )
                  (  0.0000000  0.0000000 -1.0000000 )
                  (  0.0000000  1.0000000  0.0000000 )


      isym = 40     inv.  90 deg rotation - cart. axis [1,0,0]   

 cryst.   s(40) = (    -1          1          0      )
                  (    -1          0          1      )
                  (    -1          0          0      )

 cart.    s(40) = ( -1.0000000  0.0000000  0.0000000 )
                  (  0.0000000  0.0000000  1.0000000 )
                  (  0.0000000 -1.0000000  0.0000000 )


      isym = 41     inv. 120 deg rotation - cart. axis [-1,-1,-1]

 cryst.   s(41) = (     1          0         -1      )
                  (     1         -1          0      )
                  (     1          0          0      )

 cart.    s(41) = (  0.0000000 -1.0000000  0.0000000 )
                  (  0.0000000  0.0000000 -1.0000000 )
                  ( -1.0000000  0.0000000  0.0000000 )


      isym = 42     inv. 120 deg rotation - cart. axis [-1,1,1]  

 cryst.   s(42) = (     0         -1          0      )
                  (     0          0         -1      )
                  (    -1          0          0      )

 cart.    s(42) = (  0.0000000  1.0000000  0.0000000 )
                  (  0.0000000  0.0000000 -1.0000000 )
                  (  1.0000000  0.0000000  0.0000000 )


      isym = 43     inv. 120 deg rotation - cart. axis [1,1,-1]  

 cryst.   s(43) = (    -1          0          1      )
                  (     0          0          1      )
                  (     0         -1          1      )

 cart.    s(43) = (  0.0000000 -1.0000000  0.0000000 )
                  (  0.0000000  0.0000000  1.0000000 )
                  (  1.0000000  0.0000000  0.0000000 )


      isym = 44     inv. 120 deg rotation - cart. axis [1,-1,1]  

 cryst.   s(44) = (     0          1          0      )
                  (    -1          1          0      )
                  (     0          1         -1      )

 cart.    s(44) = (  0.0000000  1.0000000  0.0000000 )
                  (  0.0000000  0.0000000  1.0000000 )
                  ( -1.0000000  0.0000000  0.0000000 )


      isym = 45     inv. 120 deg rotation - cart. axis [1,1,1]   

 cryst.   s(45) = (     0          0          1      )
                  (     0         -1          1      )
                  (    -1          0          1      )

 cart.    s(45) = (  0.0000000  0.0000000 -1.0000000 )
                  ( -1.0000000  0.0000000  0.0000000 )
                  (  0.0000000 -1.0000000  0.0000000 )


      isym = 46     inv. 120 deg rotation - cart. axis [-1,1,-1] 

 cryst.   s(46) = (     1         -1          0      )
                  (     1          0          0      )
                  (     1          0         -1      )

 cart.    s(46) = (  0.0000000  0.0000000 -1.0000000 )
                  (  1.0000000  0.0000000  0.0000000 )
                  (  0.0000000  1.0000000  0.0000000 )


      isym = 47     inv. 120 deg rotation - cart. axis [1,-1,-1] 

 cryst.   s(47) = (     0          0         -1      )
                  (    -1          0          0      )
                  (     0         -1          0      )

 cart.    s(47) = (  0.0000000  0.0000000  1.0000000 )
                  (  1.0000000  0.0000000  0.0000000 )
                  (  0.0000000 -1.0000000  0.0000000 )


      isym = 48     inv. 120 deg rotation - cart. axis [-1,-1,1] 

 cryst.   s(48) = (    -1          1          0      )
                  (     0          1         -1      )
                  (     0          1          0      )

 cart.    s(48) = (  0.0000000  0.0000000  1.0000000 )
                  ( -1.0000000  0.0000000  0.0000000 )
                  (  0.0000000  1.0000000  0.0000000 )


   Cartesian axes

     site n.     atom                  positions (alat units)
         1        Al     tau(   1) = (   0.0000000   0.0000000   0.0000000  )

   Crystallographic axes

     site n.     atom                  positions (cryst. coord.)
         1        Al     tau(   1) = (  0.0000000  0.0000000  0.0000000  )

     number of k points=   512  Marzari-Vanderbilt smearing, width (Ry)=  0.0200
                       cart. coord. in units 2pi/alat
        k(    1) = (   0.0000000   0.0000000   0.0000000), wk =   0.0039062
        k(    2) = (  -0.0883883   0.0883883  -0.0883883), wk =   0.0039062
        k(    3) = (  -0.1767767   0.1767767  -0.1767767), wk =   0.0039062
        k(    4) = (  -0.2651650   0.2651650  -0.2651650), wk =   0.0039062
        k(    5) = (  -0.3535534   0.3535534  -0.3535534), wk =   0.0039062
        k(    6) = (  -0.4419417   0.4419417  -0.4419417), wk =   0.0039062
        k(    7) = (  -0.5303301   0.5303301  -0.5303301), wk =   0.0039062
        k(    8) = (  -0.6187184   0.6187184  -0.6187184), wk =   0.0039062
        k(    9) = (   0.0883883   0.0883883   0.0883883), wk =   0.0039062
        k(   10) = (   0.0000000   0.1767767   0.0000000), wk =   0.0039062
        k(   11) = (  -0.0883883   0.2651650  -0.0883883), wk =   0.0039062
        k(   12) = (  -0.1767767   0.3535534  -0.1767767), wk =   0.0039062
        k(   13) = (  -0.2651650   0.4419417  -0.2651650), wk =   0.0039062
        k(   14) = (  -0.3535534   0.5303301  -0.3535534), wk =   0.0039062
        k(   15) = (  -0.4419417   0.6187184  -0.4419417), wk =   0.0039062
        k(   16) = (  -0.5303301   0.7071068  -0.5303301), wk =   0.0039062
        k(   17) = (   0.1767767   0.1767767   0.1767767), wk =   0.0039062
        k(   18) = (   0.0883883   0.2651650   0.0883883), wk =   0.0039062
        k(   19) = (   0.0000000   0.3535534   0.0000000), wk =   0.0039062
        k(   20) = (  -0.0883883   0.4419417  -0.0883883), wk =   0.0039062
        k(   21) = (  -0.1767767   0.5303301  -0.1767767), wk =   0.0039062
        k(   22) = (  -0.2651650   0.6187184  -0.2651650), wk =   0.0039062
        k(   23) = (  -0.3535534   0.7071068  -0.3535534), wk =   0.0039062
        k(   24) = (  -0.4419417   0.7954951  -0.4419417), wk =   0.0039062
        k(   25) = (   0.2651650   0.2651650   0.2651650), wk =   0.0039062
        k(   26) = (   0.1767767   0.3535534   0.1767767), wk =   0.0039062
        k(   27) = (   0.0883883   0.4419417   0.0883883), wk =   0.0039062
        k(   28) = (   0.0000000   0.5303301   0.0000000), wk =   0.0039062
        k(   29) = (  -0.0883883   0.6187184  -0.0883883), wk =   0.0039062
        k(   30) = (  -0.1767767   0.7071068  -0.1767767), wk =   0.0039062
        k(   31) = (  -0.2651650   0.7954951  -0.2651650), wk =   0.0039062
        k(   32) = (  -0.3535534   0.8838835  -0.3535534), wk =   0.0039062
        k(   33) = (   0.3535534   0.3535534   0.3535534), wk =   0.0039062
        k(   34) = (   0.2651650   0.4419417   0.2651650), wk =   0.0039062
        k(   35) = (   0.1767767   0.5303301   0.1767767), wk =   0.0039062
        k(   36) = (   0.0883883   0.6187184   0.0883883), wk =   0.0039062
        k(   37) = (   0.0000000   0.7071068   0.0000000), wk =   0.0039062
        k(   38) = (  -0.0883883   0.7954951  -0.0883883), wk =   0.0039062
        k(   39) = (  -0.1767767   0.8838835  -0.1767767), wk =   0.0039062
        k(   40) = (  -0.2651650   0.9722718  -0.2651650), wk =   0.0039062
        k(   41) = (   0.4419417   0.4419417   0.4419417), wk =   0.0039062
        k(   42) = (   0.3535534   0.5303301   0.3535534), wk =   0.0039062
        k(   43) = (   0.2651650   0.6187184   0.2651650), wk =   0.0039062
        k(   44) = (   0.1767767   0.7071068   0.1767767), wk =   0.0039062
        k(   45) = (   0.0883883   0.7954951   0.0883883), wk =   0.0039062
        k(   46) = (   0.0000000   0.8838835   0.0000000), wk =   0.0039062
        k(   47) = (  -0.0883883   0.9722718  -0.0883883), wk =   0.0039062
        k(   48) = (  -0.1767767   1.0606602  -0.1767767), wk =   0.0039062
        k(   49) = (   0.5303301   0.5303301   0.5303301), wk =   0.0039062
        k(   50) = (   0.4419417   0.6187184   0.4419417), wk =   0.0039062
        k(   51) = (   0.3535534   0.7071068   0.3535534), wk =   0.0039062
        k(   52) = (   0.2651650   0.7954951   0.2651650), wk =   0.0039062
        k(   53) = (   0.1767767   0.8838835   0.1767767), wk =   0.0039062
        k(   54) = (   0.0883883   0.9722718   0.0883883), wk =   0.0039062
        k(   55) = (   0.0000000   1.0606602   0.0000000), wk =   0.0039062
        k(   56) = (  -0.0883883   1.1490485  -0.0883883), wk =   0.0039062
        k(   57) = (   0.6187184   0.6187184   0.6187184), wk =   0.0039062
        k(   58) = (   0.5303301   0.7071068   0.5303301), wk =   0.0039062
        k(   59) = (   0.4419417   0.7954951   0.4419417), wk =   0.0039062
        k(   60) = (   0.3535534   0.8838835   0.3535534), wk =   0.0039062
        k(   61) = (   0.2651650   0.9722718   0.2651650), wk =   0.0039062
        k(   62) = (   0.1767767   1.0606602   0.1767767), wk =   0.0039062
        k(   63) = (   0.0883883   1.1490485   0.0883883), wk =   0.0039062
        k(   64) = (   0.0000000   1.2374369   0.0000000), wk =   0.0039062
        k(   65) = (  -0.0883883  -0.0883883   0.0883883), wk =   0.0039062
        k(   66) = (  -0.1767767   0.0000000   0.0000000), wk =   0.0039062
        k(   67) = (  -0.2651650   0.0883883  -0.0883883), wk =   0.0039062
        k(   68) = (  -0.3535534   0.1767767  -0.1767767), wk =   0.0039062
        k(   69) = (  -0.4419417   0.2651650  -0.2651650), wk =   0.0039062
        k(   70) = (  -0.5303301   0.3535534  -0.3535534), wk =   0.0039062
        k(   71) = (  -0.6187184   0.4419417  -0.4419417), wk =   0.0039062
        k(   72) = (  -0.7071068   0.5303301  -0.5303301), wk =   0.0039062
        k(   73) = (   0.0000000   0.0000000   0.1767767), wk =   0.0039062
        k(   74) = (  -0.0883883   0.0883883   0.0883883), wk =   0.0039062
        k(   75) = (  -0.1767767   0.1767767   0.0000000), wk =   0.0039062
        k(   76) = (  -0.2651650   0.2651650  -0.0883883), wk =   0.0039062
        k(   77) = (  -0.3535534   0.3535534  -0.1767767), wk =   0.0039062
        k(   78) = (  -0.4419417   0.4419417  -0.2651650), wk =   0.0039062
        k(   79) = (  -0.5303301   0.5303301  -0.3535534), wk =   0.0039062
        k(   80) = (  -0.6187184   0.6187184  -0.4419417), wk =   0.0039062
        k(   81) = (   0.0883883   0.0883883   0.2651650), wk =   0.0039062
        k(   82) = (   0.0000000   0.1767767   0.1767767), wk =   0.0039062
        k(   83) = (  -0.0883883   0.2651650   0.0883883), wk =   0.0039062
        k(   84) = (  -0.1767767   0.3535534   0.0000000), wk =   0.0039062
        k(   85) = (  -0.2651650   0.4419417  -0.0883883), wk =   0.0039062
        k(   86) = (  -0.3535534   0.5303301  -0.1767767), wk =   0.0039062
        k(   87) = (  -0.4419417   0.6187184  -0.2651650), wk =   0.0039062
        k(   88) = (  -0.5303301   0.7071068  -0.3535534), wk =   0.0039062
        k(   89) = (   0.1767767   0.1767767   0.3535534), wk =   0.0039062
        k(   90) = (   0.0883883   0.2651650   0.2651650), wk =   0.0039062
        k(   91) = (   0.0000000   0.3535534   0.1767767), wk =   0.0039062
        k(   92) = (  -0.0883883   0.4419417   0.0883883), wk =   0.0039062
        k(   93) = (  -0.1767767   0.5303301   0.0000000), wk =   0.0039062
        k(   94) = (  -0.2651650   0.6187184  -0.0883883), wk =   0.0039062
        k(   95) = (  -0.3535534   0.7071068  -0.1767767), wk =   0.0039062
        k(   96) = (  -0.4419417   0.7954951  -0.2651650), wk =   0.0039062
        k(   97) = (   0.2651650   0.2651650   0.4419417), wk =   0.0039062
        k(   98) = (   0.1767767   0.3535534   0.3535534), wk =   0.0039062
        k(   99) = (   0.0883883   0.4419417   0.2651650), wk =   0.0039062
        k(  100) = (   0.0000000   0.5303301   0.1767767), wk =   0.0039062
        k(  101) = (  -0.0883883   0.6187184   0.0883883), wk =   0.0039062
        k(  102) = (  -0.1767767   0.7071068   0.0000000), wk =   0.0039062
        k(  103) = (  -0.2651650   0.7954951  -0.0883883), wk =   0.0039062
        k(  104) = (  -0.3535534   0.8838835  -0.1767767), wk =   0.0039062
        k(  105) = (   0.3535534   0.3535534   0.5303301), wk =   0.0039062
        k(  106) = (   0.2651650   0.4419417   0.4419417), wk =   0.0039062
        k(  107) = (   0.1767767   0.5303301   0.3535534), wk =   0.0039062
        k(  108) = (   0.0883883   0.6187184   0.2651650), wk =   0.0039062
        k(  109) = (   0.0000000   0.7071068   0.1767767), wk =   0.0039062
        k(  110) = (  -0.0883883   0.7954951   0.0883883), wk =   0.0039062
        k(  111) = (  -0.1767767   0.8838835   0.0000000), wk =   0.0039062
        k(  112) = (  -0.2651650   0.9722718  -0.0883883), wk =   0.0039062
        k(  113) = (   0.4419417   0.4419417   0.6187184), wk =   0.0039062
        k(  114) = (   0.3535534   0.5303301   0.5303301), wk =   0.0039062
        k(  115) = (   0.2651650   0.6187184   0.4419417), wk =   0.0039062
        k(  116) = (   0.1767767   0.7071068   0.3535534), wk =   0.0039062
        k(  117) = (   0.0883883   0.7954951   0.2651650), wk =   0.0039062
        k(  118) = (   0.0000000   0.8838835   0.1767767), wk =   0.0039062
        k(  119) = (  -0.0883883   0.9722718   0.0883883), wk =   0.0039062
        k(  120) = (  -0.1767767   1.0606602   0.0000000), wk =   0.0039062
        k(  121) = (   0.5303301   0.5303301   0.7071068), wk =   0.0039062
        k(  122) = (   0.4419417   0.6187184   0.6187184), wk =   0.0039062
        k(  123) = (   0.3535534   0.7071068   0.5303301), wk =   0.0039062
        k(  124) = (   0.2651650   0.7954951   0.4419417), wk =   0.0039062
        k(  125) = (   0.1767767   0.8838835   0.3535534), wk =   0.0039062
        k(  126) = (   0.0883883   0.9722718   0.2651650), wk =   0.0039062
        k(  127) = (  -0.0000000   1.0606602   0.1767767), wk =   0.0039062
        k(  128) = (  -0.0883883   1.1490485   0.0883883), wk =   0.0039062
        k(  129) = (  -0.1767767  -0.1767767   0.1767767), wk =   0.0039062
        k(  130) = (  -0.2651650  -0.0883883   0.0883883), wk =   0.0039062
        k(  131) = (  -0.3535534   0.0000000   0.0000000), wk =   0.0039062
        k(  132) = (  -0.4419417   0.0883883  -0.0883883), wk =   0.0039062
        k(  133) = (  -0.5303301   0.1767767  -0.1767767), wk =   0.0039062
        k(  134) = (  -0.6187184   0.2651650  -0.2651650), wk =   0.0039062
        k(  135) = (  -0.7071068   0.3535534  -0.3535534), wk =   0.0039062
        k(  136) = (  -0.7954951   0.4419417  -0.4419417), wk =   0.0039062
        k(  137) = (  -0.0883883  -0.0883883   0.2651650), wk =   0.0039062
        k(  138) = (  -0.1767767   0.0000000   0.1767767), wk =   0.0039062
        k(  139) = (  -0.2651650   0.0883883   0.0883883), wk =   0.0039062
        k(  140) = (  -0.3535534   0.1767767   0.0000000), wk =   0.0039062
        k(  141) = (  -0.4419417   0.2651650  -0.0883883), wk =   0.0039062
        k(  142) = (  -0.5303301   0.3535534  -0.1767767), wk =   0.0039062
        k(  143) = (  -0.6187184   0.4419417  -0.2651650), wk =   0.0039062
        k(  144) = (  -0.7071068   0.5303301  -0.3535534), wk =   0.0039062
        k(  145) = (   0.0000000   0.0000000   0.3535534), wk =   0.0039062
        k(  146) = (  -0.0883883   0.0883883   0.2651650), wk =   0.0039062
        k(  147) = (  -0.1767767   0.1767767   0.1767767), wk =   0.0039062
        k(  148) = (  -0.2651650   0.2651650   0.0883883), wk =   0.0039062
        k(  149) = (  -0.3535534   0.3535534   0.0000000), wk =   0.0039062
        k(  150) = (  -0.4419417   0.4419417  -0.0883883), wk =   0.0039062
        k(  151) = (  -0.5303301   0.5303301  -0.1767767), wk =   0.0039062
        k(  152) = (  -0.6187184   0.6187184  -0.2651650), wk =   0.0039062
        k(  153) = (   0.0883883   0.0883883   0.4419417), wk =   0.0039062
        k(  154) = (   0.0000000   0.1767767   0.3535534), wk =   0.0039062
        k(  155) = (  -0.0883883   0.2651650   0.2651650), wk =   0.0039062
        k(  156) = (  -0.1767767   0.3535534   0.1767767), wk =   0.0039062
        k(  157) = (  -0.2651650   0.4419417   0.0883883), wk =   0.0039062
        k(  158) = (  -0.3535534   0.5303301   0.0000000), wk =   0.0039062
        k(  159) = (  -0.4419417   0.6187184  -0.0883883), wk =   0.0039062
        k(  160) = (  -0.5303301   0.7071068  -0.1767767), wk =   0.0039062
        k(  161) = (   0.1767767   0.1767767   0.5303301), wk =   0.0039062
        k(  162) = (   0.0883883   0.2651650   0.4419417), wk =   0.0039062
        k(  163) = (   0.0000000   0.3535534   0.3535534), wk =   0.0039062
        k(  164) = (  -0.0883883   0.4419417   0.2651650), wk =   0.0039062
        k(  165) = (  -0.1767767   0.5303301   0.1767767), wk =   0.0039062
        k(  166) = (  -0.2651650   0.6187184   0.0883883), wk =   0.0039062
        k(  167) = (  -0.3535534   0.7071068   0.0000000), wk =   0.0039062
        k(  168) = (  -0.4419417   0.7954951  -0.0883883), wk =   0.0039062
        k(  169) = (   0.2651650   0.2651650   0.6187184), wk =   0.0039062
        k(  170) = (   0.1767767   0.3535534   0.5303301), wk =   0.0039062
        k(  171) = (   0.0883883   0.4419417   0.4419417), wk =   0.0039062
        k(  172) = (   0.0000000   0.5303301   0.3535534), wk =   0.0039062
        k(  173) = (  -0.0883883   0.6187184   0.2651650), wk =   0.0039062
        k(  174) = (  -0.1767767   0.7071068   0.1767767), wk =   0.0039062
        k(  175) = (  -0.2651650   0.7954951   0.0883883), wk =   0.0039062
        k(  176) = (  -0.3535534   0.8838835   0.0000000), wk =   0.0039062
        k(  177) = (   0.3535534   0.3535534   0.7071068), wk =   0.0039062
        k(  178) = (   0.2651650   0.4419417   0.6187184), wk =   0.0039062
        k(  179) = (   0.1767767   0.5303301   0.5303301), wk =   0.0039062
        k(  180) = (   0.0883883   0.6187184   0.4419417), wk =   0.0039062
        k(  181) = (   0.0000000   0.7071068   0.3535534), wk =   0.0039062
        k(  182) = (  -0.0883883   0.7954951   0.2651650), wk =   0.0039062
        k(  183) = (  -0.1767767   0.8838835   0.1767767), wk =   0.0039062
        k(  184) = (  -0.2651650   0.9722718   0.0883883), wk =   0.0039062
        k(  185) = (   0.4419417   0.4419417   0.7954951), wk =   0.0039062
        k(  186) = (   0.3535534   0.5303301   0.7071068), wk =   0.0039062
        k(  187) = (   0.2651650   0.6187184   0.6187184), wk =   0.0039062
        k(  188) = (   0.1767767   0.7071068   0.5303301), wk =   0.0039062
        k(  189) = (   0.0883883   0.7954951   0.4419417), wk =   0.0039062
        k(  190) = (   0.0000000   0.8838835   0.3535534), wk =   0.0039062
        k(  191) = (  -0.0883883   0.9722718   0.2651650), wk =   0.0039062
        k(  192) = (  -0.1767767   1.0606602   0.1767767), wk =   0.0039062
        k(  193) = (  -0.2651650  -0.2651650   0.2651650), wk =   0.0039062
        k(  194) = (  -0.3535534  -0.1767767   0.1767767), wk =   0.0039062
        k(  195) = (  -0.4419417  -0.0883883   0.0883883), wk =   0.0039062
        k(  196) = (  -0.5303301   0.0000000   0.0000000), wk =   0.0039062
        k(  197) = (  -0.6187184   0.0883883  -0.0883883), wk =   0.0039062
        k(  198) = (  -0.7071068   0.1767767  -0.1767767), wk =   0.0039062
        k(  199) = (  -0.7954951   0.2651650  -0.2651650), wk =   0.0039062
        k(  200) = (  -0.8838835   0.3535534  -0.3535534), wk =   0.0039062
        k(  201) = (  -0.1767767  -0.1767767   0.3535534), wk =   0.0039062
        k(  202) = (  -0.2651650  -0.0883883   0.2651650), wk =   0.0039062
        k(  203) = (  -0.3535534  -0.0000000   0.1767767), wk =   0.0039062
        k(  204) = (  -0.4419417   0.0883883   0.0883883), wk =   0.0039062
        k(  205) = (  -0.5303301   0.1767767   0.0000000), wk =   0.0039062
        k(  206) = (  -0.6187184   0.2651650  -0.0883883), wk =   0.0039062
        k(  207) = (  -0.7071068   0.3535534  -0.1767767), wk =   0.0039062
        k(  208) = (  -0.7954951   0.4419417  -0.2651650), wk =   0.0039062
        k(  209) = (  -0.0883883  -0.0883883   0.4419417), wk =   0.0039062
        k(  210) = (  -0.1767767  -0.0000000   0.3535534), wk =   0.0039062
        k(  211) = (  -0.2651650   0.0883883   0.2651650), wk =   0.0039062
        k(  212) = (  -0.3535534   0.1767767   0.1767767), wk =   0.0039062
        k(  213) = (  -0.4419417   0.2651650   0.0883883), wk =   0.0039062
        k(  214) = (  -0.5303301   0.3535534   0.0000000), wk =   0.0039062
        k(  215) = (  -0.6187184   0.4419417  -0.0883883), wk =   0.0039062
        k(  216) = (  -0.7071068   0.5303301  -0.1767767), wk =   0.0039062
        k(  217) = (   0.0000000   0.0000000   0.5303301), wk =   0.0039062
        k(  218) = (  -0.0883883   0.0883883   0.4419417), wk =   0.0039062
        k(  219) = (  -0.1767767   0.1767767   0.3535534), wk =   0.0039062
        k(  220) = (  -0.2651650   0.2651650   0.2651650), wk =   0.0039062
        k(  221) = (  -0.3535534   0.3535534   0.1767767), wk =   0.0039062
        k(  222) = (  -0.4419417   0.4419417   0.0883883), wk =   0.0039062
        k(  223) = (  -0.5303301   0.5303301   0.0000000), wk =   0.0039062
        k(  224) = (  -0.6187184   0.6187184  -0.0883883), wk =   0.0039062
        k(  225) = (   0.0883883   0.0883883   0.6187184), wk =   0.0039062
        k(  226) = (  -0.0000000   0.1767767   0.5303301), wk =   0.0039062
        k(  227) = (  -0.0883883   0.2651650   0.4419417), wk =   0.0039062
        k(  228) = (  -0.1767767   0.3535534   0.3535534), wk =   0.0039062
        k(  229) = (  -0.2651650   0.4419417   0.2651650), wk =   0.0039062
        k(  230) = (  -0.3535534   0.5303301   0.1767767), wk =   0.0039062
        k(  231) = (  -0.4419417   0.6187184   0.0883883), wk =   0.0039062
        k(  232) = (  -0.5303301   0.7071068   0.0000000), wk =   0.0039062
        k(  233) = (   0.1767767   0.1767767   0.7071068), wk =   0.0039062
        k(  234) = (   0.0883883   0.2651650   0.6187184), wk =   0.0039062
        k(  235) = (  -0.0000000   0.3535534   0.5303301), wk =   0.0039062
        k(  236) = (  -0.0883883   0.4419417   0.4419417), wk =   0.0039062
        k(  237) = (  -0.1767767   0.5303301   0.3535534), wk =   0.0039062
        k(  238) = (  -0.2651650   0.6187184   0.2651650), wk =   0.0039062
        k(  239) = (  -0.3535534   0.7071068   0.1767767), wk =   0.0039062
        k(  240) = (  -0.4419417   0.7954951   0.0883883), wk =   0.0039062
        k(  241) = (   0.2651650   0.2651650   0.7954951), wk =   0.0039062
        k(  242) = (   0.1767767   0.3535534   0.7071068), wk =   0.0039062
        k(  243) = (   0.0883883   0.4419417   0.6187184), wk =   0.0039062
        k(  244) = (   0.0000000   0.5303301   0.5303301), wk =   0.0039062
        k(  245) = (  -0.0883883   0.6187184   0.4419417), wk =   0.0039062
        k(  246) = (  -0.1767767   0.7071068   0.3535534), wk =   0.0039062
        k(  247) = (  -0.2651650   0.7954951   0.2651650), wk =   0.0039062
        k(  248) = (  -0.3535534   0.8838835   0.1767767), wk =   0.0039062
        k(  249) = (   0.3535534   0.3535534   0.8838835), wk =   0.0039062
        k(  250) = (   0.2651650   0.4419417   0.7954951), wk =   0.0039062
        k(  251) = (   0.1767767   0.5303301   0.7071068), wk =   0.0039062
        k(  252) = (   0.0883883   0.6187184   0.6187184), wk =   0.0039062
        k(  253) = (  -0.0000000   0.7071068   0.5303301), wk =   0.0039062
        k(  254) = (  -0.0883883   0.7954951   0.4419417), wk =   0.0039062
        k(  255) = (  -0.1767767   0.8838835   0.3535534), wk =   0.0039062
        k(  256) = (  -0.2651650   0.9722718   0.2651650), wk =   0.0039062
        k(  257) = (  -0.3535534  -0.3535534   0.3535534), wk =   0.0039062
        k(  258) = (  -0.4419417  -0.2651650   0.2651650), wk =   0.0039062
        k(  259) = (  -0.5303301  -0.1767767   0.1767767), wk =   0.0039062
        k(  260) = (  -0.6187184  -0.0883883   0.0883883), wk =   0.0039062
        k(  261) = (  -0.7071068   0.0000000   0.0000000), wk =   0.0039062
        k(  262) = (  -0.7954951   0.0883883  -0.0883883), wk =   0.0039062
        k(  263) = (  -0.8838835   0.1767767  -0.1767767), wk =   0.0039062
        k(  264) = (  -0.9722718   0.2651650  -0.2651650), wk =   0.0039062
        k(  265) = (  -0.2651650  -0.2651650   0.4419417), wk =   0.0039062
        k(  266) = (  -0.3535534  -0.1767767   0.3535534), wk =   0.0039062
        k(  267) = (  -0.4419417  -0.0883883   0.2651650), wk =   0.0039062
        k(  268) = (  -0.5303301   0.0000000   0.1767767), wk =   0.0039062
        k(  269) = (  -0.6187184   0.0883883   0.0883883), wk =   0.0039062
        k(  270) = (  -0.7071068   0.1767767   0.0000000), wk =   0.0039062
        k(  271) = (  -0.7954951   0.2651650  -0.0883883), wk =   0.0039062
        k(  272) = (  -0.8838835   0.3535534  -0.1767767), wk =   0.0039062
        k(  273) = (  -0.1767767  -0.1767767   0.5303301), wk =   0.0039062
        k(  274) = (  -0.2651650  -0.0883883   0.4419417), wk =   0.0039062
        k(  275) = (  -0.3535534   0.0000000   0.3535534), wk =   0.0039062
        k(  276) = (  -0.4419417   0.0883883   0.2651650), wk =   0.0039062
        k(  277) = (  -0.5303301   0.1767767   0.1767767), wk =   0.0039062
        k(  278) = (  -0.6187184   0.2651650   0.0883883), wk =   0.0039062
        k(  279) = (  -0.7071068   0.3535534   0.0000000), wk =   0.0039062
        k(  280) = (  -0.7954951   0.4419417  -0.0883883), wk =   0.0039062
        k(  281) = (  -0.0883883  -0.0883883   0.6187184), wk =   0.0039062
        k(  282) = (  -0.1767767   0.0000000   0.5303301), wk =   0.0039062
        k(  283) = (  -0.2651650   0.0883883   0.4419417), wk =   0.0039062
        k(  284) = (  -0.3535534   0.1767767   0.3535534), wk =   0.0039062
        k(  285) = (  -0.4419417   0.2651650   0.2651650), wk =   0.0039062
        k(  286) = (  -0.5303301   0.3535534   0.1767767), wk =   0.0039062
        k(  287) = (  -0.6187184   0.4419417   0.0883883), wk =   0.0039062
        k(  288) = (  -0.7071068   0.5303301   0.0000000), wk =   0.0039062
        k(  289) = (   0.0000000   0.0000000   0.7071068), wk =   0.0039062
        k(  290) = (  -0.0883883   0.0883883   0.6187184), wk =   0.0039062
        k(  291) = (  -0.1767767   0.1767767   0.5303301), wk =   0.0039062
        k(  292) = (  -0.2651650   0.2651650   0.4419417), wk =   0.0039062
        k(  293) = (  -0.3535534   0.3535534   0.3535534), wk =   0.0039062
        k(  294) = (  -0.4419417   0.4419417   0.2651650), wk =   0.0039062
        k(  295) = (  -0.5303301   0.5303301   0.1767767), wk =   0.0039062
        k(  296) = (  -0.6187184   0.6187184   0.0883883), wk =   0.0039062
        k(  297) = (   0.0883883   0.0883883   0.7954951), wk =   0.0039062
        k(  298) = (  -0.0000000   0.1767767   0.7071068), wk =   0.0039062
        k(  299) = (  -0.0883883   0.2651650   0.6187184), wk =   0.0039062
        k(  300) = (  -0.1767767   0.3535534   0.5303301), wk =   0.0039062
        k(  301) = (  -0.2651650   0.4419417   0.4419417), wk =   0.0039062
        k(  302) = (  -0.3535534   0.5303301   0.3535534), wk =   0.0039062
        k(  303) = (  -0.4419417   0.6187184   0.2651650), wk =   0.0039062
        k(  304) = (  -0.5303301   0.7071068   0.1767767), wk =   0.0039062
        k(  305) = (   0.1767767   0.1767767   0.8838835), wk =   0.0039062
        k(  306) = (   0.0883883   0.2651650   0.7954951), wk =   0.0039062
        k(  307) = (   0.0000000   0.3535534   0.7071068), wk =   0.0039062
        k(  308) = (  -0.0883883   0.4419417   0.6187184), wk =   0.0039062
        k(  309) = (  -0.1767767   0.5303301   0.5303301), wk =   0.0039062
        k(  310) = (  -0.2651650   0.6187184   0.4419417), wk =   0.0039062
        k(  311) = (  -0.3535534   0.7071068   0.3535534), wk =   0.0039062
        k(  312) = (  -0.4419417   0.7954951   0.2651650), wk =   0.0039062
        k(  313) = (   0.2651650   0.2651650   0.9722718), wk =   0.0039062
        k(  314) = (   0.1767767   0.3535534   0.8838835), wk =   0.0039062
        k(  315) = (   0.0883883   0.4419417   0.7954951), wk =   0.0039062
        k(  316) = (  -0.0000000   0.5303301   0.7071068), wk =   0.0039062
        k(  317) = (  -0.0883883   0.6187184   0.6187184), wk =   0.0039062
        k(  318) = (  -0.1767767   0.7071068   0.5303301), wk =   0.0039062
        k(  319) = (  -0.2651650   0.7954951   0.4419417), wk =   0.0039062
        k(  320) = (  -0.3535534   0.8838835   0.3535534), wk =   0.0039062
        k(  321) = (  -0.4419417  -0.4419417   0.4419417), wk =   0.0039062
        k(  322) = (  -0.5303301  -0.3535534   0.3535534), wk =   0.0039062
        k(  323) = (  -0.6187184  -0.2651650   0.2651650), wk =   0.0039062
        k(  324) = (  -0.7071068  -0.1767767   0.1767767), wk =   0.0039062
        k(  325) = (  -0.7954951  -0.0883883   0.0883883), wk =   0.0039062
        k(  326) = (  -0.8838835   0.0000000   0.0000000), wk =   0.0039062
        k(  327) = (  -0.9722718   0.0883883  -0.0883883), wk =   0.0039062
        k(  328) = (  -1.0606602   0.1767767  -0.1767767), wk =   0.0039062
        k(  329) = (  -0.3535534  -0.3535534   0.5303301), wk =   0.0039062
        k(  330) = (  -0.4419417  -0.2651650   0.4419417), wk =   0.0039062
        k(  331) = (  -0.5303301  -0.1767767   0.3535534), wk =   0.0039062
        k(  332) = (  -0.6187184  -0.0883883   0.2651650), wk =   0.0039062
        k(  333) = (  -0.7071068   0.0000000   0.1767767), wk =   0.0039062
        k(  334) = (  -0.7954951   0.0883883   0.0883883), wk =   0.0039062
        k(  335) = (  -0.8838835   0.1767767   0.0000000), wk =   0.0039062
        k(  336) = (  -0.9722718   0.2651650  -0.0883883), wk =   0.0039062
        k(  337) = (  -0.2651650  -0.2651650   0.6187184), wk =   0.0039062
        k(  338) = (  -0.3535534  -0.1767767   0.5303301), wk =   0.0039062
        k(  339) = (  -0.4419417  -0.0883883   0.4419417), wk =   0.0039062
        k(  340) = (  -0.5303301   0.0000000   0.3535534), wk =   0.0039062
        k(  341) = (  -0.6187184   0.0883883   0.2651650), wk =   0.0039062
        k(  342) = (  -0.7071068   0.1767767   0.1767767), wk =   0.0039062
        k(  343) = (  -0.7954951   0.2651650   0.0883883), wk =   0.0039062
        k(  344) = (  -0.8838835   0.3535534   0.0000000), wk =   0.0039062
        k(  345) = (  -0.1767767  -0.1767767   0.7071068), wk =   0.0039062
        k(  346) = (  -0.2651650  -0.0883883   0.6187184), wk =   0.0039062
        k(  347) = (  -0.3535534   0.0000000   0.5303301), wk =   0.0039062
        k(  348) = (  -0.4419417   0.0883883   0.4419417), wk =   0.0039062
        k(  349) = (  -0.5303301   0.1767767   0.3535534), wk =   0.0039062
        k(  350) = (  -0.6187184   0.2651650   0.2651650), wk =   0.0039062
        k(  351) = (  -0.7071068   0.3535534   0.1767767), wk =   0.0039062
        k(  352) = (  -0.7954951   0.4419417   0.0883883), wk =   0.0039062
        k(  353) = (  -0.0883883  -0.0883883   0.7954951), wk =   0.0039062
        k(  354) = (  -0.1767767   0.0000000   0.7071068), wk =   0.0039062
        k(  355) = (  -0.2651650   0.0883883   0.6187184), wk =   0.0039062
        k(  356) = (  -0.3535534   0.1767767   0.5303301), wk =   0.0039062
        k(  357) = (  -0.4419417   0.2651650   0.4419417), wk =   0.0039062
        k(  358) = (  -0.5303301   0.3535534   0.3535534), wk =   0.0039062
        k(  359) = (  -0.6187184   0.4419417   0.2651650), wk =   0.0039062
        k(  360) = (  -0.7071068   0.5303301   0.1767767), wk =   0.0039062
        k(  361) = (   0.0000000   0.0000000   0.8838835), wk =   0.0039062
        k(  362) = (  -0.0883883   0.0883883   0.7954951), wk =   0.0039062
        k(  363) = (  -0.1767767   0.1767767   0.7071068), wk =   0.0039062
        k(  364) = (  -0.2651650   0.2651650   0.6187184), wk =   0.0039062
        k(  365) = (  -0.3535534   0.3535534   0.5303301), wk =   0.0039062
        k(  366) = (  -0.4419417   0.4419417   0.4419417), wk =   0.0039062
        k(  367) = (  -0.5303301   0.5303301   0.3535534), wk =   0.0039062
        k(  368) = (  -0.6187184   0.6187184   0.2651650), wk =   0.0039062
        k(  369) = (   0.0883883   0.0883883   0.9722718), wk =   0.0039062
        k(  370) = (   0.0000000   0.1767767   0.8838835), wk =   0.0039062
        k(  371) = (  -0.0883883   0.2651650   0.7954951), wk =   0.0039062
        k(  372) = (  -0.1767767   0.3535534   0.7071068), wk =   0.0039062
        k(  373) = (  -0.2651650   0.4419417   0.6187184), wk =   0.0039062
        k(  374) = (  -0.3535534   0.5303301   0.5303301), wk =   0.0039062
        k(  375) = (  -0.4419417   0.6187184   0.4419417), wk =   0.0039062
        k(  376) = (  -0.5303301   0.7071068   0.3535534), wk =   0.0039062
        k(  377) = (   0.1767767   0.1767767   1.0606602), wk =   0.0039062
        k(  378) = (   0.0883883   0.2651650   0.9722718), wk =   0.0039062
        k(  379) = (  -0.0000000   0.3535534   0.8838835), wk =   0.0039062
        k(  380) = (  -0.0883883   0.4419417   0.7954951), wk =   0.0039062
        k(  381) = (  -0.1767767   0.5303301   0.7071068), wk =   0.0039062
        k(  382) = (  -0.2651650   0.6187184   0.6187184), wk =   0.0039062
        k(  383) = (  -0.3535534   0.7071068   0.5303301), wk =   0.0039062
        k(  384) = (  -0.4419417   0.7954951   0.4419417), wk =   0.0039062
        k(  385) = (  -0.5303301  -0.5303301   0.5303301), wk =   0.0039062
        k(  386) = (  -0.6187184  -0.4419417   0.4419417), wk =   0.0039062
        k(  387) = (  -0.7071068  -0.3535534   0.3535534), wk =   0.0039062
        k(  388) = (  -0.7954951  -0.2651650   0.2651650), wk =   0.0039062
        k(  389) = (  -0.8838835  -0.1767767   0.1767767), wk =   0.0039062
        k(  390) = (  -0.9722718  -0.0883883   0.0883883), wk =   0.0039062
        k(  391) = (  -1.0606602   0.0000000   0.0000000), wk =   0.0039062
        k(  392) = (  -1.1490485   0.0883883  -0.0883883), wk =   0.0039062
        k(  393) = (  -0.4419417  -0.4419417   0.6187184), wk =   0.0039062
        k(  394) = (  -0.5303301  -0.3535534   0.5303301), wk =   0.0039062
        k(  395) = (  -0.6187184  -0.2651650   0.4419417), wk =   0.0039062
        k(  396) = (  -0.7071068  -0.1767767   0.3535534), wk =   0.0039062
        k(  397) = (  -0.7954951  -0.0883883   0.2651650), wk =   0.0039062
        k(  398) = (  -0.8838835  -0.0000000   0.1767767), wk =   0.0039062
        k(  399) = (  -0.9722718   0.0883883   0.0883883), wk =   0.0039062
        k(  400) = (  -1.0606602   0.1767767   0.0000000), wk =   0.0039062
        k(  401) = (  -0.3535534  -0.3535534   0.7071068), wk =   0.0039062
        k(  402) = (  -0.4419417  -0.2651650   0.6187184), wk =   0.0039062
        k(  403) = (  -0.5303301  -0.1767767   0.5303301), wk =   0.0039062
        k(  404) = (  -0.6187184  -0.0883883   0.4419417), wk =   0.0039062
        k(  405) = (  -0.7071068  -0.0000000   0.3535534), wk =   0.0039062
        k(  406) = (  -0.7954951   0.0883883   0.2651650), wk =   0.0039062
        k(  407) = (  -0.8838835   0.1767767   0.1767767), wk =   0.0039062
        k(  408) = (  -0.9722718   0.2651650   0.0883883), wk =   0.0039062
        k(  409) = (  -0.2651650  -0.2651650   0.7954951), wk =   0.0039062
        k(  410) = (  -0.3535534  -0.1767767   0.7071068), wk =   0.0039062
        k(  411) = (  -0.4419417  -0.0883883   0.6187184), wk =   0.0039062
        k(  412) = (  -0.5303301   0.0000000   0.5303301), wk =   0.0039062
        k(  413) = (  -0.6187184   0.0883883   0.4419417), wk =   0.0039062
        k(  414) = (  -0.7071068   0.1767767   0.3535534), wk =   0.0039062
        k(  415) = (  -0.7954951   0.2651650   0.2651650), wk =   0.0039062
        k(  416) = (  -0.8838835   0.3535534   0.1767767), wk =   0.0039062
        k(  417) = (  -0.1767767  -0.1767767   0.8838835), wk =   0.0039062
        k(  418) = (  -0.2651650  -0.0883883   0.7954951), wk =   0.0039062
        k(  419) = (  -0.3535534  -0.0000000   0.7071068), wk =   0.0039062
        k(  420) = (  -0.4419417   0.0883883   0.6187184), wk =   0.0039062
        k(  421) = (  -0.5303301   0.1767767   0.5303301), wk =   0.0039062
        k(  422) = (  -0.6187184   0.2651650   0.4419417), wk =   0.0039062
        k(  423) = (  -0.7071068   0.3535534   0.3535534), wk =   0.0039062
        k(  424) = (  -0.7954951   0.4419417   0.2651650), wk =   0.0039062
        k(  425) = (  -0.0883883  -0.0883883   0.9722718), wk =   0.0039062
        k(  426) = (  -0.1767767  -0.0000000   0.8838835), wk =   0.0039062
        k(  427) = (  -0.2651650   0.0883883   0.7954951), wk =   0.0039062
        k(  428) = (  -0.3535534   0.1767767   0.7071068), wk =   0.0039062
        k(  429) = (  -0.4419417   0.2651650   0.6187184), wk =   0.0039062
        k(  430) = (  -0.5303301   0.3535534   0.5303301), wk =   0.0039062
        k(  431) = (  -0.6187184   0.4419417   0.4419417), wk =   0.0039062
        k(  432) = (  -0.7071068   0.5303301   0.3535534), wk =   0.0039062
        k(  433) = (   0.0000000   0.0000000   1.0606602), wk =   0.0039062
        k(  434) = (  -0.0883883   0.0883883   0.9722718), wk =   0.0039062
        k(  435) = (  -0.1767767   0.1767767   0.8838835), wk =   0.0039062
        k(  436) = (  -0.2651650   0.2651650   0.7954951), wk =   0.0039062
        k(  437) = (  -0.3535534   0.3535534   0.7071068), wk =   0.0039062
        k(  438) = (  -0.4419417   0.4419417   0.6187184), wk =   0.0039062
        k(  439) = (  -0.5303301   0.5303301   0.5303301), wk =   0.0039062
        k(  440) = (  -0.6187184   0.6187184   0.4419417), wk =   0.0039062
        k(  441) = (   0.0883883   0.0883883   1.1490485), wk =   0.0039062
        k(  442) = (  -0.0000000   0.1767767   1.0606602), wk =   0.0039062
        k(  443) = (  -0.0883883   0.2651650   0.9722718), wk =   0.0039062
        k(  444) = (  -0.1767767   0.3535534   0.8838835), wk =   0.0039062
        k(  445) = (  -0.2651650   0.4419417   0.7954951), wk =   0.0039062
        k(  446) = (  -0.3535534   0.5303301   0.7071068), wk =   0.0039062
        k(  447) = (  -0.4419417   0.6187184   0.6187184), wk =   0.0039062
        k(  448) = (  -0.5303301   0.7071068   0.5303301), wk =   0.0039062
        k(  449) = (  -0.6187184  -0.6187184   0.6187184), wk =   0.0039062
        k(  450) = (  -0.7071068  -0.5303301   0.5303301), wk =   0.0039062
        k(  451) = (  -0.7954951  -0.4419417   0.4419417), wk =   0.0039062
        k(  452) = (  -0.8838835  -0.3535534   0.3535534), wk =   0.0039062
        k(  453) = (  -0.9722718  -0.2651650   0.2651650), wk =   0.0039062
        k(  454) = (  -1.0606602  -0.1767767   0.1767767), wk =   0.0039062
        k(  455) = (  -1.1490485  -0.0883883   0.0883883), wk =   0.0039062
        k(  456) = (  -1.2374369   0.0000000   0.0000000), wk =   0.0039062
        k(  457) = (  -0.5303301  -0.5303301   0.7071068), wk =   0.0039062
        k(  458) = (  -0.6187184  -0.4419417   0.6187184), wk =   0.0039062
        k(  459) = (  -0.7071068  -0.3535534   0.5303301), wk =   0.0039062
        k(  460) = (  -0.7954951  -0.2651650   0.4419417), wk =   0.0039062
        k(  461) = (  -0.8838835  -0.1767767   0.3535534), wk =   0.0039062
        k(  462) = (  -0.9722718  -0.0883883   0.2651650), wk =   0.0039062
        k(  463) = (  -1.0606602   0.0000000   0.1767767), wk =   0.0039062
        k(  464) = (  -1.1490485   0.0883883   0.0883883), wk =   0.0039062
        k(  465) = (  -0.4419417  -0.4419417   0.7954951), wk =   0.0039062
        k(  466) = (  -0.5303301  -0.3535534   0.7071068), wk =   0.0039062
        k(  467) = (  -0.6187184  -0.2651650   0.6187184), wk =   0.0039062
        k(  468) = (  -0.7071068  -0.1767767   0.5303301), wk =   0.0039062
        k(  469) = (  -0.7954951  -0.0883883   0.4419417), wk =   0.0039062
        k(  470) = (  -0.8838835   0.0000000   0.3535534), wk =   0.0039062
        k(  471) = (  -0.9722718   0.0883883   0.2651650), wk =   0.0039062
        k(  472) = (  -1.0606602   0.1767767   0.1767767), wk =   0.0039062
        k(  473) = (  -0.3535534  -0.3535534   0.8838835), wk =   0.0039062
        k(  474) = (  -0.4419417  -0.2651650   0.7954951), wk =   0.0039062
        k(  475) = (  -0.5303301  -0.1767767   0.7071068), wk =   0.0039062
        k(  476) = (  -0.6187184  -0.0883883   0.6187184), wk =   0.0039062
        k(  477) = (  -0.7071068   0.0000000   0.5303301), wk =   0.0039062
        k(  478) = (  -0.7954951   0.0883883   0.4419417), wk =   0.0039062
        k(  479) = (  -0.8838835   0.1767767   0.3535534), wk =   0.0039062
        k(  480) = (  -0.9722718   0.2651650   0.2651650), wk =   0.0039062
        k(  481) = (  -0.2651650  -0.2651650   0.9722718), wk =   0.0039062
        k(  482) = (  -0.3535534  -0.1767767   0.8838835), wk =   0.0039062
        k(  483) = (  -0.4419417  -0.0883883   0.7954951), wk =   0.0039062
        k(  484) = (  -0.5303301   0.0000000   0.7071068), wk =   0.0039062
        k(  485) = (  -0.6187184   0.0883883   0.6187184), wk =   0.0039062
        k(  486) = (  -0.7071068   0.1767767   0.5303301), wk =   0.0039062
        k(  487) = (  -0.7954951   0.2651650   0.4419417), wk =   0.0039062
        k(  488) = (  -0.8838835   0.3535534   0.3535534), wk =   0.0039062
        k(  489) = (  -0.1767767  -0.1767767   1.0606602), wk =   0.0039062
        k(  490) = (  -0.2651650  -0.0883883   0.9722718), wk =   0.0039062
        k(  491) = (  -0.3535534   0.0000000   0.8838835), wk =   0.0039062
        k(  492) = (  -0.4419417   0.0883883   0.7954951), wk =   0.0039062
        k(  493) = (  -0.5303301   0.1767767   0.7071068), wk =   0.0039062
        k(  494) = (  -0.6187184   0.2651650   0.6187184), wk =   0.0039062
        k(  495) = (  -0.7071068   0.3535534   0.5303301), wk =   0.0039062
        k(  496) = (  -0.7954951   0.4419417   0.4419417), wk =   0.0039062
        k(  497) = (  -0.0883883  -0.0883883   1.1490485), wk =   0.0039062
        k(  498) = (  -0.1767767   0.0000000   1.0606602), wk =   0.0039062
        k(  499) = (  -0.2651650   0.0883883   0.9722718), wk =   0.0039062
        k(  500) = (  -0.3535534   0.1767767   0.8838835), wk =   0.0039062
        k(  501) = (  -0.4419417   0.2651650   0.7954951), wk =   0.0039062
        k(  502) = (  -0.5303301   0.3535534   0.7071068), wk =   0.0039062
        k(  503) = (  -0.6187184   0.4419417   0.6187184), wk =   0.0039062
        k(  504) = (  -0.7071068   0.5303301   0.5303301), wk =   0.0039062
        k(  505) = (   0.0000000   0.0000000   1.2374369), wk =   0.0039062
        k(  506) = (  -0.0883883   0.0883883   1.1490485), wk =   0.0039062
        k(  507) = (  -0.1767767   0.1767767   1.0606602), wk =   0.0039062
        k(  508) = (  -0.2651650   0.2651650   0.9722718), wk =   0.0039062
        k(  509) = (  -0.3535534   0.3535534   0.8838835), wk =   0.0039062
        k(  510) = (  -0.4419417   0.4419417   0.7954951), wk =   0.0039062
        k(  511) = (  -0.5303301   0.5303301   0.7071068), wk =   0.0039062
        k(  512) = (  -0.6187184   0.6187184   0.6187184), wk =   0.0039062

                       cryst. coord.
        k(    1) = (   0.0000000   0.0000000   0.0000000), wk =   0.0039062
        k(    2) = (   0.0000000   0.0000000   0.1250000), wk =   0.0039062
        k(    3) = (   0.0000000   0.0000000   0.2500000), wk =   0.0039062
        k(    4) = (   0.0000000   0.0000000   0.3750000), wk =   0.0039062
        k(    5) = (   0.0000000   0.0000000   0.5000000), wk =   0.0039062
        k(    6) = (   0.0000000   0.0000000   0.6250000), wk =   0.0039062
        k(    7) = (   0.0000000   0.0000000   0.7500000), wk =   0.0039062
        k(    8) = (   0.0000000   0.0000000   0.8750000), wk =   0.0039062
        k(    9) = (   0.0000000   0.1250000   0.0000000), wk =   0.0039062
        k(   10) = (   0.0000000   0.1250000   0.1250000), wk =   0.0039062
        k(   11) = (   0.0000000   0.1250000   0.2500000), wk =   0.0039062
        k(   12) = (   0.0000000   0.1250000   0.3750000), wk =   0.0039062
        k(   13) = (   0.0000000   0.1250000   0.5000000), wk =   0.0039062
        k(   14) = (   0.0000000   0.1250000   0.6250000), wk =   0.0039062
        k(   15) = (   0.0000000   0.1250000   0.7500000), wk =   0.0039062
        k(   16) = (   0.0000000   0.1250000   0.8750000), wk =   0.0039062
        k(   17) = (   0.0000000   0.2500000   0.0000000), wk =   0.0039062
        k(   18) = (   0.0000000   0.2500000   0.1250000), wk =   0.0039062
        k(   19) = (   0.0000000   0.2500000   0.2500000), wk =   0.0039062
        k(   20) = (   0.0000000   0.2500000   0.3750000), wk =   0.0039062
        k(   21) = (   0.0000000   0.2500000   0.5000000), wk =   0.0039062
        k(   22) = (   0.0000000   0.2500000   0.6250000), wk =   0.0039062
        k(   23) = (   0.0000000   0.2500000   0.7500000), wk =   0.0039062
        k(   24) = (   0.0000000   0.2500000   0.8750000), wk =   0.0039062
        k(   25) = (   0.0000000   0.3750000   0.0000000), wk =   0.0039062
        k(   26) = (   0.0000000   0.3750000   0.1250000), wk =   0.0039062
        k(   27) = (   0.0000000   0.3750000   0.2500000), wk =   0.0039062
        k(   28) = (   0.0000000   0.3750000   0.3750000), wk =   0.0039062
        k(   29) = (   0.0000000   0.3750000   0.5000000), wk =   0.0039062
        k(   30) = (   0.0000000   0.3750000   0.6250000), wk =   0.0039062
        k(   31) = (   0.0000000   0.3750000   0.7500000), wk =   0.0039062
        k(   32) = (   0.0000000   0.3750000   0.8750000), wk =   0.0039062
        k(   33) = (   0.0000000   0.5000000   0.0000000), wk =   0.0039062
        k(   34) = (   0.0000000   0.5000000   0.1250000), wk =   0.0039062
        k(   35) = (   0.0000000   0.5000000   0.2500000), wk =   0.0039062
        k(   36) = (   0.0000000   0.5000000   0.3750000), wk =   0.0039062
        k(   37) = (   0.0000000   0.5000000   0.5000000), wk =   0.0039062
        k(   38) = (   0.0000000   0.5000000   0.6250000), wk =   0.0039062
        k(   39) = (   0.0000000   0.5000000   0.7500000), wk =   0.0039062
        k(   40) = (   0.0000000   0.5000000   0.8750000), wk =   0.0039062
        k(   41) = (   0.0000000   0.6250000   0.0000000), wk =   0.0039062
        k(   42) = (   0.0000000   0.6250000   0.1250000), wk =   0.0039062
        k(   43) = (   0.0000000   0.6250000   0.2500000), wk =   0.0039062
        k(   44) = (   0.0000000   0.6250000   0.3750000), wk =   0.0039062
        k(   45) = (   0.0000000   0.6250000   0.5000000), wk =   0.0039062
        k(   46) = (   0.0000000   0.6250000   0.6250000), wk =   0.0039062
        k(   47) = (   0.0000000   0.6250000   0.7500000), wk =   0.0039062
        k(   48) = (   0.0000000   0.6250000   0.8750000), wk =   0.0039062
        k(   49) = (   0.0000000   0.7500000   0.0000000), wk =   0.0039062
        k(   50) = (   0.0000000   0.7500000   0.1250000), wk =   0.0039062
        k(   51) = (   0.0000000   0.7500000   0.2500000), wk =   0.0039062
        k(   52) = (   0.0000000   0.7500000   0.3750000), wk =   0.0039062
        k(   53) = (   0.0000000   0.7500000   0.5000000), wk =   0.0039062
        k(   54) = (   0.0000000   0.7500000   0.6250000), wk =   0.0039062
        k(   55) = (   0.0000000   0.7500000   0.7500000), wk =   0.0039062
        k(   56) = (   0.0000000   0.7500000   0.8750000), wk =   0.0039062
        k(   57) = (   0.0000000   0.8750000   0.0000000), wk =   0.0039062
        k(   58) = (   0.0000000   0.8750000   0.1250000), wk =   0.0039062
        k(   59) = (   0.0000000   0.8750000   0.2500000), wk =   0.0039062
        k(   60) = (   0.0000000   0.8750000   0.3750000), wk =   0.0039062
        k(   61) = (   0.0000000   0.8750000   0.5000000), wk =   0.0039062
        k(   62) = (   0.0000000   0.8750000   0.6250000), wk =   0.0039062
        k(   63) = (   0.0000000   0.8750000   0.7500000), wk =   0.0039062
        k(   64) = (   0.0000000   0.8750000   0.8750000), wk =   0.0039062
        k(   65) = (   0.1250000   0.0000000   0.0000000), wk =   0.0039062
        k(   66) = (   0.1250000   0.0000000   0.1250000), wk =   0.0039062
        k(   67) = (   0.1250000   0.0000000   0.2500000), wk =   0.0039062
        k(   68) = (   0.1250000   0.0000000   0.3750000), wk =   0.0039062
        k(   69) = (   0.1250000   0.0000000   0.5000000), wk =   0.0039062
        k(   70) = (   0.1250000   0.0000000   0.6250000), wk =   0.0039062
        k(   71) = (   0.1250000   0.0000000   0.7500000), wk =   0.0039062
        k(   72) = (   0.1250000   0.0000000   0.8750000), wk =   0.0039062
        k(   73) = (   0.1250000   0.1250000   0.0000000), wk =   0.0039062
        k(   74) = (   0.1250000   0.1250000   0.1250000), wk =   0.0039062
        k(   75) = (   0.1250000   0.1250000   0.2500000), wk =   0.0039062
        k(   76) = (   0.1250000   0.1250000   0.3750000), wk =   0.0039062
        k(   77) = (   0.1250000   0.1250000   0.5000000), wk =   0.0039062
        k(   78) = (   0.1250000   0.1250000   0.6250000), wk =   0.0039062
        k(   79) = (   0.1250000   0.1250000   0.7500000), wk =   0.0039062
        k(   80) = (   0.1250000   0.1250000   0.8750000), wk =   0.0039062
        k(   81) = (   0.1250000   0.2500000   0.0000000), wk =   0.0039062
        k(   82) = (   0.1250000   0.2500000   0.1250000), wk =   0.0039062
        k(   83) = (   0.1250000   0.2500000   0.2500000), wk =   0.0039062
        k(   84) = (   0.1250000   0.2500000   0.3750000), wk =   0.0039062
        k(   85) = (   0.1250000   0.2500000   0.5000000), wk =   0.0039062
        k(   86) = (   0.1250000   0.2500000   0.6250000), wk =   0.0039062
        k(   87) = (   0.1250000   0.2500000   0.7500000), wk =   0.0039062
        k(   88) = (   0.1250000   0.2500000   0.8750000), wk =   0.0039062
        k(   89) = (   0.1250000   0.3750000   0.0000000), wk =   0.0039062
        k(   90) = (   0.1250000   0.3750000   0.1250000), wk =   0.0039062
        k(   91) = (   0.1250000   0.3750000   0.2500000), wk =   0.0039062
        k(   92) = (   0.1250000   0.3750000   0.3750000), wk =   0.0039062
        k(   93) = (   0.1250000   0.3750000   0.5000000), wk =   0.0039062
        k(   94) = (   0.1250000   0.3750000   0.6250000), wk =   0.0039062
        k(   95) = (   0.1250000   0.3750000   0.7500000), wk =   0.0039062
        k(   96) = (   0.1250000   0.3750000   0.8750000), wk =   0.0039062
        k(   97) = (   0.1250000   0.5000000   0.0000000), wk =   0.0039062
        k(   98) = (   0.1250000   0.5000000   0.1250000), wk =   0.0039062
        k(   99) = (   0.1250000   0.5000000   0.2500000), wk =   0.0039062
        k(  100) = (   0.1250000   0.5000000   0.3750000), wk =   0.0039062
        k(  101) = (   0.1250000   0.5000000   0.5000000), wk =   0.0039062
        k(  102) = (   0.1250000   0.5000000   0.6250000), wk =   0.0039062
        k(  103) = (   0.1250000   0.5000000   0.7500000), wk =   0.0039062
        k(  104) = (   0.1250000   0.5000000   0.8750000), wk =   0.0039062
        k(  105) = (   0.1250000   0.6250000   0.0000000), wk =   0.0039062
        k(  106) = (   0.1250000   0.6250000   0.1250000), wk =   0.0039062
        k(  107) = (   0.1250000   0.6250000   0.2500000), wk =   0.0039062
        k(  108) = (   0.1250000   0.6250000   0.3750000), wk =   0.0039062
        k(  109) = (   0.1250000   0.6250000   0.5000000), wk =   0.0039062
        k(  110) = (   0.1250000   0.6250000   0.6250000), wk =   0.0039062
        k(  111) = (   0.1250000   0.6250000   0.7500000), wk =   0.0039062
        k(  112) = (   0.1250000   0.6250000   0.8750000), wk =   0.0039062
        k(  113) = (   0.1250000   0.7500000   0.0000000), wk =   0.0039062
        k(  114) = (   0.1250000   0.7500000   0.1250000), wk =   0.0039062
        k(  115) = (   0.1250000   0.7500000   0.2500000), wk =   0.0039062
        k(  116) = (   0.1250000   0.7500000   0.3750000), wk =   0.0039062
        k(  117) = (   0.1250000   0.7500000   0.5000000), wk =   0.0039062
        k(  118) = (   0.1250000   0.7500000   0.6250000), wk =   0.0039062
        k(  119) = (   0.1250000   0.7500000   0.7500000), wk =   0.0039062
        k(  120) = (   0.1250000   0.7500000   0.8750000), wk =   0.0039062
        k(  121) = (   0.1250000   0.8750000   0.0000000), wk =   0.0039062
        k(  122) = (   0.1250000   0.8750000   0.1250000), wk =   0.0039062
        k(  123) = (   0.1250000   0.8750000   0.2500000), wk =   0.0039062
        k(  124) = (   0.1250000   0.8750000   0.3750000), wk =   0.0039062
        k(  125) = (   0.1250000   0.8750000   0.5000000), wk =   0.0039062
        k(  126) = (   0.1250000   0.8750000   0.6250000), wk =   0.0039062
        k(  127) = (   0.1250000   0.8750000   0.7500000), wk =   0.0039062
        k(  128) = (   0.1250000   0.8750000   0.8750000), wk =   0.0039062
        k(  129) = (   0.2500000   0.0000000   0.0000000), wk =   0.0039062
        k(  130) = (   0.2500000   0.0000000   0.1250000), wk =   0.0039062
        k(  131) = (   0.2500000   0.0000000   0.2500000), wk =   0.0039062
        k(  132) = (   0.2500000   0.0000000   0.3750000), wk =   0.0039062
        k(  133) = (   0.2500000   0.0000000   0.5000000), wk =   0.0039062
        k(  134) = (   0.2500000   0.0000000   0.6250000), wk =   0.0039062
        k(  135) = (   0.2500000   0.0000000   0.7500000), wk =   0.0039062
        k(  136) = (   0.2500000   0.0000000   0.8750000), wk =   0.0039062
        k(  137) = (   0.2500000   0.1250000   0.0000000), wk =   0.0039062
        k(  138) = (   0.2500000   0.1250000   0.1250000), wk =   0.0039062
        k(  139) = (   0.2500000   0.1250000   0.2500000), wk =   0.0039062
        k(  140) = (   0.2500000   0.1250000   0.3750000), wk =   0.0039062
        k(  141) = (   0.2500000   0.1250000   0.5000000), wk =   0.0039062
        k(  142) = (   0.2500000   0.1250000   0.6250000), wk =   0.0039062
        k(  143) = (   0.2500000   0.1250000   0.7500000), wk =   0.0039062
        k(  144) = (   0.2500000   0.1250000   0.8750000), wk =   0.0039062
        k(  145) = (   0.2500000   0.2500000   0.0000000), wk =   0.0039062
        k(  146) = (   0.2500000   0.2500000   0.1250000), wk =   0.0039062
        k(  147) = (   0.2500000   0.2500000   0.2500000), wk =   0.0039062
        k(  148) = (   0.2500000   0.2500000   0.3750000), wk =   0.0039062
        k(  149) = (   0.2500000   0.2500000   0.5000000), wk =   0.0039062
        k(  150) = (   0.2500000   0.2500000   0.6250000), wk =   0.0039062
        k(  151) = (   0.2500000   0.2500000   0.7500000), wk =   0.0039062
        k(  152) = (   0.2500000   0.2500000   0.8750000), wk =   0.0039062
        k(  153) = (   0.2500000   0.3750000   0.0000000), wk =   0.0039062
        k(  154) = (   0.2500000   0.3750000   0.1250000), wk =   0.0039062
        k(  155) = (   0.2500000   0.3750000   0.2500000), wk =   0.0039062
        k(  156) = (   0.2500000   0.3750000   0.3750000), wk =   0.0039062
        k(  157) = (   0.2500000   0.3750000   0.5000000), wk =   0.0039062
        k(  158) = (   0.2500000   0.3750000   0.6250000), wk =   0.0039062
        k(  159) = (   0.2500000   0.3750000   0.7500000), wk =   0.0039062
        k(  160) = (   0.2500000   0.3750000   0.8750000), wk =   0.0039062
        k(  161) = (   0.2500000   0.5000000   0.0000000), wk =   0.0039062
        k(  162) = (   0.2500000   0.5000000   0.1250000), wk =   0.0039062
        k(  163) = (   0.2500000   0.5000000   0.2500000), wk =   0.0039062
        k(  164) = (   0.2500000   0.5000000   0.3750000), wk =   0.0039062
        k(  165) = (   0.2500000   0.5000000   0.5000000), wk =   0.0039062
        k(  166) = (   0.2500000   0.5000000   0.6250000), wk =   0.0039062
        k(  167) = (   0.2500000   0.5000000   0.7500000), wk =   0.0039062
        k(  168) = (   0.2500000   0.5000000   0.8750000), wk =   0.0039062
        k(  169) = (   0.2500000   0.6250000   0.0000000), wk =   0.0039062
        k(  170) = (   0.2500000   0.6250000   0.1250000), wk =   0.0039062
        k(  171) = (   0.2500000   0.6250000   0.2500000), wk =   0.0039062
        k(  172) = (   0.2500000   0.6250000   0.3750000), wk =   0.0039062
        k(  173) = (   0.2500000   0.6250000   0.5000000), wk =   0.0039062
        k(  174) = (   0.2500000   0.6250000   0.6250000), wk =   0.0039062
        k(  175) = (   0.2500000   0.6250000   0.7500000), wk =   0.0039062
        k(  176) = (   0.2500000   0.6250000   0.8750000), wk =   0.0039062
        k(  177) = (   0.2500000   0.7500000   0.0000000), wk =   0.0039062
        k(  178) = (   0.2500000   0.7500000   0.1250000), wk =   0.0039062
        k(  179) = (   0.2500000   0.7500000   0.2500000), wk =   0.0039062
        k(  180) = (   0.2500000   0.7500000   0.3750000), wk =   0.0039062
        k(  181) = (   0.2500000   0.7500000   0.5000000), wk =   0.0039062
        k(  182) = (   0.2500000   0.7500000   0.6250000), wk =   0.0039062
        k(  183) = (   0.2500000   0.7500000   0.7500000), wk =   0.0039062
        k(  184) = (   0.2500000   0.7500000   0.8750000), wk =   0.0039062
        k(  185) = (   0.2500000   0.8750000   0.0000000), wk =   0.0039062
        k(  186) = (   0.2500000   0.8750000   0.1250000), wk =   0.0039062
        k(  187) = (   0.2500000   0.8750000   0.2500000), wk =   0.0039062
        k(  188) = (   0.2500000   0.8750000   0.3750000), wk =   0.0039062
        k(  189) = (   0.2500000   0.8750000   0.5000000), wk =   0.0039062
        k(  190) = (   0.2500000   0.8750000   0.6250000), wk =   0.0039062
        k(  191) = (   0.2500000   0.8750000   0.7500000), wk =   0.0039062
        k(  192) = (   0.2500000   0.8750000   0.8750000), wk =   0.0039062
        k(  193) = (   0.3750000   0.0000000   0.0000000), wk =   0.0039062
        k(  194) = (   0.3750000   0.0000000   0.1250000), wk =   0.0039062
        k(  195) = (   0.3750000   0.0000000   0.2500000), wk =   0.0039062
        k(  196) = (   0.3750000   0.0000000   0.3750000), wk =   0.0039062
        k(  197) = (   0.3750000   0.0000000   0.5000000), wk =   0.0039062
        k(  198) = (   0.3750000   0.0000000   0.6250000), wk =   0.0039062
        k(  199) = (   0.3750000   0.0000000   0.7500000), wk =   0.0039062
        k(  200) = (   0.3750000   0.0000000   0.8750000), wk =   0.0039062
        k(  201) = (   0.3750000   0.1250000   0.0000000), wk =   0.0039062
        k(  202) = (   0.3750000   0.1250000   0.1250000), wk =   0.0039062
        k(  203) = (   0.3750000   0.1250000   0.2500000), wk =   0.0039062
        k(  204) = (   0.3750000   0.1250000   0.3750000), wk =   0.0039062
        k(  205) = (   0.3750000   0.1250000   0.5000000), wk =   0.0039062
        k(  206) = (   0.3750000   0.1250000   0.6250000), wk =   0.0039062
        k(  207) = (   0.3750000   0.1250000   0.7500000), wk =   0.0039062
        k(  208) = (   0.3750000   0.1250000   0.8750000), wk =   0.0039062
        k(  209) = (   0.3750000   0.2500000   0.0000000), wk =   0.0039062
        k(  210) = (   0.3750000   0.2500000   0.1250000), wk =   0.0039062
        k(  211) = (   0.3750000   0.2500000   0.2500000), wk =   0.0039062
        k(  212) = (   0.3750000   0.2500000   0.3750000), wk =   0.0039062
        k(  213) = (   0.3750000   0.2500000   0.5000000), wk =   0.0039062
        k(  214) = (   0.3750000   0.2500000   0.6250000), wk =   0.0039062
        k(  215) = (   0.3750000   0.2500000   0.7500000), wk =   0.0039062
        k(  216) = (   0.3750000   0.2500000   0.8750000), wk =   0.0039062
        k(  217) = (   0.3750000   0.3750000   0.0000000), wk =   0.0039062
        k(  218) = (   0.3750000   0.3750000   0.1250000), wk =   0.0039062
        k(  219) = (   0.3750000   0.3750000   0.2500000), wk =   0.0039062
        k(  220) = (   0.3750000   0.3750000   0.3750000), wk =   0.0039062
        k(  221) = (   0.3750000   0.3750000   0.5000000), wk =   0.0039062
        k(  222) = (   0.3750000   0.3750000   0.6250000), wk =   0.0039062
        k(  223) = (   0.3750000   0.3750000   0.7500000), wk =   0.0039062
        k(  224) = (   0.3750000   0.3750000   0.8750000), wk =   0.0039062
        k(  225) = (   0.3750000   0.5000000   0.0000000), wk =   0.0039062
        k(  226) = (   0.3750000   0.5000000   0.1250000), wk =   0.0039062
        k(  227) = (   0.3750000   0.5000000   0.2500000), wk =   0.0039062
        k(  228) = (   0.3750000   0.5000000   0.3750000), wk =   0.0039062
        k(  229) = (   0.3750000   0.5000000   0.5000000), wk =   0.0039062
        k(  230) = (   0.3750000   0.5000000   0.6250000), wk =   0.0039062
        k(  231) = (   0.3750000   0.5000000   0.7500000), wk =   0.0039062
        k(  232) = (   0.3750000   0.5000000   0.8750000), wk =   0.0039062
        k(  233) = (   0.3750000   0.6250000   0.0000000), wk =   0.0039062
        k(  234) = (   0.3750000   0.6250000   0.1250000), wk =   0.0039062
        k(  235) = (   0.3750000   0.6250000   0.2500000), wk =   0.0039062
        k(  236) = (   0.3750000   0.6250000   0.3750000), wk =   0.0039062
        k(  237) = (   0.3750000   0.6250000   0.5000000), wk =   0.0039062
        k(  238) = (   0.3750000   0.6250000   0.6250000), wk =   0.0039062
        k(  239) = (   0.3750000   0.6250000   0.7500000), wk =   0.0039062
        k(  240) = (   0.3750000   0.6250000   0.8750000), wk =   0.0039062
        k(  241) = (   0.3750000   0.7500000   0.0000000), wk =   0.0039062
        k(  242) = (   0.3750000   0.7500000   0.1250000), wk =   0.0039062
        k(  243) = (   0.3750000   0.7500000   0.2500000), wk =   0.0039062
        k(  244) = (   0.3750000   0.7500000   0.3750000), wk =   0.0039062
        k(  245) = (   0.3750000   0.7500000   0.5000000), wk =   0.0039062
        k(  246) = (   0.3750000   0.7500000   0.6250000), wk =   0.0039062
        k(  247) = (   0.3750000   0.7500000   0.7500000), wk =   0.0039062
        k(  248) = (   0.3750000   0.7500000   0.8750000), wk =   0.0039062
        k(  249) = (   0.3750000   0.8750000   0.0000000), wk =   0.0039062
        k(  250) = (   0.3750000   0.8750000   0.1250000), wk =   0.0039062
        k(  251) = (   0.3750000   0.8750000   0.2500000), wk =   0.0039062
        k(  252) = (   0.3750000   0.8750000   0.3750000), wk =   0.0039062
        k(  253) = (   0.3750000   0.8750000   0.5000000), wk =   0.0039062
        k(  254) = (   0.3750000   0.8750000   0.6250000), wk =   0.0039062
        k(  255) = (   0.3750000   0.8750000   0.7500000), wk =   0.0039062
        k(  256) = (   0.3750000   0.8750000   0.8750000), wk =   0.0039062
        k(  257) = (   0.5000000   0.0000000   0.0000000), wk =   0.0039062
        k(  258) = (   0.5000000   0.0000000   0.1250000), wk =   0.0039062
        k(  259) = (   0.5000000   0.0000000   0.2500000), wk =   0.0039062
        k(  260) = (   0.5000000   0.0000000   0.3750000), wk =   0.0039062
        k(  261) = (   0.5000000   0.0000000   0.5000000), wk =   0.0039062
        k(  262) = (   0.5000000   0.0000000   0.6250000), wk =   0.0039062
        k(  263) = (   0.5000000   0.0000000   0.7500000), wk =   0.0039062
        k(  264) = (   0.5000000   0.0000000   0.8750000), wk =   0.0039062
        k(  265) = (   0.5000000   0.1250000   0.0000000), wk =   0.0039062
        k(  266) = (   0.5000000   0.1250000   0.1250000), wk =   0.0039062
        k(  267) = (   0.5000000   0.1250000   0.2500000), wk =   0.0039062
        k(  268) = (   0.5000000   0.1250000   0.3750000), wk =   0.0039062
        k(  269) = (   0.5000000   0.1250000   0.5000000), wk =   0.0039062
        k(  270) = (   0.5000000   0.1250000   0.6250000), wk =   0.0039062
        k(  271) = (   0.5000000   0.1250000   0.7500000), wk =   0.0039062
        k(  272) = (   0.5000000   0.1250000   0.8750000), wk =   0.0039062
        k(  273) = (   0.5000000   0.2500000   0.0000000), wk =   0.0039062
        k(  274) = (   0.5000000   0.2500000   0.1250000), wk =   0.0039062
        k(  275) = (   0.5000000   0.2500000   0.2500000), wk =   0.0039062
        k(  276) = (   0.5000000   0.2500000   0.3750000), wk =   0.0039062
        k(  277) = (   0.5000000   0.2500000   0.5000000), wk =   0.0039062
        k(  278) = (   0.5000000   0.2500000   0.6250000), wk =   0.0039062
        k(  279) = (   0.5000000   0.2500000   0.7500000), wk =   0.0039062
        k(  280) = (   0.5000000   0.2500000   0.8750000), wk =   0.0039062
        k(  281) = (   0.5000000   0.3750000   0.0000000), wk =   0.0039062
        k(  282) = (   0.5000000   0.3750000   0.1250000), wk =   0.0039062
        k(  283) = (   0.5000000   0.3750000   0.2500000), wk =   0.0039062
        k(  284) = (   0.5000000   0.3750000   0.3750000), wk =   0.0039062
        k(  285) = (   0.5000000   0.3750000   0.5000000), wk =   0.0039062
        k(  286) = (   0.5000000   0.3750000   0.6250000), wk =   0.0039062
        k(  287) = (   0.5000000   0.3750000   0.7500000), wk =   0.0039062
        k(  288) = (   0.5000000   0.3750000   0.8750000), wk =   0.0039062
        k(  289) = (   0.5000000   0.5000000   0.0000000), wk =   0.0039062
        k(  290) = (   0.5000000   0.5000000   0.1250000), wk =   0.0039062
        k(  291) = (   0.5000000   0.5000000   0.2500000), wk =   0.0039062
        k(  292) = (   0.5000000   0.5000000   0.3750000), wk =   0.0039062
        k(  293) = (   0.5000000   0.5000000   0.5000000), wk =   0.0039062
        k(  294) = (   0.5000000   0.5000000   0.6250000), wk =   0.0039062
        k(  295) = (   0.5000000   0.5000000   0.7500000), wk =   0.0039062
        k(  296) = (   0.5000000   0.5000000   0.8750000), wk =   0.0039062
        k(  297) = (   0.5000000   0.6250000   0.0000000), wk =   0.0039062
        k(  298) = (   0.5000000   0.6250000   0.1250000), wk =   0.0039062
        k(  299) = (   0.5000000   0.6250000   0.2500000), wk =   0.0039062
        k(  300) = (   0.5000000   0.6250000   0.3750000), wk =   0.0039062
        k(  301) = (   0.5000000   0.6250000   0.5000000), wk =   0.0039062
        k(  302) = (   0.5000000   0.6250000   0.6250000), wk =   0.0039062
        k(  303) = (   0.5000000   0.6250000   0.7500000), wk =   0.0039062
        k(  304) = (   0.5000000   0.6250000   0.8750000), wk =   0.0039062
        k(  305) = (   0.5000000   0.7500000   0.0000000), wk =   0.0039062
        k(  306) = (   0.5000000   0.7500000   0.1250000), wk =   0.0039062
        k(  307) = (   0.5000000   0.7500000   0.2500000), wk =   0.0039062
        k(  308) = (   0.5000000   0.7500000   0.3750000), wk =   0.0039062
        k(  309) = (   0.5000000   0.7500000   0.5000000), wk =   0.0039062
        k(  310) = (   0.5000000   0.7500000   0.6250000), wk =   0.0039062
        k(  311) = (   0.5000000   0.7500000   0.7500000), wk =   0.0039062
        k(  312) = (   0.5000000   0.7500000   0.8750000), wk =   0.0039062
        k(  313) = (   0.5000000   0.8750000   0.0000000), wk =   0.0039062
        k(  314) = (   0.5000000   0.8750000   0.1250000), wk =   0.0039062
        k(  315) = (   0.5000000   0.8750000   0.2500000), wk =   0.0039062
        k(  316) = (   0.5000000   0.8750000   0.3750000), wk =   0.0039062
        k(  317) = (   0.5000000   0.8750000   0.5000000), wk =   0.0039062
        k(  318) = (   0.5000000   0.8750000   0.6250000), wk =   0.0039062
        k(  319) = (   0.5000000   0.8750000   0.7500000), wk =   0.0039062
        k(  320) = (   0.5000000   0.8750000   0.8750000), wk =   0.0039062
        k(  321) = (   0.6250000   0.0000000   0.0000000), wk =   0.0039062
        k(  322) = (   0.6250000   0.0000000   0.1250000), wk =   0.0039062
        k(  323) = (   0.6250000   0.0000000   0.2500000), wk =   0.0039062
        k(  324) = (   0.6250000   0.0000000   0.3750000), wk =   0.0039062
        k(  325) = (   0.6250000   0.0000000   0.5000000), wk =   0.0039062
        k(  326) = (   0.6250000   0.0000000   0.6250000), wk =   0.0039062
        k(  327) = (   0.6250000   0.0000000   0.7500000), wk =   0.0039062
        k(  328) = (   0.6250000   0.0000000   0.8750000), wk =   0.0039062
        k(  329) = (   0.6250000   0.1250000   0.0000000), wk =   0.0039062
        k(  330) = (   0.6250000   0.1250000   0.1250000), wk =   0.0039062
        k(  331) = (   0.6250000   0.1250000   0.2500000), wk =   0.0039062
        k(  332) = (   0.6250000   0.1250000   0.3750000), wk =   0.0039062
        k(  333) = (   0.6250000   0.1250000   0.5000000), wk =   0.0039062
        k(  334) = (   0.6250000   0.1250000   0.6250000), wk =   0.0039062
        k(  335) = (   0.6250000   0.1250000   0.7500000), wk =   0.0039062
        k(  336) = (   0.6250000   0.1250000   0.8750000), wk =   0.0039062
        k(  337) = (   0.6250000   0.2500000   0.0000000), wk =   0.0039062
        k(  338) = (   0.6250000   0.2500000   0.1250000), wk =   0.0039062
        k(  339) = (   0.6250000   0.2500000   0.2500000), wk =   0.0039062
        k(  340) = (   0.6250000   0.2500000   0.3750000), wk =   0.0039062
        k(  341) = (   0.6250000   0.2500000   0.5000000), wk =   0.0039062
        k(  342) = (   0.6250000   0.2500000   0.6250000), wk =   0.0039062
        k(  343) = (   0.6250000   0.2500000   0.7500000), wk =   0.0039062
        k(  344) = (   0.6250000   0.2500000   0.8750000), wk =   0.0039062
        k(  345) = (   0.6250000   0.3750000   0.0000000), wk =   0.0039062
        k(  346) = (   0.6250000   0.3750000   0.1250000), wk =   0.0039062
        k(  347) = (   0.6250000   0.3750000   0.2500000), wk =   0.0039062
        k(  348) = (   0.6250000   0.3750000   0.3750000), wk =   0.0039062
        k(  349) = (   0.6250000   0.3750000   0.5000000), wk =   0.0039062
        k(  350) = (   0.6250000   0.3750000   0.6250000), wk =   0.0039062
        k(  351) = (   0.6250000   0.3750000   0.7500000), wk =   0.0039062
        k(  352) = (   0.6250000   0.3750000   0.8750000), wk =   0.0039062
        k(  353) = (   0.6250000   0.5000000   0.0000000), wk =   0.0039062
        k(  354) = (   0.6250000   0.5000000   0.1250000), wk =   0.0039062
        k(  355) = (   0.6250000   0.5000000   0.2500000), wk =   0.0039062
        k(  356) = (   0.6250000   0.5000000   0.3750000), wk =   0.0039062
        k(  357) = (   0.6250000   0.5000000   0.5000000), wk =   0.0039062
        k(  358) = (   0.6250000   0.5000000   0.6250000), wk =   0.0039062
        k(  359) = (   0.6250000   0.5000000   0.7500000), wk =   0.0039062
        k(  360) = (   0.6250000   0.5000000   0.8750000), wk =   0.0039062
        k(  361) = (   0.6250000   0.6250000   0.0000000), wk =   0.0039062
        k(  362) = (   0.6250000   0.6250000   0.1250000), wk =   0.0039062
        k(  363) = (   0.6250000   0.6250000   0.2500000), wk =   0.0039062
        k(  364) = (   0.6250000   0.6250000   0.3750000), wk =   0.0039062
        k(  365) = (   0.6250000   0.6250000   0.5000000), wk =   0.0039062
        k(  366) = (   0.6250000   0.6250000   0.6250000), wk =   0.0039062
        k(  367) = (   0.6250000   0.6250000   0.7500000), wk =   0.0039062
        k(  368) = (   0.6250000   0.6250000   0.8750000), wk =   0.0039062
        k(  369) = (   0.6250000   0.7500000   0.0000000), wk =   0.0039062
        k(  370) = (   0.6250000   0.7500000   0.1250000), wk =   0.0039062
        k(  371) = (   0.6250000   0.7500000   0.2500000), wk =   0.0039062
        k(  372) = (   0.6250000   0.7500000   0.3750000), wk =   0.0039062
        k(  373) = (   0.6250000   0.7500000   0.5000000), wk =   0.0039062
        k(  374) = (   0.6250000   0.7500000   0.6250000), wk =   0.0039062
        k(  375) = (   0.6250000   0.7500000   0.7500000), wk =   0.0039062
        k(  376) = (   0.6250000   0.7500000   0.8750000), wk =   0.0039062
        k(  377) = (   0.6250000   0.8750000   0.0000000), wk =   0.0039062
        k(  378) = (   0.6250000   0.8750000   0.1250000), wk =   0.0039062
        k(  379) = (   0.6250000   0.8750000   0.2500000), wk =   0.0039062
        k(  380) = (   0.6250000   0.8750000   0.3750000), wk =   0.0039062
        k(  381) = (   0.6250000   0.8750000   0.5000000), wk =   0.0039062
        k(  382) = (   0.6250000   0.8750000   0.6250000), wk =   0.0039062
        k(  383) = (   0.6250000   0.8750000   0.7500000), wk =   0.0039062
        k(  384) = (   0.6250000   0.8750000   0.8750000), wk =   0.0039062
        k(  385) = (   0.7500000   0.0000000   0.0000000), wk =   0.0039062
        k(  386) = (   0.7500000   0.0000000   0.1250000), wk =   0.0039062
        k(  387) = (   0.7500000   0.0000000   0.2500000), wk =   0.0039062
        k(  388) = (   0.7500000   0.0000000   0.3750000), wk =   0.0039062
        k(  389) = (   0.7500000   0.0000000   0.5000000), wk =   0.0039062
        k(  390) = (   0.7500000   0.0000000   0.6250000), wk =   0.0039062
        k(  391) = (   0.7500000   0.0000000   0.7500000), wk =   0.0039062
        k(  392) = (   0.7500000   0.0000000   0.8750000), wk =   0.0039062
        k(  393) = (   0.7500000   0.1250000   0.0000000), wk =   0.0039062
        k(  394) = (   0.7500000   0.1250000   0.1250000), wk =   0.0039062
        k(  395) = (   0.7500000   0.1250000   0.2500000), wk =   0.0039062
        k(  396) = (   0.7500000   0.1250000   0.3750000), wk =   0.0039062
        k(  397) = (   0.7500000   0.1250000   0.5000000), wk =   0.0039062
        k(  398) = (   0.7500000   0.1250000   0.6250000), wk =   0.0039062
        k(  399) = (   0.7500000   0.1250000   0.7500000), wk =   0.0039062
        k(  400) = (   0.7500000   0.1250000   0.8750000), wk =   0.0039062
        k(  401) = (   0.7500000   0.2500000   0.0000000), wk =   0.0039062
        k(  402) = (   0.7500000   0.2500000   0.1250000), wk =   0.0039062
        k(  403) = (   0.7500000   0.2500000   0.2500000), wk =   0.0039062
        k(  404) = (   0.7500000   0.2500000   0.3750000), wk =   0.0039062
        k(  405) = (   0.7500000   0.2500000   0.5000000), wk =   0.0039062
        k(  406) = (   0.7500000   0.2500000   0.6250000), wk =   0.0039062
        k(  407) = (   0.7500000   0.2500000   0.7500000), wk =   0.0039062
        k(  408) = (   0.7500000   0.2500000   0.8750000), wk =   0.0039062
        k(  409) = (   0.7500000   0.3750000   0.0000000), wk =   0.0039062
        k(  410) = (   0.7500000   0.3750000   0.1250000), wk =   0.0039062
        k(  411) = (   0.7500000   0.3750000   0.2500000), wk =   0.0039062
        k(  412) = (   0.7500000   0.3750000   0.3750000), wk =   0.0039062
        k(  413) = (   0.7500000   0.3750000   0.5000000), wk =   0.0039062
        k(  414) = (   0.7500000   0.3750000   0.6250000), wk =   0.0039062
        k(  415) = (   0.7500000   0.3750000   0.7500000), wk =   0.0039062
        k(  416) = (   0.7500000   0.3750000   0.8750000), wk =   0.0039062
        k(  417) = (   0.7500000   0.5000000   0.0000000), wk =   0.0039062
        k(  418) = (   0.7500000   0.5000000   0.1250000), wk =   0.0039062
        k(  419) = (   0.7500000   0.5000000   0.2500000), wk =   0.0039062
        k(  420) = (   0.7500000   0.5000000   0.3750000), wk =   0.0039062
        k(  421) = (   0.7500000   0.5000000   0.5000000), wk =   0.0039062
        k(  422) = (   0.7500000   0.5000000   0.6250000), wk =   0.0039062
        k(  423) = (   0.7500000   0.5000000   0.7500000), wk =   0.0039062
        k(  424) = (   0.7500000   0.5000000   0.8750000), wk =   0.0039062
        k(  425) = (   0.7500000   0.6250000   0.0000000), wk =   0.0039062
        k(  426) = (   0.7500000   0.6250000   0.1250000), wk =   0.0039062
        k(  427) = (   0.7500000   0.6250000   0.2500000), wk =   0.0039062
        k(  428) = (   0.7500000   0.6250000   0.3750000), wk =   0.0039062
        k(  429) = (   0.7500000   0.6250000   0.5000000), wk =   0.0039062
        k(  430) = (   0.7500000   0.6250000   0.6250000), wk =   0.0039062
        k(  431) = (   0.7500000   0.6250000   0.7500000), wk =   0.0039062
        k(  432) = (   0.7500000   0.6250000   0.8750000), wk =   0.0039062
        k(  433) = (   0.7500000   0.7500000   0.0000000), wk =   0.0039062
        k(  434) = (   0.7500000   0.7500000   0.1250000), wk =   0.0039062
        k(  435) = (   0.7500000   0.7500000   0.2500000), wk =   0.0039062
        k(  436) = (   0.7500000   0.7500000   0.3750000), wk =   0.0039062
        k(  437) = (   0.7500000   0.7500000   0.5000000), wk =   0.0039062
        k(  438) = (   0.7500000   0.7500000   0.6250000), wk =   0.0039062
        k(  439) = (   0.7500000   0.7500000   0.7500000), wk =   0.0039062
        k(  440) = (   0.7500000   0.7500000   0.8750000), wk =   0.0039062
        k(  441) = (   0.7500000   0.8750000   0.0000000), wk =   0.0039062
        k(  442) = (   0.7500000   0.8750000   0.1250000), wk =   0.0039062
        k(  443) = (   0.7500000   0.8750000   0.2500000), wk =   0.0039062
        k(  444) = (   0.7500000   0.8750000   0.3750000), wk =   0.0039062
        k(  445) = (   0.7500000   0.8750000   0.5000000), wk =   0.0039062
        k(  446) = (   0.7500000   0.8750000   0.6250000), wk =   0.0039062
        k(  447) = (   0.7500000   0.8750000   0.7500000), wk =   0.0039062
        k(  448) = (   0.7500000   0.8750000   0.8750000), wk =   0.0039062
        k(  449) = (   0.8750000   0.0000000   0.0000000), wk =   0.0039062
        k(  450) = (   0.8750000   0.0000000   0.1250000), wk =   0.0039062
        k(  451) = (   0.8750000   0.0000000   0.2500000), wk =   0.0039062
        k(  452) = (   0.8750000   0.0000000   0.3750000), wk =   0.0039062
        k(  453) = (   0.8750000   0.0000000   0.5000000), wk =   0.0039062
        k(  454) = (   0.8750000   0.0000000   0.6250000), wk =   0.0039062
        k(  455) = (   0.8750000   0.0000000   0.7500000), wk =   0.0039062
        k(  456) = (   0.8750000   0.0000000   0.8750000), wk =   0.0039062
        k(  457) = (   0.8750000   0.1250000   0.0000000), wk =   0.0039062
        k(  458) = (   0.8750000   0.1250000   0.1250000), wk =   0.0039062
        k(  459) = (   0.8750000   0.1250000   0.2500000), wk =   0.0039062
        k(  460) = (   0.8750000   0.1250000   0.3750000), wk =   0.0039062
        k(  461) = (   0.8750000   0.1250000   0.5000000), wk =   0.0039062
        k(  462) = (   0.8750000   0.1250000   0.6250000), wk =   0.0039062
        k(  463) = (   0.8750000   0.1250000   0.7500000), wk =   0.0039062
        k(  464) = (   0.8750000   0.1250000   0.8750000), wk =   0.0039062
        k(  465) = (   0.8750000   0.2500000   0.0000000), wk =   0.0039062
        k(  466) = (   0.8750000   0.2500000   0.1250000), wk =   0.0039062
        k(  467) = (   0.8750000   0.2500000   0.2500000), wk =   0.0039062
        k(  468) = (   0.8750000   0.2500000   0.3750000), wk =   0.0039062
        k(  469) = (   0.8750000   0.2500000   0.5000000), wk =   0.0039062
        k(  470) = (   0.8750000   0.2500000   0.6250000), wk =   0.0039062
        k(  471) = (   0.8750000   0.2500000   0.7500000), wk =   0.0039062
        k(  472) = (   0.8750000   0.2500000   0.8750000), wk =   0.0039062
        k(  473) = (   0.8750000   0.3750000   0.0000000), wk =   0.0039062
        k(  474) = (   0.8750000   0.3750000   0.1250000), wk =   0.0039062
        k(  475) = (   0.8750000   0.3750000   0.2500000), wk =   0.0039062
        k(  476) = (   0.8750000   0.3750000   0.3750000), wk =   0.0039062
        k(  477) = (   0.8750000   0.3750000   0.5000000), wk =   0.0039062
        k(  478) = (   0.8750000   0.3750000   0.6250000), wk =   0.0039062
        k(  479) = (   0.8750000   0.3750000   0.7500000), wk =   0.0039062
        k(  480) = (   0.8750000   0.3750000   0.8750000), wk =   0.0039062
        k(  481) = (   0.8750000   0.5000000   0.0000000), wk =   0.0039062
        k(  482) = (   0.8750000   0.5000000   0.1250000), wk =   0.0039062
        k(  483) = (   0.8750000   0.5000000   0.2500000), wk =   0.0039062
        k(  484) = (   0.8750000   0.5000000   0.3750000), wk =   0.0039062
        k(  485) = (   0.8750000   0.5000000   0.5000000), wk =   0.0039062
        k(  486) = (   0.8750000   0.5000000   0.6250000), wk =   0.0039062
        k(  487) = (   0.8750000   0.5000000   0.7500000), wk =   0.0039062
        k(  488) = (   0.8750000   0.5000000   0.8750000), wk =   0.0039062
        k(  489) = (   0.8750000   0.6250000   0.0000000), wk =   0.0039062
        k(  490) = (   0.8750000   0.6250000   0.1250000), wk =   0.0039062
        k(  491) = (   0.8750000   0.6250000   0.2500000), wk =   0.0039062
        k(  492) = (   0.8750000   0.6250000   0.3750000), wk =   0.0039062
        k(  493) = (   0.8750000   0.6250000   0.5000000), wk =   0.0039062
        k(  494) = (   0.8750000   0.6250000   0.6250000), wk =   0.0039062
        k(  495) = (   0.8750000   0.6250000   0.7500000), wk =   0.0039062
        k(  496) = (   0.8750000   0.6250000   0.8750000), wk =   0.0039062
        k(  497) = (   0.8750000   0.7500000   0.0000000), wk =   0.0039062
        k(  498) = (   0.8750000   0.7500000   0.1250000), wk =   0.0039062
        k(  499) = (   0.8750000   0.7500000   0.2500000), wk =   0.0039062
        k(  500) = (   0.8750000   0.7500000   0.3750000), wk =   0.0039062
        k(  501) = (   0.8750000   0.7500000   0.5000000), wk =   0.0039062
        k(  502) = (   0.8750000   0.7500000   0.6250000), wk =   0.0039062
        k(  503) = (   0.8750000   0.7500000   0.7500000), wk =   0.0039062
        k(  504) = (   0.8750000   0.7500000   0.8750000), wk =   0.0039062
        k(  505) = (   0.8750000   0.8750000   0.0000000), wk =   0.0039062
        k(  506) = (   0.8750000   0.8750000   0.1250000), wk =   0.0039062
        k(  507) = (   0.8750000   0.8750000   0.2500000), wk =   0.0039062
        k(  508) = (   0.8750000   0.8750000   0.3750000), wk =   0.0039062
        k(  509) = (   0.8750000   0.8750000   0.5000000), wk =   0.0039062
        k(  510) = (   0.8750000   0.8750000   0.6250000), wk =   0.0039062
        k(  511) = (   0.8750000   0.8750000   0.7500000), wk =   0.0039062
        k(  512) = (   0.8750000   0.8750000   0.8750000), wk =   0.0039062

     Dense  grid:     3527 G-vectors     FFT dimensions: (  24,  24,  24)

     Dynamical RAM for                 wfc:       0.04 MB

     Dynamical RAM for     wfc (w. buffer):       0.04 MB

     Dynamical RAM for           str. fact:       0.05 MB

     Dynamical RAM for           local pot:       0.00 MB

     Dynamical RAM for          nlocal pot:       0.03 MB

     Dynamical RAM for                qrad:       0.09 MB

     Dynamical RAM for          rho,v,vnew:       0.48 MB

     Dynamical RAM for           G-vectors:       0.23 MB

     Dynamical RAM for          h,s,v(r/c):       0.01 MB

     Dynamical RAM for          <psi|beta>:       0.00 MB

     Dynamical RAM for                 psi:       0.08 MB

     Dynamical RAM for                hpsi:       0.08 MB

     Dynamical RAM for      wfcinit/wfcrot:       0.08 MB

     Estimated static dynamical RAM per process >       1.55 MB

     Estimated max dynamical RAM per process >       1.72 MB

     Estimated total dynamical RAM >      13.77 MB

     The potential is recalculated from file :
     ./tmp/al.save/charge-density

     Starting wfcs are    4 randomized atomic wfcs +    2 random wfcs

     Band Structure Calculation
     Davidson diagonalization with overlap

     Computing kpt #:     1  of    64 on this pool
     total cpu time spent up to now is        0.1 secs

     Computing kpt #:     2  of    64 on this pool
     total cpu time spent up to now is        0.2 secs

     Computing kpt #:     3  of    64 on this pool
     total cpu time spent up to now is        0.2 secs

     Computing kpt #:     4  of    64 on this pool
     total cpu time spent up to now is        0.3 secs

     Computing kpt #:     5  of    64 on this pool
     total cpu time spent up to now is        0.3 secs

     Computing kpt #:     6  of    64 on this pool
     total cpu time spent up to now is        0.4 secs

     Computing kpt #:     7  of    64 on this pool
     total cpu time spent up to now is        0.4 secs

     Computing kpt #:     8  of    64 on this pool
     total cpu time spent up to now is        0.5 secs

     Computing kpt #:     9  of    64 on this pool
     total cpu time spent up to now is        0.5 secs

     Computing kpt #:    10  of    64 on this pool
     total cpu time spent up to now is        0.6 secs

     Computing kpt #:    11  of    64 on this pool
     total cpu time spent up to now is        0.6 secs

     Computing kpt #:    12  of    64 on this pool
     total cpu time spent up to now is        0.7 secs

     Computing kpt #:    13  of    64 on this pool
     total cpu time spent up to now is        0.7 secs

     Computing kpt #:    14  of    64 on this pool
     total cpu time spent up to now is        0.8 secs

     Computing kpt #:    15  of    64 on this pool
     total cpu time spent up to now is        0.8 secs

     Computing kpt #:    16  of    64 on this pool
     total cpu time spent up to now is        0.9 secs

     Computing kpt #:    17  of    64 on this pool
     total cpu time spent up to now is        0.9 secs

     Computing kpt #:    18  of    64 on this pool
     total cpu time spent up to now is        1.0 secs

     Computing kpt #:    19  of    64 on this pool
     total cpu time spent up to now is        1.0 secs

     Computing kpt #:    20  of    64 on this pool
     total cpu time spent up to now is        1.1 secs

     Computing kpt #:    21  of    64 on this pool
     total cpu time spent up to now is        1.1 secs

     Computing kpt #:    22  of    64 on this pool
     total cpu time spent up to now is        1.1 secs

     Computing kpt #:    23  of    64 on this pool
     total cpu time spent up to now is        1.2 secs

     Computing kpt #:    24  of    64 on this pool
     total cpu time spent up to now is        1.2 secs

     Computing kpt #:    25  of    64 on this pool
     total cpu time spent up to now is        1.3 secs

     Computing kpt #:    26  of    64 on this pool
     total cpu time spent up to now is        1.3 secs

     Computing kpt #:    27  of    64 on this pool
     total cpu time spent up to now is        1.4 secs

     Computing kpt #:    28  of    64 on this pool
     total cpu time spent up to now is        1.4 secs

     Computing kpt #:    29  of    64 on this pool
     total cpu time spent up to now is        1.5 secs

     Computing kpt #:    30  of    64 on this pool
     total cpu time spent up to now is        1.5 secs

     Computing kpt #:    31  of    64 on this pool
     total cpu time spent up to now is        1.5 secs

     Computing kpt #:    32  of    64 on this pool
     total cpu time spent up to now is        1.6 secs

     Computing kpt #:    33  of    64 on this pool
     total cpu time spent up to now is        1.6 secs

     Computing kpt #:    34  of    64 on this pool
     total cpu time spent up to now is        1.7 secs

     Computing kpt #:    35  of    64 on this pool
     total cpu time spent up to now is        1.7 secs

     Computing kpt #:    36  of    64 on this pool
     total cpu time spent up to now is        1.7 secs

     Computing kpt #:    37  of    64 on this pool
     total cpu time spent up to now is        1.8 secs

     Computing kpt #:    38  of    64 on this pool
     total cpu time spent up to now is        1.8 secs

     Computing kpt #:    39  of    64 on this pool
     total cpu time spent up to now is        1.9 secs

     Computing kpt #:    40  of    64 on this pool
     total cpu time spent up to now is        1.9 secs

     Computing kpt #:    41  of    64 on this pool
     total cpu time spent up to now is        1.9 secs

     Computing kpt #:    42  of    64 on this pool
     total cpu time spent up to now is        2.0 secs

     Computing kpt #:    43  of    64 on this pool
     total cpu time spent up to now is        2.0 secs

     Computing kpt #:    44  of    64 on this pool
     total cpu time spent up to now is        2.1 secs

     Computing kpt #:    45  of    64 on this pool
     total cpu time spent up to now is        2.1 secs

     Computing kpt #:    46  of    64 on this pool
     total cpu time spent up to now is        2.1 secs

     Computing kpt #:    47  of    64 on this pool
     total cpu time spent up to now is        2.2 secs

     Computing kpt #:    48  of    64 on this pool
     total cpu time spent up to now is        2.2 secs

     Computing kpt #:    49  of    64 on this pool
     total cpu time spent up to now is        2.3 secs

     Computing kpt #:    50  of    64 on this pool
     total cpu time spent up to now is        2.3 secs

     Computing kpt #:    51  of    64 on this pool
     total cpu time spent up to now is        2.4 secs

     Computing kpt #:    52  of    64 on this pool
     total cpu time spent up to now is        2.4 secs

     Computing kpt #:    53  of    64 on this pool
     total cpu time spent up to now is        2.5 secs

     Computing kpt #:    54  of    64 on this pool
     total cpu time spent up to now is        2.5 secs

     Computing kpt #:    55  of    64 on this pool
     total cpu time spent up to now is        2.5 secs

     Computing kpt #:    56  of    64 on this pool
     total cpu time spent up to now is        2.6 secs

     Computing kpt #:    57  of    64 on this pool
     total cpu time spent up to now is        2.7 secs

     Computing kpt #:    58  of    64 on this pool
     total cpu time spent up to now is        2.7 secs

     Computing kpt #:    59  of    64 on this pool
     total cpu time spent up to now is        2.8 secs

     Computing kpt #:    60  of    64 on this pool
     total cpu time spent up to now is        2.8 secs

     Computing kpt #:    61  of    64 on this pool
     total cpu time spent up to now is        2.8 secs

     Computing kpt #:    62  of    64 on this pool
     total cpu time spent up to now is        2.9 secs

     Computing kpt #:    63  of    64 on this pool
     total cpu time spent up to now is        2.9 secs

     Computing kpt #:    64  of    64 on this pool
     total cpu time spent up to now is        3.0 secs

     ethr =  1.00E-13,  avg # of iterations = 29.9

     total cpu time spent up to now is        3.0 secs

     End of band structure calculation

          k = 0.0000 0.0000 0.0000 (   459 PWs)   bands (ev):

    -3.1666  21.3263  21.3263  21.3263  22.7463  22.7463

     occupation numbers 
     1.0000   0.0000   0.0000   0.0000   0.0000   0.0000

          k =-0.0884 0.0884-0.0884 (   450 PWs)   bands (ev):

    -2.7188  16.8706  20.3298  20.3298  23.4417  24.3594

     occupation numbers 
     1.0000   0.0000   0.0000   0.0000   0.0000   0.0000

          k =-0.1768 0.1768-0.1768 (   450 PWs)   bands (ev):

    -1.3883  11.8921  19.5451  19.5451  23.1352  23.5152

     occupation numbers 
     1.0000   0.0000   0.0000   0.0000   0.0000   0.0000

          k =-0.2652 0.2652-0.2652 (   443 PWs)   bands (ev):

     0.7897   7.4915  19.4536  19.4536  21.4546  21.4546

     occupation numbers 
     1.0000   1.0011   0.0000   0.0000   0.0000   0.0000

          k =-0.3536 0.3536-0.3536 (   434 PWs)   bands (ev):

     3.6447   3.8944  20.0684  20.0684  20.1048  20.1048

     occupation numbers 
     1.0000   1.0000   0.0000   0.0000   0.0000   0.0000

          k =-0.4419 0.4419-0.4419 (   443 PWs)   bands (ev):

     0.7897   7.4915  19.4536  19.4536  21.4546  21.4546

     occupation numbers 
     1.0000   1.0011   0.0000   0.0000   0.0000   0.0000

          k =-0.5303 0.5303-0.5303 (   450 PWs)   bands (ev):

    -1.3883  11.8921  19.5451  19.5451  23.1352  23.5152

     occupation numbers 
     1.0000   0.0000   0.0000   0.0000   0.0000   0.0000

          k =-0.6187 0.6187-0.6187 (   450 PWs)   bands (ev):

    -2.7188  16.8706  20.3298  20.3298  23.4417  24.3594

     occupation numbers 
     1.0000   0.0000   0.0000   0.0000   0.0000   0.0000

          k = 0.0884 0.0884 0.0884 (   450 PWs)   bands (ev):

    -2.7188  16.8706  20.3298  20.3298  23.4417  24.3594

     occupation numbers 
     1.0000   0.0000   0.0000   0.0000   0.0000   0.0000

          k = 0.0000 0.1768 0.0000 (   451 PWs)   bands (ev):

    -2.5700  18.5272  18.5272  18.7073  21.6734  23.4208

     occupation numbers 
     1.0000   0.0000   0.0000   0.0000   0.0000   0.0000

          k =-0.0884 0.2652-0.0884 (   451 PWs)   bands (ev):

    -1.5351  13.7840  17.4471  18.9870  20.2810  22.8783

     occupation numbers 
     1.0000   0.0000   0.0000   0.0000   0.0000   0.0000

          k =-0.1768 0.3536-0.1768 (   450 PWs)   bands (ev):

     0.3580   9.2293  17.0965  17.8025  18.8856  25.0683

     occupation numbers 
     1.0000   0.0000   0.0000   0.0000   0.0000   0.0000

          k =-0.2652 0.4419-0.2652 (   447 PWs)   bands (ev):

     3.0576   5.3043  16.1608  17.4759  19.3238  23.4826

     occupation numbers 
     1.0000   1.0000   0.0000   0.0000   0.0000   0.0000

          k =-0.3536 0.5303-0.3536 (   447 PWs)   bands (ev):

     2.0733   6.5305  15.2713  18.5913  20.5313  22.6076

     occupation numbers 
     1.0000   1.0000   0.0000   0.0000   0.0000   0.0000

          k =-0.4419 0.6187-0.4419 (   451 PWs)   bands (ev):

    -0.3659  10.6562  15.1808  20.4313  22.4581  22.4603

     occupation numbers 
     1.0000   0.0000   0.0000   0.0000   0.0000   0.0000

          k =-0.5303 0.7071-0.5303 (   451 PWs)   bands (ev):

    -1.9773  14.9230  16.3108  22.4871  22.7163  24.1671

     occupation numbers 
     1.0000   0.0000   0.0000   0.0000   0.0000   0.0000

          k = 0.1768 0.1768 0.1768 (   450 PWs)   bands (ev):

    -1.3883  11.8921  19.5451  19.5451  23.1352  23.5152

     occupation numbers 
     1.0000   0.0000   0.0000   0.0000   0.0000   0.0000

          k = 0.0884 0.2652 0.0884 (   451 PWs)   bands (ev):

    -1.5351  13.7840  17.4471  18.9870  20.2810  22.8783

     occupation numbers 
     1.0000   0.0000   0.0000   0.0000   0.0000   0.0000

          k = 0.0000 0.3536 0.0000 (   456 PWs)   bands (ev):

    -0.8023  15.8969  16.1068  16.1068  16.8211  19.8078

     occupation numbers 
     1.0000   0.0000   0.0000   0.0000   0.0000   0.0000

          k =-0.0884 0.4419-0.0884 (   447 PWs)   bands (ev):

     0.7895  11.6505  14.0959  15.5061  16.9811  21.1714

     occupation numbers 
     1.0000   0.0000   0.0000   0.0000   0.0000   0.0000

          k =-0.1768 0.5303-0.1768 (   447 PWs)   bands (ev):

     3.1941   7.6009  12.1414  15.6350  17.3645  24.8868

     occupation numbers 
     1.0000   1.0059   0.0000   0.0000   0.0000   0.0000

          k =-0.2652 0.6187-0.2652 (   449 PWs)   bands (ev):

     4.1686   6.3547  11.0071  16.4956  18.3898  26.5552

     occupation numbers 
     1.0000   1.0000   0.0000   0.0000   0.0000   0.0000

          k =-0.3536 0.7071-0.3536 (   443 PWs)   bands (ev):

     1.5049   9.6015  11.2781  18.0965  20.1479  25.9411

     occupation numbers 
     1.0000   0.0000   0.0000   0.0000   0.0000   0.0000

          k =-0.4419 0.7955-0.4419 (   451 PWs)   bands (ev):

    -0.3659  10.6562  15.1808  20.4313  22.4581  22.4603

     occupation numbers 
     1.0000   0.0000   0.0000   0.0000   0.0000   0.0000

          k = 0.2652 0.2652 0.2652 (   443 PWs)   bands (ev):

     0.7897   7.4915  19.4536  19.4536  21.4546  21.4546

     occupation numbers 
     1.0000   1.0011   0.0000   0.0000   0.0000   0.0000

          k = 0.1768 0.3536 0.1768 (   450 PWs)   bands (ev):

     0.3580   9.2293  17.0965  17.8025  18.8856  25.0683

     occupation numbers 
     1.0000   0.0000   0.0000   0.0000   0.0000   0.0000

          k = 0.0884 0.4419 0.0884 (   447 PWs)   bands (ev):

     0.7895  11.6505  14.0959  15.5061  16.9811  21.1714

     occupation numbers 
     1.0000   0.0000   0.0000   0.0000   0.0000   0.0000

          k = 0.0000 0.5303 0.0000 (   448 PWs)   bands (ev):

     2.0696  11.0244  14.1562  14.6595  14.6595  18.3898

     occupation numbers 
     1.0000   0.0000   0.0000   0.0000   0.0000   0.0000

          k =-0.0884 0.6187-0.0884 (   452 PWs)   bands (ev):

     4.1417   8.7510  10.6431  14.5420  15.8739  20.2359

     occupation numbers 
     1.0000   0.0030   0.0000   0.0000   0.0000   0.0000

          k =-0.1768 0.7071-0.1768 (   440 PWs)   bands (ev):

     6.4384   6.9355   8.0547  15.1509  16.8191  24.4731

     occupation numbers 
     1.0000   1.0000   1.0253   0.0000   0.0000   0.0000

          k =-0.2652 0.7955-0.2652 (   449 PWs)   bands (ev):

     4.1686   6.3547  11.0071  16.4956  18.3898  26.5552

     occupation numbers 
     1.0000   1.0000   0.0000   0.0000   0.0000   0.0000

          k =-0.3536 0.8839-0.3536 (   447 PWs)   bands (ev):

     2.0733   6.5305  15.2713  18.5913  20.5313  22.6076

     occupation numbers 
     1.0000   1.0000   0.0000   0.0000   0.0000   0.0000

          k = 0.3536 0.3536 0.3536 (   434 PWs)   bands (ev):

     3.6447   3.8944  20.0684  20.0684  20.1048  20.1048

     occupation numbers 
     1.0000   1.0000   0.0000   0.0000   0.0000   0.0000

          k = 0.2652 0.4419 0.2652 (   447 PWs)   bands (ev):

     3.0576   5.3043  16.1608  17.4759  19.3238  23.4826

     occupation numbers 
     1.0000   1.0000   0.0000   0.0000   0.0000   0.0000

          k = 0.1768 0.5303 0.1768 (   447 PWs)   bands (ev):

     3.1941   7.6009  12.1414  15.6350  17.3645  24.8868

     occupation numbers 
     1.0000   1.0059   0.0000   0.0000   0.0000   0.0000

          k = 0.0884 0.6187 0.0884 (   452 PWs)   bands (ev):

     4.1417   8.7510  10.6431  14.5420  15.8739  20.2359

     occupation numbers 
     1.0000   0.0030   0.0000   0.0000   0.0000   0.0000

          k = 0.0000 0.7071 0.0000 (   444 PWs)   bands (ev):

     5.3930   6.7305  13.5717  14.1798  14.1798  17.8755

     occupation numbers 
     1.0000   1.0000   0.0000   0.0000   0.0000   0.0000

          k =-0.0884 0.7955-0.0884 (   452 PWs)   bands (ev):

     4.1417   8.7510  10.6431  14.5420  15.8739  20.2359

     occupation numbers 
     1.0000   0.0030   0.0000   0.0000   0.0000   0.0000

          k =-0.1768 0.8839-0.1768 (   447 PWs)   bands (ev):

     3.1941   7.6009  12.1414  15.6350  17.3645  24.8868

     occupation numbers 
     1.0000   1.0059   0.0000   0.0000   0.0000   0.0000

          k =-0.2652 0.9723-0.2652 (   447 PWs)   bands (ev):

     3.0576   5.3043  16.1608  17.4759  19.3238  23.4826

     occupation numbers 
     1.0000   1.0000   0.0000   0.0000   0.0000   0.0000

          k = 0.4419 0.4419 0.4419 (   443 PWs)   bands (ev):

     0.7897   7.4915  19.4536  19.4536  21.4546  21.4546

     occupation numbers 
     1.0000   1.0011   0.0000   0.0000   0.0000   0.0000

          k = 0.3536 0.5303 0.3536 (   447 PWs)   bands (ev):

     2.0733   6.5305  15.2713  18.5913  20.5313  22.6076

     occupation numbers 
     1.0000   1.0000   0.0000   0.0000   0.0000   0.0000

          k = 0.2652 0.6187 0.2652 (   449 PWs)   bands (ev):

     4.1686   6.3547  11.0071  16.4956  18.3898  26.5552

     occupation numbers 
     1.0000   1.0000   0.0000   0.0000   0.0000   0.0000

          k = 0.1768 0.7071 0.1768 (   440 PWs)   bands (ev):

     6.4384   6.9355   8.0547  15.1509  16.8191  24.4731

     occupation numbers 
     1.0000   1.0000   1.0253   0.0000   0.0000   0.0000

          k = 0.0884 0.7955 0.0884 (   452 PWs)   bands (ev):

     4.1417   8.7510  10.6431  14.5420  15.8739  20.2359

     occupation numbers 
     1.0000   0.0030   0.0000   0.0000   0.0000   0.0000

          k = 0.0000 0.8839 0.0000 (   448 PWs)   bands (ev):

     2.0696  11.0244  14.1562  14.6595  14.6595  18.3898

     occupation numbers 
     1.0000   0.0000   0.0000   0.0000   0.0000   0.0000

          k =-0.0884 0.9723-0.0884 (   447 PWs)   bands (ev):

     0.7895  11.6505  14.0959  15.5061  16.9811  21.1714

     occupation numbers 
     1.0000   0.0000   0.0000   0.0000   0.0000   0.0000

          k =-0.1768 1.0607-0.1768 (   450 PWs)   bands (ev):

     0.3580   9.2293  17.0965  17.8025  18.8856  25.0683

     occupation numbers 
     1.0000   0.0000   0.0000   0.0000   0.0000   0.0000

          k = 0.5303 0.5303 0.5303 (   450 PWs)   bands (ev):

    -1.3883  11.8921  19.5451  19.5451  23.1352  23.5152

     occupation numbers 
     1.0000   0.0000   0.0000   0.0000   0.0000   0.0000

          k = 0.4419 0.6187 0.4419 (   451 PWs)   bands (ev):

    -0.3659  10.6562  15.1808  20.4313  22.4581  22.4603

     occupation numbers 
     1.0000   0.0000   0.0000   0.0000   0.0000   0.0000

          k = 0.3536 0.7071 0.3536 (   443 PWs)   bands (ev):

     1.5049   9.6015  11.2781  18.0965  20.1479  25.9411

     occupation numbers 
     1.0000   0.0000   0.0000   0.0000   0.0000   0.0000

          k = 0.2652 0.7955 0.2652 (   449 PWs)   bands (ev):

     4.1686   6.3547  11.0071  16.4956  18.3898  26.5552

     occupation numbers 
     1.0000   1.0000   0.0000   0.0000   0.0000   0.0000

          k = 0.1768 0.8839 0.1768 (   447 PWs)   bands (ev):

     3.1941   7.6009  12.1414  15.6350  17.3645  24.8868

     occupation numbers 
     1.0000   1.0059   0.0000   0.0000   0.0000   0.0000

          k = 0.0884 0.9723 0.0884 (   447 PWs)   bands (ev):

     0.7895  11.6505  14.0959  15.5061  16.9811  21.1714

     occupation numbers 
     1.0000   0.0000   0.0000   0.0000   0.0000   0.0000

          k = 0.0000 1.0607 0.0000 (   456 PWs)   bands (ev):

    -0.8023  15.8969  16.1068  16.1068  16.8211  19.8078

     occupation numbers 
     1.0000   0.0000   0.0000   0.0000   0.0000   0.0000

          k =-0.0884 1.1490-0.0884 (   451 PWs)   bands (ev):

    -1.5351  13.7840  17.4471  18.9870  20.2810  22.8783

     occupation numbers 
     1.0000   0.0000   0.0000   0.0000   0.0000   0.0000

          k = 0.6187 0.6187 0.6187 (   450 PWs)   bands (ev):

    -2.7188  16.8706  20.3298  20.3298  23.4417  24.3594

     occupation numbers 
     1.0000   0.0000   0.0000   0.0000   0.0000   0.0000

          k = 0.5303 0.7071 0.5303 (   451 PWs)   bands (ev):

    -1.9773  14.9230  16.3108  22.4871  22.7163  24.1671

     occupation numbers 
     1.0000   0.0000   0.0000   0.0000   0.0000   0.0000

          k = 0.4419 0.7955 0.4419 (   451 PWs)   bands (ev):

    -0.3659  10.6562  15.1808  20.4313  22.4581  22.4603

     occupation numbers 
     1.0000   0.0000   0.0000   0.0000   0.0000   0.0000

          k = 0.3536 0.8839 0.3536 (   447 PWs)   bands (ev):

     2.0733   6.5305  15.2713  18.5913  20.5313  22.6076

     occupation numbers 
     1.0000   1.0000   0.0000   0.0000   0.0000   0.0000

          k = 0.2652 0.9723 0.2652 (   447 PWs)   bands (ev):

     3.0576   5.3043  16.1608  17.4759  19.3238  23.4826

     occupation numbers 
     1.0000   1.0000   0.0000   0.0000   0.0000   0.0000

          k = 0.1768 1.0607 0.1768 (   450 PWs)   bands (ev):

     0.3580   9.2293  17.0965  17.8025  18.8856  25.0683

     occupation numbers 
     1.0000   0.0000   0.0000   0.0000   0.0000   0.0000

          k = 0.0884 1.1490 0.0884 (   451 PWs)   bands (ev):

    -1.5351  13.7840  17.4471  18.9870  20.2810  22.8783

     occupation numbers 
     1.0000   0.0000   0.0000   0.0000   0.0000   0.0000

          k = 0.0000 1.2374 0.0000 (   451 PWs)   bands (ev):

    -2.5700  18.5272  18.5272  18.7073  21.6734  23.4208

     occupation numbers 
     1.0000   0.0000   0.0000   0.0000   0.0000   0.0000

          k =-0.0884-0.0884 0.0884 (   450 PWs)   bands (ev):

    -2.7188  16.8706  20.3298  20.3298  23.4417  24.3594

     occupation numbers 
     1.0000   0.0000   0.0000   0.0000   0.0000   0.0000

          k =-0.1768 0.0000 0.0000 (   451 PWs)   bands (ev):

    -2.5700  18.5272  18.5272  18.7073  21.6734  23.4208

     occupation numbers 
     1.0000   0.0000   0.0000   0.0000   0.0000   0.0000

          k =-0.2652 0.0884-0.0884 (   451 PWs)   bands (ev):

    -1.5351  13.7840  17.4471  18.9870  20.2810  22.8783

     occupation numbers 
     1.0000   0.0000   0.0000   0.0000   0.0000   0.0000

          k =-0.3536 0.1768-0.1768 (   450 PWs)   bands (ev):

     0.3580   9.2293  17.0965  17.8025  18.8856  25.0683

     occupation numbers 
     1.0000   0.0000   0.0000   0.0000   0.0000   0.0000

          k =-0.4419 0.2652-0.2652 (   447 PWs)   bands (ev):

     3.0576   5.3043  16.1608  17.4759  19.3238  23.4826

     occupation numbers 
     1.0000   1.0000   0.0000   0.0000   0.0000   0.0000

          k =-0.5303 0.3536-0.3536 (   447 PWs)   bands (ev):

     2.0733   6.5305  15.2713  18.5913  20.5313  22.6076

     occupation numbers 
     1.0000   1.0000   0.0000   0.0000   0.0000   0.0000

          k =-0.6187 0.4419-0.4419 (   451 PWs)   bands (ev):

    -0.3659  10.6562  15.1808  20.4313  22.4581  22.4603

     occupation numbers 
     1.0000   0.0000   0.0000   0.0000   0.0000   0.0000

          k =-0.7071 0.5303-0.5303 (   451 PWs)   bands (ev):

    -1.9773  14.9230  16.3108  22.4871  22.7163  24.1671

     occupation numbers 
     1.0000   0.0000   0.0000   0.0000   0.0000   0.0000

          k = 0.0000 0.0000 0.1768 (   451 PWs)   bands (ev):

    -2.5700  18.5272  18.5272  18.7073  21.6734  23.4208

     occupation numbers 
     1.0000   0.0000   0.0000   0.0000   0.0000   0.0000

          k =-0.0884 0.0884 0.0884 (   450 PWs)   bands (ev):

    -2.7188  16.8706  20.3298  20.3298  23.4417  24.3594

     occupation numbers 
     1.0000   0.0000   0.0000   0.0000   0.0000   0.0000

          k =-0.1768 0.1768 0.0000 (   451 PWs)   bands (ev):

    -1.9773  14.9230  16.3108  22.4871  22.7163  24.1671

     occupation numbers 
     1.0000   0.0000   0.0000   0.0000   0.0000   0.0000

          k =-0.2652 0.2652-0.0884 (   451 PWs)   bands (ev):

    -0.3659  10.6562  15.1808  20.4313  22.4581  22.4603

     occupation numbers 
     1.0000   0.0000   0.0000   0.0000   0.0000   0.0000

          k =-0.3536 0.3536-0.1768 (   447 PWs)   bands (ev):

     2.0733   6.5305  15.2713  18.5913  20.5313  22.6076

     occupation numbers 
     1.0000   1.0000   0.0000   0.0000   0.0000   0.0000

          k =-0.4419 0.4419-0.2652 (   447 PWs)   bands (ev):

     3.0576   5.3043  16.1608  17.4759  19.3238  23.4826

     occupation numbers 
     1.0000   1.0000   0.0000   0.0000   0.0000   0.0000

          k =-0.5303 0.5303-0.3536 (   450 PWs)   bands (ev):

     0.3580   9.2293  17.0965  17.8025  18.8856  25.0683

     occupation numbers 
     1.0000   0.0000   0.0000   0.0000   0.0000   0.0000

          k =-0.6187 0.6187-0.4419 (   451 PWs)   bands (ev):

    -1.5351  13.7840  17.4471  18.9870  20.2810  22.8783

     occupation numbers 
     1.0000   0.0000   0.0000   0.0000   0.0000   0.0000

          k = 0.0884 0.0884 0.2652 (   451 PWs)   bands (ev):

    -1.5351  13.7840  17.4471  18.9870  20.2810  22.8783

     occupation numbers 
     1.0000   0.0000   0.0000   0.0000   0.0000   0.0000

          k = 0.0000 0.1768 0.1768 (   451 PWs)   bands (ev):

    -1.9773  14.9230  16.3108  22.4871  22.7163  24.1671

     occupation numbers 
     1.0000   0.0000   0.0000   0.0000   0.0000   0.0000

          k =-0.0884 0.2652 0.0884 (   451 PWs)   bands (ev):

    -1.5351  13.7840  17.4471  18.9870  20.2810  22.8783

     occupation numbers 
     1.0000   0.0000   0.0000   0.0000   0.0000   0.0000

          k =-0.1768 0.3536 0.0000 (   448 PWs)   bands (ev):

    -0.2204  12.2596  13.8330  17.3969  20.8019  22.6574

     occupation numbers 
     1.0000   0.0000   0.0000   0.0000   0.0000   0.0000

          k =-0.2652 0.4419-0.0884 (   442 PWs)   bands (ev):

     1.9309   8.5093  13.0876  15.2357  21.4711  23.6331

     occupation numbers 
     1.0000   0.0843   0.0000   0.0000   0.0000   0.0000

          k =-0.3536 0.5303-0.1768 (   442 PWs)   bands (ev):

     4.7069   5.0376  13.4035  14.1003  21.9762  22.5286

     occupation numbers 
     1.0000   1.0000   0.0000   0.0000   0.0000   0.0000

          k =-0.4419 0.6187-0.2652 (   442 PWs)   bands (ev):

     1.9309   8.5093  13.0876  15.2357  21.4711  23.6331

     occupation numbers 
     1.0000   0.0843   0.0000   0.0000   0.0000   0.0000

          k =-0.5303 0.7071-0.3536 (   448 PWs)   bands (ev):

    -0.2204  12.2596  13.8330  17.3969  20.8019  22.6574

     occupation numbers 
     1.0000   0.0000   0.0000   0.0000   0.0000   0.0000

          k = 0.1768 0.1768 0.3536 (   450 PWs)   bands (ev):

     0.3580   9.2293  17.0965  17.8025  18.8856  25.0683

     occupation numbers 
     1.0000   0.0000   0.0000   0.0000   0.0000   0.0000

          k = 0.0884 0.2652 0.2652 (   451 PWs)   bands (ev):

    -0.3659  10.6562  15.1808  20.4313  22.4581  22.4603

     occupation numbers 
     1.0000   0.0000   0.0000   0.0000   0.0000   0.0000

          k = 0.0000 0.3536 0.1768 (   448 PWs)   bands (ev):

    -0.2204  12.2596  13.8330  17.3969  20.8019  22.6574

     occupation numbers 
     1.0000   0.0000   0.0000   0.0000   0.0000   0.0000

          k =-0.0884 0.4419 0.0884 (   447 PWs)   bands (ev):

     0.7895  11.6505  14.0959  15.5061  16.9811  21.1714

     occupation numbers 
     1.0000   0.0000   0.0000   0.0000   0.0000   0.0000

          k =-0.1768 0.5303 0.0000 (   454 PWs)   bands (ev):

     2.6336  10.6605  11.3817  12.5637  19.2528  21.4361

     occupation numbers 
     1.0000   0.0000   0.0000   0.0000   0.0000   0.0000

          k =-0.2652 0.6187-0.0884 (   444 PWs)   bands (ev):

     5.2317   7.4163   9.8813  12.1920  20.5176  24.7569

     occupation numbers 
     1.0000   1.0003   0.0000   0.0000   0.0000   0.0000

          k =-0.3536 0.7071-0.1768 (   440 PWs)   bands (ev):

     4.3050   8.0151   9.6149  13.2934  21.7717  25.1413

     occupation numbers 
     1.0000   1.0607   0.0000   0.0000   0.0000   0.0000

          k =-0.4419 0.7955-0.2652 (   442 PWs)   bands (ev):

     1.9309   8.5093  13.0876  15.2357  21.4711  23.6331

     occupation numbers 
     1.0000   0.0843   0.0000   0.0000   0.0000   0.0000

          k = 0.2652 0.2652 0.4419 (   447 PWs)   bands (ev):

     3.0576   5.3043  16.1608  17.4759  19.3238  23.4826

     occupation numbers 
     1.0000   1.0000   0.0000   0.0000   0.0000   0.0000

          k = 0.1768 0.3536 0.3536 (   447 PWs)   bands (ev):

     2.0733   6.5305  15.2713  18.5913  20.5313  22.6076

     occupation numbers 
     1.0000   1.0000   0.0000   0.0000   0.0000   0.0000

          k = 0.0884 0.4419 0.2652 (   442 PWs)   bands (ev):

     1.9309   8.5093  13.0876  15.2357  21.4711  23.6331

     occupation numbers 
     1.0000   0.0843   0.0000   0.0000   0.0000   0.0000

          k = 0.0000 0.5303 0.1768 (   454 PWs)   bands (ev):

     2.6336  10.6605  11.3817  12.5637  19.2528  21.4361

     occupation numbers 
     1.0000   0.0000   0.0000   0.0000   0.0000   0.0000

          k =-0.0884 0.6187 0.0884 (   452 PWs)   bands (ev):

     4.1417   8.7510  10.6431  14.5420  15.8739  20.2359

     occupation numbers 
     1.0000   0.0030   0.0000   0.0000   0.0000   0.0000

          k =-0.1768 0.7071 0.0000 (   452 PWs)   bands (ev):

     5.9150   7.2876  10.1277  11.8817  18.7272  20.9863

     occupation numbers 
     1.0000   1.0000   0.0000   0.0000   0.0000   0.0000

          k =-0.2652 0.7955-0.0884 (   444 PWs)   bands (ev):

     5.2317   7.4163   9.8813  12.1920  20.5176  24.7569

     occupation numbers 
     1.0000   1.0003   0.0000   0.0000   0.0000   0.0000

          k =-0.3536 0.8839-0.1768 (   442 PWs)   bands (ev):

     4.7069   5.0376  13.4035  14.1003  21.9762  22.5286

     occupation numbers 
     1.0000   1.0000   0.0000   0.0000   0.0000   0.0000

          k = 0.3536 0.3536 0.5303 (   447 PWs)   bands (ev):

     2.0733   6.5305  15.2713  18.5913  20.5313  22.6076

     occupation numbers 
     1.0000   1.0000   0.0000   0.0000   0.0000   0.0000

          k = 0.2652 0.4419 0.4419 (   447 PWs)   bands (ev):

     3.0576   5.3043  16.1608  17.4759  19.3238  23.4826

     occupation numbers 
     1.0000   1.0000   0.0000   0.0000   0.0000   0.0000

          k = 0.1768 0.5303 0.3536 (   442 PWs)   bands (ev):

     4.7069   5.0376  13.4035  14.1003  21.9762  22.5286

     occupation numbers 
     1.0000   1.0000   0.0000   0.0000   0.0000   0.0000

          k = 0.0884 0.6187 0.2652 (   444 PWs)   bands (ev):

     5.2317   7.4163   9.8813  12.1920  20.5176  24.7569

     occupation numbers 
     1.0000   1.0003   0.0000   0.0000   0.0000   0.0000

          k = 0.0000 0.7071 0.1768 (   452 PWs)   bands (ev):

     5.9150   7.2876  10.1277  11.8817  18.7272  20.9863

     occupation numbers 
     1.0000   1.0000   0.0000   0.0000   0.0000   0.0000

          k =-0.0884 0.7955 0.0884 (   452 PWs)   bands (ev):

     4.1417   8.7510  10.6431  14.5420  15.8739  20.2359

     occupation numbers 
     1.0000   0.0030   0.0000   0.0000   0.0000   0.0000

          k =-0.1768 0.8839 0.0000 (   454 PWs)   bands (ev):

     2.6336  10.6605  11.3817  12.5637  19.2528  21.4361

     occupation numbers 
     1.0000   0.0000   0.0000   0.0000   0.0000   0.0000

          k =-0.2652 0.9723-0.0884 (   442 PWs)   bands (ev):

     1.9309   8.5093  13.0876  15.2357  21.4711  23.6331

     occupation numbers 
     1.0000   0.0843   0.0000   0.0000   0.0000   0.0000

          k = 0.4419 0.4419 0.6187 (   451 PWs)   bands (ev):

    -0.3659  10.6562  15.1808  20.4313  22.4581  22.4603

     occupation numbers 
     1.0000   0.0000   0.0000   0.0000   0.0000   0.0000

          k = 0.3536 0.5303 0.5303 (   450 PWs)   bands (ev):

     0.3580   9.2293  17.0965  17.8025  18.8856  25.0683

     occupation numbers 
     1.0000   0.0000   0.0000   0.0000   0.0000   0.0000

          k = 0.2652 0.6187 0.4419 (   442 PWs)   bands (ev):

     1.9309   8.5093  13.0876  15.2357  21.4711  23.6331

     occupation numbers 
     1.0000   0.0843   0.0000   0.0000   0.0000   0.0000

          k = 0.1768 0.7071 0.3536 (   440 PWs)   bands (ev):

     4.3050   8.0151   9.6149  13.2934  21.7717  25.1413

     occupation numbers 
     1.0000   1.0607   0.0000   0.0000   0.0000   0.0000

          k = 0.0884 0.7955 0.2652 (   444 PWs)   bands (ev):

     5.2317   7.4163   9.8813  12.1920  20.5176  24.7569

     occupation numbers 
     1.0000   1.0003   0.0000   0.0000   0.0000   0.0000

          k = 0.0000 0.8839 0.1768 (   454 PWs)   bands (ev):

     2.6336  10.6605  11.3817  12.5637  19.2528  21.4361

     occupation numbers 
     1.0000   0.0000   0.0000   0.0000   0.0000   0.0000

          k =-0.0884 0.9723 0.0884 (   447 PWs)   bands (ev):

     0.7895  11.6505  14.0959  15.5061  16.9811  21.1714

     occupation numbers 
     1.0000   0.0000   0.0000   0.0000   0.0000   0.0000

          k =-0.1768 1.0607 0.0000 (   448 PWs)   bands (ev):

    -0.2204  12.2596  13.8330  17.3969  20.8019  22.6574

     occupation numbers 
     1.0000   0.0000   0.0000   0.0000   0.0000   0.0000

          k = 0.5303 0.5303 0.7071 (   451 PWs)   bands (ev):

    -1.9773  14.9230  16.3108  22.4871  22.7163  24.1671

     occupation numbers 
     1.0000   0.0000   0.0000   0.0000   0.0000   0.0000

          k = 0.4419 0.6187 0.6187 (   451 PWs)   bands (ev):

    -1.5351  13.7840  17.4471  18.9870  20.2810  22.8783

     occupation numbers 
     1.0000   0.0000   0.0000   0.0000   0.0000   0.0000

          k = 0.3536 0.7071 0.5303 (   448 PWs)   bands (ev):

    -0.2204  12.2596  13.8330  17.3969  20.8019  22.6574

     occupation numbers 
     1.0000   0.0000   0.0000   0.0000   0.0000   0.0000

          k = 0.2652 0.7955 0.4419 (   442 PWs)   bands (ev):

     1.9309   8.5093  13.0876  15.2357  21.4711  23.6331

     occupation numbers 
     1.0000   0.0843   0.0000   0.0000   0.0000   0.0000

          k = 0.1768 0.8839 0.3536 (   442 PWs)   bands (ev):

     4.7069   5.0376  13.4035  14.1003  21.9762  22.5286

     occupation numbers 
     1.0000   1.0000   0.0000   0.0000   0.0000   0.0000

          k = 0.0884 0.9723 0.2652 (   442 PWs)   bands (ev):

     1.9309   8.5093  13.0876  15.2357  21.4711  23.6331

     occupation numbers 
     1.0000   0.0843   0.0000   0.0000   0.0000   0.0000

          k =-0.0000 1.0607 0.1768 (   448 PWs)   bands (ev):

    -0.2204  12.2596  13.8330  17.3969  20.8019  22.6574

     occupation numbers 
     1.0000   0.0000   0.0000   0.0000   0.0000   0.0000

          k =-0.0884 1.1490 0.0884 (   451 PWs)   bands (ev):

    -1.5351  13.7840  17.4471  18.9870  20.2810  22.8783

     occupation numbers 
     1.0000   0.0000   0.0000   0.0000   0.0000   0.0000

          k =-0.1768-0.1768 0.1768 (   450 PWs)   bands (ev):

    -1.3883  11.8921  19.5451  19.5451  23.1352  23.5152

     occupation numbers 
     1.0000   0.0000   0.0000   0.0000   0.0000   0.0000

          k =-0.2652-0.0884 0.0884 (   451 PWs)   bands (ev):

    -1.5351  13.7840  17.4471  18.9870  20.2810  22.8783

     occupation numbers 
     1.0000   0.0000   0.0000   0.0000   0.0000   0.0000

          k =-0.3536 0.0000 0.0000 (   456 PWs)   bands (ev):

    -0.8023  15.8969  16.1068  16.1068  16.8211  19.8078

     occupation numbers 
     1.0000   0.0000   0.0000   0.0000   0.0000   0.0000

          k =-0.4419 0.0884-0.0884 (   447 PWs)   bands (ev):

     0.7895  11.6505  14.0959  15.5061  16.9811  21.1714

     occupation numbers 
     1.0000   0.0000   0.0000   0.0000   0.0000   0.0000

          k =-0.5303 0.1768-0.1768 (   447 PWs)   bands (ev):

     3.1941   7.6009  12.1414  15.6350  17.3645  24.8868

     occupation numbers 
     1.0000   1.0059   0.0000   0.0000   0.0000   0.0000

          k =-0.6187 0.2652-0.2652 (   449 PWs)   bands (ev):

     4.1686   6.3547  11.0071  16.4956  18.3898  26.5552

     occupation numbers 
     1.0000   1.0000   0.0000   0.0000   0.0000   0.0000

          k =-0.7071 0.3536-0.3536 (   443 PWs)   bands (ev):

     1.5049   9.6015  11.2781  18.0965  20.1479  25.9411

     occupation numbers 
     1.0000   0.0000   0.0000   0.0000   0.0000   0.0000

          k =-0.7955 0.4419-0.4419 (   451 PWs)   bands (ev):

    -0.3659  10.6562  15.1808  20.4313  22.4581  22.4603

     occupation numbers 
     1.0000   0.0000   0.0000   0.0000   0.0000   0.0000

          k =-0.0884-0.0884 0.2652 (   451 PWs)   bands (ev):

    -1.5351  13.7840  17.4471  18.9870  20.2810  22.8783

     occupation numbers 
     1.0000   0.0000   0.0000   0.0000   0.0000   0.0000

          k =-0.1768 0.0000 0.1768 (   451 PWs)   bands (ev):

    -1.9773  14.9230  16.3108  22.4871  22.7163  24.1671

     occupation numbers 
     1.0000   0.0000   0.0000   0.0000   0.0000   0.0000

          k =-0.2652 0.0884 0.0884 (   451 PWs)   bands (ev):

    -1.5351  13.7840  17.4471  18.9870  20.2810  22.8783

     occupation numbers 
     1.0000   0.0000   0.0000   0.0000   0.0000   0.0000

          k =-0.3536 0.1768 0.0000 (   448 PWs)   bands (ev):

    -0.2204  12.2596  13.8330  17.3969  20.8019  22.6574

     occupation numbers 
     1.0000   0.0000   0.0000   0.0000   0.0000   0.0000

          k =-0.4419 0.2652-0.0884 (   442 PWs)   bands (ev):

     1.9309   8.5093  13.0876  15.2357  21.4711  23.6331

     occupation numbers 
     1.0000   0.0843   0.0000   0.0000   0.0000   0.0000

          k =-0.5303 0.3536-0.1768 (   442 PWs)   bands (ev):

     4.7069   5.0376  13.4035  14.1003  21.9762  22.5286

     occupation numbers 
     1.0000   1.0000   0.0000   0.0000   0.0000   0.0000

          k =-0.6187 0.4419-0.2652 (   442 PWs)   bands (ev):

     1.9309   8.5093  13.0876  15.2357  21.4711  23.6331

     occupation numbers 
     1.0000   0.0843   0.0000   0.0000   0.0000   0.0000

          k =-0.7071 0.5303-0.3536 (   448 PWs)   bands (ev):

    -0.2204  12.2596  13.8330  17.3969  20.8019  22.6574

     occupation numbers 
     1.0000   0.0000   0.0000   0.0000   0.0000   0.0000

          k = 0.0000 0.0000 0.3536 (   456 PWs)   bands (ev):

    -0.8023  15.8969  16.1068  16.1068  16.8211  19.8078

     occupation numbers 
     1.0000   0.0000   0.0000   0.0000   0.0000   0.0000

          k =-0.0884 0.0884 0.2652 (   451 PWs)   bands (ev):

    -1.5351  13.7840  17.4471  18.9870  20.2810  22.8783

     occupation numbers 
     1.0000   0.0000   0.0000   0.0000   0.0000   0.0000

          k =-0.1768 0.1768 0.1768 (   450 PWs)   bands (ev):

    -1.3883  11.8921  19.5451  19.5451  23.1352  23.5152

     occupation numbers 
     1.0000   0.0000   0.0000   0.0000   0.0000   0.0000

          k =-0.2652 0.2652 0.0884 (   451 PWs)   bands (ev):

    -0.3659  10.6562  15.1808  20.4313  22.4581  22.4603

     occupation numbers 
     1.0000   0.0000   0.0000   0.0000   0.0000   0.0000

          k =-0.3536 0.3536 0.0000 (   443 PWs)   bands (ev):

     1.5049   9.6015  11.2781  18.0965  20.1479  25.9411

     occupation numbers 
     1.0000   0.0000   0.0000   0.0000   0.0000   0.0000

          k =-0.4419 0.4419-0.0884 (   449 PWs)   bands (ev):

     4.1686   6.3547  11.0071  16.4956  18.3898  26.5552

     occupation numbers 
     1.0000   1.0000   0.0000   0.0000   0.0000   0.0000

          k =-0.5303 0.5303-0.1768 (   447 PWs)   bands (ev):

     3.1941   7.6009  12.1414  15.6350  17.3645  24.8868

     occupation numbers 
     1.0000   1.0059   0.0000   0.0000   0.0000   0.0000

          k =-0.6187 0.6187-0.2652 (   447 PWs)   bands (ev):

     0.7895  11.6505  14.0959  15.5061  16.9811  21.1714

     occupation numbers 
     1.0000   0.0000   0.0000   0.0000   0.0000   0.0000

          k = 0.0884 0.0884 0.4419 (   447 PWs)   bands (ev):

     0.7895  11.6505  14.0959  15.5061  16.9811  21.1714

     occupation numbers 
     1.0000   0.0000   0.0000   0.0000   0.0000   0.0000

          k = 0.0000 0.1768 0.3536 (   448 PWs)   bands (ev):

    -0.2204  12.2596  13.8330  17.3969  20.8019  22.6574

     occupation numbers 
     1.0000   0.0000   0.0000   0.0000   0.0000   0.0000

          k =-0.0884 0.2652 0.2652 (   451 PWs)   bands (ev):

    -0.3659  10.6562  15.1808  20.4313  22.4581  22.4603

     occupation numbers 
     1.0000   0.0000   0.0000   0.0000   0.0000   0.0000

          k =-0.1768 0.3536 0.1768 (   450 PWs)   bands (ev):

     0.3580   9.2293  17.0965  17.8025  18.8856  25.0683

     occupation numbers 
     1.0000   0.0000   0.0000   0.0000   0.0000   0.0000

          k =-0.2652 0.4419 0.0884 (   442 PWs)   bands (ev):

     1.9309   8.5093  13.0876  15.2357  21.4711  23.6331

     occupation numbers 
     1.0000   0.0843   0.0000   0.0000   0.0000   0.0000

          k =-0.3536 0.5303 0.0000 (   440 PWs)   bands (ev):

     4.3050   8.0151   9.6149  13.2934  21.7717  25.1413

     occupation numbers 
     1.0000   1.0607   0.0000   0.0000   0.0000   0.0000

          k =-0.4419 0.6187-0.0884 (   444 PWs)   bands (ev):

     5.2317   7.4163   9.8813  12.1920  20.5176  24.7569

     occupation numbers 
     1.0000   1.0003   0.0000   0.0000   0.0000   0.0000

          k =-0.5303 0.7071-0.1768 (   454 PWs)   bands (ev):

     2.6336  10.6605  11.3817  12.5637  19.2528  21.4361

     occupation numbers 
     1.0000   0.0000   0.0000   0.0000   0.0000   0.0000

          k = 0.1768 0.1768 0.5303 (   447 PWs)   bands (ev):

     3.1941   7.6009  12.1414  15.6350  17.3645  24.8868

     occupation numbers 
     1.0000   1.0059   0.0000   0.0000   0.0000   0.0000

          k = 0.0884 0.2652 0.4419 (   442 PWs)   bands (ev):

     1.9309   8.5093  13.0876  15.2357  21.4711  23.6331

     occupation numbers 
     1.0000   0.0843   0.0000   0.0000   0.0000   0.0000

          k = 0.0000 0.3536 0.3536 (   443 PWs)   bands (ev):

     1.5049   9.6015  11.2781  18.0965  20.1479  25.9411

     occupation numbers 
     1.0000   0.0000   0.0000   0.0000   0.0000   0.0000

          k =-0.0884 0.4419 0.2652 (   442 PWs)   bands (ev):

     1.9309   8.5093  13.0876  15.2357  21.4711  23.6331

     occupation numbers 
     1.0000   0.0843   0.0000   0.0000   0.0000   0.0000

          k =-0.1768 0.5303 0.1768 (   447 PWs)   bands (ev):

     3.1941   7.6009  12.1414  15.6350  17.3645  24.8868

     occupation numbers 
     1.0000   1.0059   0.0000   0.0000   0.0000   0.0000

          k =-0.2652 0.6187 0.0884 (   444 PWs)   bands (ev):

     5.2317   7.4163   9.8813  12.1920  20.5176  24.7569

     occupation numbers 
     1.0000   1.0003   0.0000   0.0000   0.0000   0.0000

          k =-0.3536 0.7071 0.0000 (   444 PWs)   bands (ev):

     7.4880   7.4880   8.4463   9.7744  24.6391  24.6391

     occupation numbers 
     1.0010   1.0010   0.1579   0.0000   0.0000   0.0000

          k =-0.4419 0.7955-0.0884 (   444 PWs)   bands (ev):

     5.2317   7.4163   9.8813  12.1920  20.5176  24.7569

     occupation numbers 
     1.0000   1.0003   0.0000   0.0000   0.0000   0.0000

          k = 0.2652 0.2652 0.6187 (   449 PWs)   bands (ev):

     4.1686   6.3547  11.0071  16.4956  18.3898  26.5552

     occupation numbers 
     1.0000   1.0000   0.0000   0.0000   0.0000   0.0000

          k = 0.1768 0.3536 0.5303 (   442 PWs)   bands (ev):

     4.7069   5.0376  13.4035  14.1003  21.9762  22.5286

     occupation numbers 
     1.0000   1.0000   0.0000   0.0000   0.0000   0.0000

          k = 0.0884 0.4419 0.4419 (   449 PWs)   bands (ev):

     4.1686   6.3547  11.0071  16.4956  18.3898  26.5552

     occupation numbers 
     1.0000   1.0000   0.0000   0.0000   0.0000   0.0000

          k = 0.0000 0.5303 0.3536 (   440 PWs)   bands (ev):

     4.3050   8.0151   9.6149  13.2934  21.7717  25.1413

     occupation numbers 
     1.0000   1.0607   0.0000   0.0000   0.0000   0.0000

          k =-0.0884 0.6187 0.2652 (   444 PWs)   bands (ev):

     5.2317   7.4163   9.8813  12.1920  20.5176  24.7569

     occupation numbers 
     1.0000   1.0003   0.0000   0.0000   0.0000   0.0000

          k =-0.1768 0.7071 0.1768 (   440 PWs)   bands (ev):

     6.4384   6.9355   8.0547  15.1509  16.8191  24.4731

     occupation numbers 
     1.0000   1.0000   1.0253   0.0000   0.0000   0.0000

          k =-0.2652 0.7955 0.0884 (   444 PWs)   bands (ev):

     5.2317   7.4163   9.8813  12.1920  20.5176  24.7569

     occupation numbers 
     1.0000   1.0003   0.0000   0.0000   0.0000   0.0000

          k =-0.3536 0.8839 0.0000 (   440 PWs)   bands (ev):

     4.3050   8.0151   9.6149  13.2934  21.7717  25.1413

     occupation numbers 
     1.0000   1.0607   0.0000   0.0000   0.0000   0.0000

          k = 0.3536 0.3536 0.7071 (   443 PWs)   bands (ev):

     1.5049   9.6015  11.2781  18.0965  20.1479  25.9411

     occupation numbers 
     1.0000   0.0000   0.0000   0.0000   0.0000   0.0000

          k = 0.2652 0.4419 0.6187 (   442 PWs)   bands (ev):

     1.9309   8.5093  13.0876  15.2357  21.4711  23.6331

     occupation numbers 
     1.0000   0.0843   0.0000   0.0000   0.0000   0.0000

          k = 0.1768 0.5303 0.5303 (   447 PWs)   bands (ev):

     3.1941   7.6009  12.1414  15.6350  17.3645  24.8868

     occupation numbers 
     1.0000   1.0059   0.0000   0.0000   0.0000   0.0000

          k = 0.0884 0.6187 0.4419 (   444 PWs)   bands (ev):

     5.2317   7.4163   9.8813  12.1920  20.5176  24.7569

     occupation numbers 
     1.0000   1.0003   0.0000   0.0000   0.0000   0.0000

          k = 0.0000 0.7071 0.3536 (   444 PWs)   bands (ev):

     7.4880   7.4880   8.4463   9.7744  24.6391  24.6391

     occupation numbers 
     1.0010   1.0010   0.1579   0.0000   0.0000   0.0000

          k =-0.0884 0.7955 0.2652 (   444 PWs)   bands (ev):

     5.2317   7.4163   9.8813  12.1920  20.5176  24.7569

     occupation numbers 
     1.0000   1.0003   0.0000   0.0000   0.0000   0.0000

          k =-0.1768 0.8839 0.1768 (   447 PWs)   bands (ev):

     3.1941   7.6009  12.1414  15.6350  17.3645  24.8868

     occupation numbers 
     1.0000   1.0059   0.0000   0.0000   0.0000   0.0000

          k =-0.2652 0.9723 0.0884 (   442 PWs)   bands (ev):

     1.9309   8.5093  13.0876  15.2357  21.4711  23.6331

     occupation numbers 
     1.0000   0.0843   0.0000   0.0000   0.0000   0.0000

          k = 0.4419 0.4419 0.7955 (   451 PWs)   bands (ev):

    -0.3659  10.6562  15.1808  20.4313  22.4581  22.4603

     occupation numbers 
     1.0000   0.0000   0.0000   0.0000   0.0000   0.0000

          k = 0.3536 0.5303 0.7071 (   448 PWs)   bands (ev):

    -0.2204  12.2596  13.8330  17.3969  20.8019  22.6574

     occupation numbers 
     1.0000   0.0000   0.0000   0.0000   0.0000   0.0000

          k = 0.2652 0.6187 0.6187 (   447 PWs)   bands (ev):

     0.7895  11.6505  14.0959  15.5061  16.9811  21.1714

     occupation numbers 
     1.0000   0.0000   0.0000   0.0000   0.0000   0.0000

          k = 0.1768 0.7071 0.5303 (   454 PWs)   bands (ev):

     2.6336  10.6605  11.3817  12.5637  19.2528  21.4361

     occupation numbers 
     1.0000   0.0000   0.0000   0.0000   0.0000   0.0000

          k = 0.0884 0.7955 0.4419 (   444 PWs)   bands (ev):

     5.2317   7.4163   9.8813  12.1920  20.5176  24.7569

     occupation numbers 
     1.0000   1.0003   0.0000   0.0000   0.0000   0.0000

          k = 0.0000 0.8839 0.3536 (   440 PWs)   bands (ev):

     4.3050   8.0151   9.6149  13.2934  21.7717  25.1413

     occupation numbers 
     1.0000   1.0607   0.0000   0.0000   0.0000   0.0000

          k =-0.0884 0.9723 0.2652 (   442 PWs)   bands (ev):

     1.9309   8.5093  13.0876  15.2357  21.4711  23.6331

     occupation numbers 
     1.0000   0.0843   0.0000   0.0000   0.0000   0.0000

          k =-0.1768 1.0607 0.1768 (   450 PWs)   bands (ev):

     0.3580   9.2293  17.0965  17.8025  18.8856  25.0683

     occupation numbers 
     1.0000   0.0000   0.0000   0.0000   0.0000   0.0000

          k =-0.2652-0.2652 0.2652 (   443 PWs)   bands (ev):

     0.7897   7.4915  19.4536  19.4536  21.4546  21.4546

     occupation numbers 
     1.0000   1.0011   0.0000   0.0000   0.0000   0.0000

          k =-0.3536-0.1768 0.1768 (   450 PWs)   bands (ev):

     0.3580   9.2293  17.0965  17.8025  18.8856  25.0683

     occupation numbers 
     1.0000   0.0000   0.0000   0.0000   0.0000   0.0000

          k =-0.4419-0.0884 0.0884 (   447 PWs)   bands (ev):

     0.7895  11.6505  14.0959  15.5061  16.9811  21.1714

     occupation numbers 
     1.0000   0.0000   0.0000   0.0000   0.0000   0.0000

          k =-0.5303 0.0000 0.0000 (   448 PWs)   bands (ev):

     2.0696  11.0244  14.1562  14.6595  14.6595  18.3898

     occupation numbers 
     1.0000   0.0000   0.0000   0.0000   0.0000   0.0000

          k =-0.6187 0.0884-0.0884 (   452 PWs)   bands (ev):

     4.1417   8.7510  10.6431  14.5420  15.8739  20.2359

     occupation numbers 
     1.0000   0.0030   0.0000   0.0000   0.0000   0.0000

          k =-0.7071 0.1768-0.1768 (   440 PWs)   bands (ev):

     6.4384   6.9355   8.0547  15.1509  16.8191  24.4731

     occupation numbers 
     1.0000   1.0000   1.0253   0.0000   0.0000   0.0000

          k =-0.7955 0.2652-0.2652 (   449 PWs)   bands (ev):

     4.1686   6.3547  11.0071  16.4956  18.3898  26.5552

     occupation numbers 
     1.0000   1.0000   0.0000   0.0000   0.0000   0.0000

          k =-0.8839 0.3536-0.3536 (   447 PWs)   bands (ev):

     2.0733   6.5305  15.2713  18.5913  20.5313  22.6076

     occupation numbers 
     1.0000   1.0000   0.0000   0.0000   0.0000   0.0000

          k =-0.1768-0.1768 0.3536 (   450 PWs)   bands (ev):

     0.3580   9.2293  17.0965  17.8025  18.8856  25.0683

     occupation numbers 
     1.0000   0.0000   0.0000   0.0000   0.0000   0.0000

          k =-0.2652-0.0884 0.2652 (   451 PWs)   bands (ev):

    -0.3659  10.6562  15.1808  20.4313  22.4581  22.4603

     occupation numbers 
     1.0000   0.0000   0.0000   0.0000   0.0000   0.0000

          k =-0.3536-0.0000 0.1768 (   448 PWs)   bands (ev):

    -0.2204  12.2596  13.8330  17.3969  20.8019  22.6574

     occupation numbers 
     1.0000   0.0000   0.0000   0.0000   0.0000   0.0000

          k =-0.4419 0.0884 0.0884 (   447 PWs)   bands (ev):

     0.7895  11.6505  14.0959  15.5061  16.9811  21.1714

     occupation numbers 
     1.0000   0.0000   0.0000   0.0000   0.0000   0.0000

          k =-0.5303 0.1768 0.0000 (   454 PWs)   bands (ev):

     2.6336  10.6605  11.3817  12.5637  19.2528  21.4361

     occupation numbers 
     1.0000   0.0000   0.0000   0.0000   0.0000   0.0000

          k =-0.6187 0.2652-0.0884 (   444 PWs)   bands (ev):

     5.2317   7.4163   9.8813  12.1920  20.5176  24.7569

     occupation numbers 
     1.0000   1.0003   0.0000   0.0000   0.0000   0.0000

          k =-0.7071 0.3536-0.1768 (   440 PWs)   bands (ev):

     4.3050   8.0151   9.6149  13.2934  21.7717  25.1413

     occupation numbers 
     1.0000   1.0607   0.0000   0.0000   0.0000   0.0000

          k =-0.7955 0.4419-0.2652 (   442 PWs)   bands (ev):

     1.9309   8.5093  13.0876  15.2357  21.4711  23.6331

     occupation numbers 
     1.0000   0.0843   0.0000   0.0000   0.0000   0.0000

          k =-0.0884-0.0884 0.4419 (   447 PWs)   bands (ev):

     0.7895  11.6505  14.0959  15.5061  16.9811  21.1714

     occupation numbers 
     1.0000   0.0000   0.0000   0.0000   0.0000   0.0000

          k =-0.1768-0.0000 0.3536 (   448 PWs)   bands (ev):

    -0.2204  12.2596  13.8330  17.3969  20.8019  22.6574

     occupation numbers 
     1.0000   0.0000   0.0000   0.0000   0.0000   0.0000

          k =-0.2652 0.0884 0.2652 (   451 PWs)   bands (ev):

    -0.3659  10.6562  15.1808  20.4313  22.4581  22.4603

     occupation numbers 
     1.0000   0.0000   0.0000   0.0000   0.0000   0.0000

          k =-0.3536 0.1768 0.1768 (   450 PWs)   bands (ev):

     0.3580   9.2293  17.0965  17.8025  18.8856  25.0683

     occupation numbers 
     1.0000   0.0000   0.0000   0.0000   0.0000   0.0000

          k =-0.4419 0.2652 0.0884 (   442 PWs)   bands (ev):

     1.9309   8.5093  13.0876  15.2357  21.4711  23.6331

     occupation numbers 
     1.0000   0.0843   0.0000   0.0000   0.0000   0.0000

          k =-0.5303 0.3536 0.0000 (   440 PWs)   bands (ev):

     4.3050   8.0151   9.6149  13.2934  21.7717  25.1413

     occupation numbers 
     1.0000   1.0607   0.0000   0.0000   0.0000   0.0000

          k =-0.6187 0.4419-0.0884 (   444 PWs)   bands (ev):

     5.2317   7.4163   9.8813  12.1920  20.5176  24.7569

     occupation numbers 
     1.0000   1.0003   0.0000   0.0000   0.0000   0.0000

          k =-0.7071 0.5303-0.1768 (   454 PWs)   bands (ev):

     2.6336  10.6605  11.3817  12.5637  19.2528  21.4361

     occupation numbers 
     1.0000   0.0000   0.0000   0.0000   0.0000   0.0000

          k = 0.0000 0.0000 0.5303 (   448 PWs)   bands (ev):

     2.0696  11.0244  14.1562  14.6595  14.6595  18.3898

     occupation numbers 
     1.0000   0.0000   0.0000   0.0000   0.0000   0.0000

          k =-0.0884 0.0884 0.4419 (   447 PWs)   bands (ev):

     0.7895  11.6505  14.0959  15.5061  16.9811  21.1714

     occupation numbers 
     1.0000   0.0000   0.0000   0.0000   0.0000   0.0000

          k =-0.1768 0.1768 0.3536 (   450 PWs)   bands (ev):

     0.3580   9.2293  17.0965  17.8025  18.8856  25.0683

     occupation numbers 
     1.0000   0.0000   0.0000   0.0000   0.0000   0.0000

          k =-0.2652 0.2652 0.2652 (   443 PWs)   bands (ev):

     0.7897   7.4915  19.4536  19.4536  21.4546  21.4546

     occupation numbers 
     1.0000   1.0011   0.0000   0.0000   0.0000   0.0000

          k =-0.3536 0.3536 0.1768 (   447 PWs)   bands (ev):

     2.0733   6.5305  15.2713  18.5913  20.5313  22.6076

     occupation numbers 
     1.0000   1.0000   0.0000   0.0000   0.0000   0.0000

          k =-0.4419 0.4419 0.0884 (   449 PWs)   bands (ev):

     4.1686   6.3547  11.0071  16.4956  18.3898  26.5552

     occupation numbers 
     1.0000   1.0000   0.0000   0.0000   0.0000   0.0000

          k =-0.5303 0.5303 0.0000 (   440 PWs)   bands (ev):

     6.4384   6.9355   8.0547  15.1509  16.8191  24.4731

     occupation numbers 
     1.0000   1.0000   1.0253   0.0000   0.0000   0.0000

          k =-0.6187 0.6187-0.0884 (   452 PWs)   bands (ev):

     4.1417   8.7510  10.6431  14.5420  15.8739  20.2359

     occupation numbers 
     1.0000   0.0030   0.0000   0.0000   0.0000   0.0000

          k = 0.0884 0.0884 0.6187 (   452 PWs)   bands (ev):

     4.1417   8.7510  10.6431  14.5420  15.8739  20.2359

     occupation numbers 
     1.0000   0.0030   0.0000   0.0000   0.0000   0.0000

          k =-0.0000 0.1768 0.5303 (   454 PWs)   bands (ev):

     2.6336  10.6605  11.3817  12.5637  19.2528  21.4361

     occupation numbers 
     1.0000   0.0000   0.0000   0.0000   0.0000   0.0000

          k =-0.0884 0.2652 0.4419 (   442 PWs)   bands (ev):

     1.9309   8.5093  13.0876  15.2357  21.4711  23.6331

     occupation numbers 
     1.0000   0.0843   0.0000   0.0000   0.0000   0.0000

          k =-0.1768 0.3536 0.3536 (   447 PWs)   bands (ev):

     2.0733   6.5305  15.2713  18.5913  20.5313  22.6076

     occupation numbers 
     1.0000   1.0000   0.0000   0.0000   0.0000   0.0000

          k =-0.2652 0.4419 0.2652 (   447 PWs)   bands (ev):

     3.0576   5.3043  16.1608  17.4759  19.3238  23.4826

     occupation numbers 
     1.0000   1.0000   0.0000   0.0000   0.0000   0.0000

          k =-0.3536 0.5303 0.1768 (   442 PWs)   bands (ev):

     4.7069   5.0376  13.4035  14.1003  21.9762  22.5286

     occupation numbers 
     1.0000   1.0000   0.0000   0.0000   0.0000   0.0000

          k =-0.4419 0.6187 0.0884 (   444 PWs)   bands (ev):

     5.2317   7.4163   9.8813  12.1920  20.5176  24.7569

     occupation numbers 
     1.0000   1.0003   0.0000   0.0000   0.0000   0.0000

          k =-0.5303 0.7071 0.0000 (   452 PWs)   bands (ev):

     5.9150   7.2876  10.1277  11.8817  18.7272  20.9863

     occupation numbers 
     1.0000   1.0000   0.0000   0.0000   0.0000   0.0000

          k = 0.1768 0.1768 0.7071 (   440 PWs)   bands (ev):

     6.4384   6.9355   8.0547  15.1509  16.8191  24.4731

     occupation numbers 
     1.0000   1.0000   1.0253   0.0000   0.0000   0.0000

          k = 0.0884 0.2652 0.6187 (   444 PWs)   bands (ev):

     5.2317   7.4163   9.8813  12.1920  20.5176  24.7569

     occupation numbers 
     1.0000   1.0003   0.0000   0.0000   0.0000   0.0000

          k =-0.0000 0.3536 0.5303 (   440 PWs)   bands (ev):

     4.3050   8.0151   9.6149  13.2934  21.7717  25.1413

     occupation numbers 
     1.0000   1.0607   0.0000   0.0000   0.0000   0.0000

          k =-0.0884 0.4419 0.4419 (   449 PWs)   bands (ev):

     4.1686   6.3547  11.0071  16.4956  18.3898  26.5552

     occupation numbers 
     1.0000   1.0000   0.0000   0.0000   0.0000   0.0000

          k =-0.1768 0.5303 0.3536 (   442 PWs)   bands (ev):

     4.7069   5.0376  13.4035  14.1003  21.9762  22.5286

     occupation numbers 
     1.0000   1.0000   0.0000   0.0000   0.0000   0.0000

          k =-0.2652 0.6187 0.2652 (   449 PWs)   bands (ev):

     4.1686   6.3547  11.0071  16.4956  18.3898  26.5552

     occupation numbers 
     1.0000   1.0000   0.0000   0.0000   0.0000   0.0000

          k =-0.3536 0.7071 0.1768 (   440 PWs)   bands (ev):

     4.3050   8.0151   9.6149  13.2934  21.7717  25.1413

     occupation numbers 
     1.0000   1.0607   0.0000   0.0000   0.0000   0.0000

          k =-0.4419 0.7955 0.0884 (   444 PWs)   bands (ev):

     5.2317   7.4163   9.8813  12.1920  20.5176  24.7569

     occupation numbers 
     1.0000   1.0003   0.0000   0.0000   0.0000   0.0000

          k = 0.2652 0.2652 0.7955 (   449 PWs)   bands (ev):

     4.1686   6.3547  11.0071  16.4956  18.3898  26.5552

     occupation numbers 
     1.0000   1.0000   0.0000   0.0000   0.0000   0.0000

          k = 0.1768 0.3536 0.7071 (   440 PWs)   bands (ev):

     4.3050   8.0151   9.6149  13.2934  21.7717  25.1413

     occupation numbers 
     1.0000   1.0607   0.0000   0.0000   0.0000   0.0000

          k = 0.0884 0.4419 0.6187 (   444 PWs)   bands (ev):

     5.2317   7.4163   9.8813  12.1920  20.5176  24.7569

     occupation numbers 
     1.0000   1.0003   0.0000   0.0000   0.0000   0.0000

          k = 0.0000 0.5303 0.5303 (   440 PWs)   bands (ev):

     6.4384   6.9355   8.0547  15.1509  16.8191  24.4731

     occupation numbers 
     1.0000   1.0000   1.0253   0.0000   0.0000   0.0000

          k =-0.0884 0.6187 0.4419 (   444 PWs)   bands (ev):

     5.2317   7.4163   9.8813  12.1920  20.5176  24.7569

     occupation numbers 
     1.0000   1.0003   0.0000   0.0000   0.0000   0.0000

          k =-0.1768 0.7071 0.3536 (   440 PWs)   bands (ev):

     4.3050   8.0151   9.6149  13.2934  21.7717  25.1413

     occupation numbers 
     1.0000   1.0607   0.0000   0.0000   0.0000   0.0000

          k =-0.2652 0.7955 0.2652 (   449 PWs)   bands (ev):

     4.1686   6.3547  11.0071  16.4956  18.3898  26.5552

     occupation numbers 
     1.0000   1.0000   0.0000   0.0000   0.0000   0.0000

          k =-0.3536 0.8839 0.1768 (   442 PWs)   bands (ev):

     4.7069   5.0376  13.4035  14.1003  21.9762  22.5286

     occupation numbers 
     1.0000   1.0000   0.0000   0.0000   0.0000   0.0000

          k = 0.3536 0.3536 0.8839 (   447 PWs)   bands (ev):

     2.0733   6.5305  15.2713  18.5913  20.5313  22.6076

     occupation numbers 
     1.0000   1.0000   0.0000   0.0000   0.0000   0.0000

          k = 0.2652 0.4419 0.7955 (   442 PWs)   bands (ev):

     1.9309   8.5093  13.0876  15.2357  21.4711  23.6331

     occupation numbers 
     1.0000   0.0843   0.0000   0.0000   0.0000   0.0000

          k = 0.1768 0.5303 0.7071 (   454 PWs)   bands (ev):

     2.6336  10.6605  11.3817  12.5637  19.2528  21.4361

     occupation numbers 
     1.0000   0.0000   0.0000   0.0000   0.0000   0.0000

          k = 0.0884 0.6187 0.6187 (   452 PWs)   bands (ev):

     4.1417   8.7510  10.6431  14.5420  15.8739  20.2359

     occupation numbers 
     1.0000   0.0030   0.0000   0.0000   0.0000   0.0000

          k =-0.0000 0.7071 0.5303 (   452 PWs)   bands (ev):

     5.9150   7.2876  10.1277  11.8817  18.7272  20.9863

     occupation numbers 
     1.0000   1.0000   0.0000   0.0000   0.0000   0.0000

          k =-0.0884 0.7955 0.4419 (   444 PWs)   bands (ev):

     5.2317   7.4163   9.8813  12.1920  20.5176  24.7569

     occupation numbers 
     1.0000   1.0003   0.0000   0.0000   0.0000   0.0000

          k =-0.1768 0.8839 0.3536 (   442 PWs)   bands (ev):

     4.7069   5.0376  13.4035  14.1003  21.9762  22.5286

     occupation numbers 
     1.0000   1.0000   0.0000   0.0000   0.0000   0.0000

          k =-0.2652 0.9723 0.2652 (   447 PWs)   bands (ev):

     3.0576   5.3043  16.1608  17.4759  19.3238  23.4826

     occupation numbers 
     1.0000   1.0000   0.0000   0.0000   0.0000   0.0000

          k =-0.3536-0.3536 0.3536 (   434 PWs)   bands (ev):

     3.6447   3.8944  20.0684  20.0684  20.1048  20.1048

     occupation numbers 
     1.0000   1.0000   0.0000   0.0000   0.0000   0.0000

          k =-0.4419-0.2652 0.2652 (   447 PWs)   bands (ev):

     3.0576   5.3043  16.1608  17.4759  19.3238  23.4826

     occupation numbers 
     1.0000   1.0000   0.0000   0.0000   0.0000   0.0000

          k =-0.5303-0.1768 0.1768 (   447 PWs)   bands (ev):

     3.1941   7.6009  12.1414  15.6350  17.3645  24.8868

     occupation numbers 
     1.0000   1.0059   0.0000   0.0000   0.0000   0.0000

          k =-0.6187-0.0884 0.0884 (   452 PWs)   bands (ev):

     4.1417   8.7510  10.6431  14.5420  15.8739  20.2359

     occupation numbers 
     1.0000   0.0030   0.0000   0.0000   0.0000   0.0000

          k =-0.7071 0.0000 0.0000 (   444 PWs)   bands (ev):

     5.3930   6.7305  13.5717  14.1798  14.1798  17.8755

     occupation numbers 
     1.0000   1.0000   0.0000   0.0000   0.0000   0.0000

          k =-0.7955 0.0884-0.0884 (   452 PWs)   bands (ev):

     4.1417   8.7510  10.6431  14.5420  15.8739  20.2359

     occupation numbers 
     1.0000   0.0030   0.0000   0.0000   0.0000   0.0000

          k =-0.8839 0.1768-0.1768 (   447 PWs)   bands (ev):

     3.1941   7.6009  12.1414  15.6350  17.3645  24.8868

     occupation numbers 
     1.0000   1.0059   0.0000   0.0000   0.0000   0.0000

          k =-0.9723 0.2652-0.2652 (   447 PWs)   bands (ev):

     3.0576   5.3043  16.1608  17.4759  19.3238  23.4826

     occupation numbers 
     1.0000   1.0000   0.0000   0.0000   0.0000   0.0000

          k =-0.2652-0.2652 0.4419 (   447 PWs)   bands (ev):

     3.0576   5.3043  16.1608  17.4759  19.3238  23.4826

     occupation numbers 
     1.0000   1.0000   0.0000   0.0000   0.0000   0.0000

          k =-0.3536-0.1768 0.3536 (   447 PWs)   bands (ev):

     2.0733   6.5305  15.2713  18.5913  20.5313  22.6076

     occupation numbers 
     1.0000   1.0000   0.0000   0.0000   0.0000   0.0000

          k =-0.4419-0.0884 0.2652 (   442 PWs)   bands (ev):

     1.9309   8.5093  13.0876  15.2357  21.4711  23.6331

     occupation numbers 
     1.0000   0.0843   0.0000   0.0000   0.0000   0.0000

          k =-0.5303 0.0000 0.1768 (   454 PWs)   bands (ev):

     2.6336  10.6605  11.3817  12.5637  19.2528  21.4361

     occupation numbers 
     1.0000   0.0000   0.0000   0.0000   0.0000   0.0000

          k =-0.6187 0.0884 0.0884 (   452 PWs)   bands (ev):

     4.1417   8.7510  10.6431  14.5420  15.8739  20.2359

     occupation numbers 
     1.0000   0.0030   0.0000   0.0000   0.0000   0.0000

          k =-0.7071 0.1768 0.0000 (   452 PWs)   bands (ev):

     5.9150   7.2876  10.1277  11.8817  18.7272  20.9863

     occupation numbers 
     1.0000   1.0000   0.0000   0.0000   0.0000   0.0000

          k =-0.7955 0.2652-0.0884 (   444 PWs)   bands (ev):

     5.2317   7.4163   9.8813  12.1920  20.5176  24.7569

     occupation numbers 
     1.0000   1.0003   0.0000   0.0000   0.0000   0.0000

          k =-0.8839 0.3536-0.1768 (   442 PWs)   bands (ev):

     4.7069   5.0376  13.4035  14.1003  21.9762  22.5286

     occupation numbers 
     1.0000   1.0000   0.0000   0.0000   0.0000   0.0000

          k =-0.1768-0.1768 0.5303 (   447 PWs)   bands (ev):

     3.1941   7.6009  12.1414  15.6350  17.3645  24.8868

     occupation numbers 
     1.0000   1.0059   0.0000   0.0000   0.0000   0.0000

          k =-0.2652-0.0884 0.4419 (   442 PWs)   bands (ev):

     1.9309   8.5093  13.0876  15.2357  21.4711  23.6331

     occupation numbers 
     1.0000   0.0843   0.0000   0.0000   0.0000   0.0000

          k =-0.3536 0.0000 0.3536 (   443 PWs)   bands (ev):

     1.5049   9.6015  11.2781  18.0965  20.1479  25.9411

     occupation numbers 
     1.0000   0.0000   0.0000   0.0000   0.0000   0.0000

          k =-0.4419 0.0884 0.2652 (   442 PWs)   bands (ev):

     1.9309   8.5093  13.0876  15.2357  21.4711  23.6331

     occupation numbers 
     1.0000   0.0843   0.0000   0.0000   0.0000   0.0000

          k =-0.5303 0.1768 0.1768 (   447 PWs)   bands (ev):

     3.1941   7.6009  12.1414  15.6350  17.3645  24.8868

     occupation numbers 
     1.0000   1.0059   0.0000   0.0000   0.0000   0.0000

          k =-0.6187 0.2652 0.0884 (   444 PWs)   bands (ev):

     5.2317   7.4163   9.8813  12.1920  20.5176  24.7569

     occupation numbers 
     1.0000   1.0003   0.0000   0.0000   0.0000   0.0000

          k =-0.7071 0.3536 0.0000 (   444 PWs)   bands (ev):

     7.4880   7.4880   8.4463   9.7744  24.6391  24.6391

     occupation numbers 
     1.0010   1.0010   0.1579   0.0000   0.0000   0.0000

          k =-0.7955 0.4419-0.0884 (   444 PWs)   bands (ev):

     5.2317   7.4163   9.8813  12.1920  20.5176  24.7569

     occupation numbers 
     1.0000   1.0003   0.0000   0.0000   0.0000   0.0000

          k =-0.0884-0.0884 0.6187 (   452 PWs)   bands (ev):

     4.1417   8.7510  10.6431  14.5420  15.8739  20.2359

     occupation numbers 
     1.0000   0.0030   0.0000   0.0000   0.0000   0.0000

          k =-0.1768 0.0000 0.5303 (   454 PWs)   bands (ev):

     2.6336  10.6605  11.3817  12.5637  19.2528  21.4361

     occupation numbers 
     1.0000   0.0000   0.0000   0.0000   0.0000   0.0000

          k =-0.2652 0.0884 0.4419 (   442 PWs)   bands (ev):

     1.9309   8.5093  13.0876  15.2357  21.4711  23.6331

     occupation numbers 
     1.0000   0.0843   0.0000   0.0000   0.0000   0.0000

          k =-0.3536 0.1768 0.3536 (   447 PWs)   bands (ev):

     2.0733   6.5305  15.2713  18.5913  20.5313  22.6076

     occupation numbers 
     1.0000   1.0000   0.0000   0.0000   0.0000   0.0000

          k =-0.4419 0.2652 0.2652 (   447 PWs)   bands (ev):

     3.0576   5.3043  16.1608  17.4759  19.3238  23.4826

     occupation numbers 
     1.0000   1.0000   0.0000   0.0000   0.0000   0.0000

          k =-0.5303 0.3536 0.1768 (   442 PWs)   bands (ev):

     4.7069   5.0376  13.4035  14.1003  21.9762  22.5286

     occupation numbers 
     1.0000   1.0000   0.0000   0.0000   0.0000   0.0000

          k =-0.6187 0.4419 0.0884 (   444 PWs)   bands (ev):

     5.2317   7.4163   9.8813  12.1920  20.5176  24.7569

     occupation numbers 
     1.0000   1.0003   0.0000   0.0000   0.0000   0.0000

          k =-0.7071 0.5303 0.0000 (   452 PWs)   bands (ev):

     5.9150   7.2876  10.1277  11.8817  18.7272  20.9863

     occupation numbers 
     1.0000   1.0000   0.0000   0.0000   0.0000   0.0000

          k = 0.0000 0.0000 0.7071 (   444 PWs)   bands (ev):

     5.3930   6.7305  13.5717  14.1798  14.1798  17.8755

     occupation numbers 
     1.0000   1.0000   0.0000   0.0000   0.0000   0.0000

          k =-0.0884 0.0884 0.6187 (   452 PWs)   bands (ev):

     4.1417   8.7510  10.6431  14.5420  15.8739  20.2359

     occupation numbers 
     1.0000   0.0030   0.0000   0.0000   0.0000   0.0000

          k =-0.1768 0.1768 0.5303 (   447 PWs)   bands (ev):

     3.1941   7.6009  12.1414  15.6350  17.3645  24.8868

     occupation numbers 
     1.0000   1.0059   0.0000   0.0000   0.0000   0.0000

          k =-0.2652 0.2652 0.4419 (   447 PWs)   bands (ev):

     3.0576   5.3043  16.1608  17.4759  19.3238  23.4826

     occupation numbers 
     1.0000   1.0000   0.0000   0.0000   0.0000   0.0000

          k =-0.3536 0.3536 0.3536 (   434 PWs)   bands (ev):

     3.6447   3.8944  20.0684  20.0684  20.1048  20.1048

     occupation numbers 
     1.0000   1.0000   0.0000   0.0000   0.0000   0.0000

          k =-0.4419 0.4419 0.2652 (   447 PWs)   bands (ev):

     3.0576   5.3043  16.1608  17.4759  19.3238  23.4826

     occupation numbers 
     1.0000   1.0000   0.0000   0.0000   0.0000   0.0000

          k =-0.5303 0.5303 0.1768 (   447 PWs)   bands (ev):

     3.1941   7.6009  12.1414  15.6350  17.3645  24.8868

     occupation numbers 
     1.0000   1.0059   0.0000   0.0000   0.0000   0.0000

          k =-0.6187 0.6187 0.0884 (   452 PWs)   bands (ev):

     4.1417   8.7510  10.6431  14.5420  15.8739  20.2359

     occupation numbers 
     1.0000   0.0030   0.0000   0.0000   0.0000   0.0000

          k = 0.0884 0.0884 0.7955 (   452 PWs)   bands (ev):

     4.1417   8.7510  10.6431  14.5420  15.8739  20.2359

     occupation numbers 
     1.0000   0.0030   0.0000   0.0000   0.0000   0.0000

          k =-0.0000 0.1768 0.7071 (   452 PWs)   bands (ev):

     5.9150   7.2876  10.1277  11.8817  18.7272  20.9863

     occupation numbers 
     1.0000   1.0000   0.0000   0.0000   0.0000   0.0000

          k =-0.0884 0.2652 0.6187 (   444 PWs)   bands (ev):

     5.2317   7.4163   9.8813  12.1920  20.5176  24.7569

     occupation numbers 
     1.0000   1.0003   0.0000   0.0000   0.0000   0.0000

          k =-0.1768 0.3536 0.5303 (   442 PWs)   bands (ev):

     4.7069   5.0376  13.4035  14.1003  21.9762  22.5286

     occupation numbers 
     1.0000   1.0000   0.0000   0.0000   0.0000   0.0000

          k =-0.2652 0.4419 0.4419 (   447 PWs)   bands (ev):

     3.0576   5.3043  16.1608  17.4759  19.3238  23.4826

     occupation numbers 
     1.0000   1.0000   0.0000   0.0000   0.0000   0.0000

          k =-0.3536 0.5303 0.3536 (   447 PWs)   bands (ev):

     2.0733   6.5305  15.2713  18.5913  20.5313  22.6076

     occupation numbers 
     1.0000   1.0000   0.0000   0.0000   0.0000   0.0000

          k =-0.4419 0.6187 0.2652 (   442 PWs)   bands (ev):

     1.9309   8.5093  13.0876  15.2357  21.4711  23.6331

     occupation numbers 
     1.0000   0.0843   0.0000   0.0000   0.0000   0.0000

          k =-0.5303 0.7071 0.1768 (   454 PWs)   bands (ev):

     2.6336  10.6605  11.3817  12.5637  19.2528  21.4361

     occupation numbers 
     1.0000   0.0000   0.0000   0.0000   0.0000   0.0000

          k = 0.1768 0.1768 0.8839 (   447 PWs)   bands (ev):

     3.1941   7.6009  12.1414  15.6350  17.3645  24.8868

     occupation numbers 
     1.0000   1.0059   0.0000   0.0000   0.0000   0.0000

          k = 0.0884 0.2652 0.7955 (   444 PWs)   bands (ev):

     5.2317   7.4163   9.8813  12.1920  20.5176  24.7569

     occupation numbers 
     1.0000   1.0003   0.0000   0.0000   0.0000   0.0000

          k = 0.0000 0.3536 0.7071 (   444 PWs)   bands (ev):

     7.4880   7.4880   8.4463   9.7744  24.6391  24.6391

     occupation numbers 
     1.0010   1.0010   0.1579   0.0000   0.0000   0.0000

          k =-0.0884 0.4419 0.6187 (   444 PWs)   bands (ev):

     5.2317   7.4163   9.8813  12.1920  20.5176  24.7569

     occupation numbers 
     1.0000   1.0003   0.0000   0.0000   0.0000   0.0000

          k =-0.1768 0.5303 0.5303 (   447 PWs)   bands (ev):

     3.1941   7.6009  12.1414  15.6350  17.3645  24.8868

     occupation numbers 
     1.0000   1.0059   0.0000   0.0000   0.0000   0.0000

          k =-0.2652 0.6187 0.4419 (   442 PWs)   bands (ev):

     1.9309   8.5093  13.0876  15.2357  21.4711  23.6331

     occupation numbers 
     1.0000   0.0843   0.0000   0.0000   0.0000   0.0000

          k =-0.3536 0.7071 0.3536 (   443 PWs)   bands (ev):

     1.5049   9.6015  11.2781  18.0965  20.1479  25.9411

     occupation numbers 
     1.0000   0.0000   0.0000   0.0000   0.0000   0.0000

          k =-0.4419 0.7955 0.2652 (   442 PWs)   bands (ev):

     1.9309   8.5093  13.0876  15.2357  21.4711  23.6331

     occupation numbers 
     1.0000   0.0843   0.0000   0.0000   0.0000   0.0000

          k = 0.2652 0.2652 0.9723 (   447 PWs)   bands (ev):

     3.0576   5.3043  16.1608  17.4759  19.3238  23.4826

     occupation numbers 
     1.0000   1.0000   0.0000   0.0000   0.0000   0.0000

          k = 0.1768 0.3536 0.8839 (   442 PWs)   bands (ev):

     4.7069   5.0376  13.4035  14.1003  21.9762  22.5286

     occupation numbers 
     1.0000   1.0000   0.0000   0.0000   0.0000   0.0000

          k = 0.0884 0.4419 0.7955 (   444 PWs)   bands (ev):

     5.2317   7.4163   9.8813  12.1920  20.5176  24.7569

     occupation numbers 
     1.0000   1.0003   0.0000   0.0000   0.0000   0.0000

          k =-0.0000 0.5303 0.7071 (   452 PWs)   bands (ev):

     5.9150   7.2876  10.1277  11.8817  18.7272  20.9863

     occupation numbers 
     1.0000   1.0000   0.0000   0.0000   0.0000   0.0000

          k =-0.0884 0.6187 0.6187 (   452 PWs)   bands (ev):

     4.1417   8.7510  10.6431  14.5420  15.8739  20.2359

     occupation numbers 
     1.0000   0.0030   0.0000   0.0000   0.0000   0.0000

          k =-0.1768 0.7071 0.5303 (   454 PWs)   bands (ev):

     2.6336  10.6605  11.3817  12.5637  19.2528  21.4361

     occupation numbers 
     1.0000   0.0000   0.0000   0.0000   0.0000   0.0000

          k =-0.2652 0.7955 0.4419 (   442 PWs)   bands (ev):

     1.9309   8.5093  13.0876  15.2357  21.4711  23.6331

     occupation numbers 
     1.0000   0.0843   0.0000   0.0000   0.0000   0.0000

          k =-0.3536 0.8839 0.3536 (   447 PWs)   bands (ev):

     2.0733   6.5305  15.2713  18.5913  20.5313  22.6076

     occupation numbers 
     1.0000   1.0000   0.0000   0.0000   0.0000   0.0000

          k =-0.4419-0.4419 0.4419 (   443 PWs)   bands (ev):

     0.7897   7.4915  19.4536  19.4536  21.4546  21.4546

     occupation numbers 
     1.0000   1.0011   0.0000   0.0000   0.0000   0.0000

          k =-0.5303-0.3536 0.3536 (   447 PWs)   bands (ev):

     2.0733   6.5305  15.2713  18.5913  20.5313  22.6076

     occupation numbers 
     1.0000   1.0000   0.0000   0.0000   0.0000   0.0000

          k =-0.6187-0.2652 0.2652 (   449 PWs)   bands (ev):

     4.1686   6.3547  11.0071  16.4956  18.3898  26.5552

     occupation numbers 
     1.0000   1.0000   0.0000   0.0000   0.0000   0.0000

          k =-0.7071-0.1768 0.1768 (   440 PWs)   bands (ev):

     6.4384   6.9355   8.0547  15.1509  16.8191  24.4731

     occupation numbers 
     1.0000   1.0000   1.0253   0.0000   0.0000   0.0000

          k =-0.7955-0.0884 0.0884 (   452 PWs)   bands (ev):

     4.1417   8.7510  10.6431  14.5420  15.8739  20.2359

     occupation numbers 
     1.0000   0.0030   0.0000   0.0000   0.0000   0.0000

          k =-0.8839 0.0000 0.0000 (   448 PWs)   bands (ev):

     2.0696  11.0244  14.1562  14.6595  14.6595  18.3898

     occupation numbers 
     1.0000   0.0000   0.0000   0.0000   0.0000   0.0000

          k =-0.9723 0.0884-0.0884 (   447 PWs)   bands (ev):

     0.7895  11.6505  14.0959  15.5061  16.9811  21.1714

     occupation numbers 
     1.0000   0.0000   0.0000   0.0000   0.0000   0.0000

          k =-1.0607 0.1768-0.1768 (   450 PWs)   bands (ev):

     0.3580   9.2293  17.0965  17.8025  18.8856  25.0683

     occupation numbers 
     1.0000   0.0000   0.0000   0.0000   0.0000   0.0000

          k =-0.3536-0.3536 0.5303 (   447 PWs)   bands (ev):

     2.0733   6.5305  15.2713  18.5913  20.5313  22.6076

     occupation numbers 
     1.0000   1.0000   0.0000   0.0000   0.0000   0.0000

          k =-0.4419-0.2652 0.4419 (   447 PWs)   bands (ev):

     3.0576   5.3043  16.1608  17.4759  19.3238  23.4826

     occupation numbers 
     1.0000   1.0000   0.0000   0.0000   0.0000   0.0000

          k =-0.5303-0.1768 0.3536 (   442 PWs)   bands (ev):

     4.7069   5.0376  13.4035  14.1003  21.9762  22.5286

     occupation numbers 
     1.0000   1.0000   0.0000   0.0000   0.0000   0.0000

          k =-0.6187-0.0884 0.2652 (   444 PWs)   bands (ev):

     5.2317   7.4163   9.8813  12.1920  20.5176  24.7569

     occupation numbers 
     1.0000   1.0003   0.0000   0.0000   0.0000   0.0000

          k =-0.7071 0.0000 0.1768 (   452 PWs)   bands (ev):

     5.9150   7.2876  10.1277  11.8817  18.7272  20.9863

     occupation numbers 
     1.0000   1.0000   0.0000   0.0000   0.0000   0.0000

          k =-0.7955 0.0884 0.0884 (   452 PWs)   bands (ev):

     4.1417   8.7510  10.6431  14.5420  15.8739  20.2359

     occupation numbers 
     1.0000   0.0030   0.0000   0.0000   0.0000   0.0000

          k =-0.8839 0.1768 0.0000 (   454 PWs)   bands (ev):

     2.6336  10.6605  11.3817  12.5637  19.2528  21.4361

     occupation numbers 
     1.0000   0.0000   0.0000   0.0000   0.0000   0.0000

          k =-0.9723 0.2652-0.0884 (   442 PWs)   bands (ev):

     1.9309   8.5093  13.0876  15.2357  21.4711  23.6331

     occupation numbers 
     1.0000   0.0843   0.0000   0.0000   0.0000   0.0000

          k =-0.2652-0.2652 0.6187 (   449 PWs)   bands (ev):

     4.1686   6.3547  11.0071  16.4956  18.3898  26.5552

     occupation numbers 
     1.0000   1.0000   0.0000   0.0000   0.0000   0.0000

          k =-0.3536-0.1768 0.5303 (   442 PWs)   bands (ev):

     4.7069   5.0376  13.4035  14.1003  21.9762  22.5286

     occupation numbers 
     1.0000   1.0000   0.0000   0.0000   0.0000   0.0000

          k =-0.4419-0.0884 0.4419 (   449 PWs)   bands (ev):

     4.1686   6.3547  11.0071  16.4956  18.3898  26.5552

     occupation numbers 
     1.0000   1.0000   0.0000   0.0000   0.0000   0.0000

          k =-0.5303 0.0000 0.3536 (   440 PWs)   bands (ev):

     4.3050   8.0151   9.6149  13.2934  21.7717  25.1413

     occupation numbers 
     1.0000   1.0607   0.0000   0.0000   0.0000   0.0000

          k =-0.6187 0.0884 0.2652 (   444 PWs)   bands (ev):

     5.2317   7.4163   9.8813  12.1920  20.5176  24.7569

     occupation numbers 
     1.0000   1.0003   0.0000   0.0000   0.0000   0.0000

          k =-0.7071 0.1768 0.1768 (   440 PWs)   bands (ev):

     6.4384   6.9355   8.0547  15.1509  16.8191  24.4731

     occupation numbers 
     1.0000   1.0000   1.0253   0.0000   0.0000   0.0000

          k =-0.7955 0.2652 0.0884 (   444 PWs)   bands (ev):

     5.2317   7.4163   9.8813  12.1920  20.5176  24.7569

     occupation numbers 
     1.0000   1.0003   0.0000   0.0000   0.0000   0.0000

          k =-0.8839 0.3536 0.0000 (   440 PWs)   bands (ev):

     4.3050   8.0151   9.6149  13.2934  21.7717  25.1413

     occupation numbers 
     1.0000   1.0607   0.0000   0.0000   0.0000   0.0000

          k =-0.1768-0.1768 0.7071 (   440 PWs)   bands (ev):

     6.4384   6.9355   8.0547  15.1509  16.8191  24.4731

     occupation numbers 
     1.0000   1.0000   1.0253   0.0000   0.0000   0.0000

          k =-0.2652-0.0884 0.6187 (   444 PWs)   bands (ev):

     5.2317   7.4163   9.8813  12.1920  20.5176  24.7569

     occupation numbers 
     1.0000   1.0003   0.0000   0.0000   0.0000   0.0000

          k =-0.3536 0.0000 0.5303 (   440 PWs)   bands (ev):

     4.3050   8.0151   9.6149  13.2934  21.7717  25.1413

     occupation numbers 
     1.0000   1.0607   0.0000   0.0000   0.0000   0.0000

          k =-0.4419 0.0884 0.4419 (   449 PWs)   bands (ev):

     4.1686   6.3547  11.0071  16.4956  18.3898  26.5552

     occupation numbers 
     1.0000   1.0000   0.0000   0.0000   0.0000   0.0000

          k =-0.5303 0.1768 0.3536 (   442 PWs)   bands (ev):

     4.7069   5.0376  13.4035  14.1003  21.9762  22.5286

     occupation numbers 
     1.0000   1.0000   0.0000   0.0000   0.0000   0.0000

          k =-0.6187 0.2652 0.2652 (   449 PWs)   bands (ev):

     4.1686   6.3547  11.0071  16.4956  18.3898  26.5552

     occupation numbers 
     1.0000   1.0000   0.0000   0.0000   0.0000   0.0000

          k =-0.7071 0.3536 0.1768 (   440 PWs)   bands (ev):

     4.3050   8.0151   9.6149  13.2934  21.7717  25.1413

     occupation numbers 
     1.0000   1.0607   0.0000   0.0000   0.0000   0.0000

          k =-0.7955 0.4419 0.0884 (   444 PWs)   bands (ev):

     5.2317   7.4163   9.8813  12.1920  20.5176  24.7569

     occupation numbers 
     1.0000   1.0003   0.0000   0.0000   0.0000   0.0000

          k =-0.0884-0.0884 0.7955 (   452 PWs)   bands (ev):

     4.1417   8.7510  10.6431  14.5420  15.8739  20.2359

     occupation numbers 
     1.0000   0.0030   0.0000   0.0000   0.0000   0.0000

          k =-0.1768 0.0000 0.7071 (   452 PWs)   bands (ev):

     5.9150   7.2876  10.1277  11.8817  18.7272  20.9863

     occupation numbers 
     1.0000   1.0000   0.0000   0.0000   0.0000   0.0000

          k =-0.2652 0.0884 0.6187 (   444 PWs)   bands (ev):

     5.2317   7.4163   9.8813  12.1920  20.5176  24.7569

     occupation numbers 
     1.0000   1.0003   0.0000   0.0000   0.0000   0.0000

          k =-0.3536 0.1768 0.5303 (   442 PWs)   bands (ev):

     4.7069   5.0376  13.4035  14.1003  21.9762  22.5286

     occupation numbers 
     1.0000   1.0000   0.0000   0.0000   0.0000   0.0000

          k =-0.4419 0.2652 0.4419 (   447 PWs)   bands (ev):

     3.0576   5.3043  16.1608  17.4759  19.3238  23.4826

     occupation numbers 
     1.0000   1.0000   0.0000   0.0000   0.0000   0.0000

          k =-0.5303 0.3536 0.3536 (   447 PWs)   bands (ev):

     2.0733   6.5305  15.2713  18.5913  20.5313  22.6076

     occupation numbers 
     1.0000   1.0000   0.0000   0.0000   0.0000   0.0000

          k =-0.6187 0.4419 0.2652 (   442 PWs)   bands (ev):

     1.9309   8.5093  13.0876  15.2357  21.4711  23.6331

     occupation numbers 
     1.0000   0.0843   0.0000   0.0000   0.0000   0.0000

          k =-0.7071 0.5303 0.1768 (   454 PWs)   bands (ev):

     2.6336  10.6605  11.3817  12.5637  19.2528  21.4361

     occupation numbers 
     1.0000   0.0000   0.0000   0.0000   0.0000   0.0000

          k = 0.0000 0.0000 0.8839 (   448 PWs)   bands (ev):

     2.0696  11.0244  14.1562  14.6595  14.6595  18.3898

     occupation numbers 
     1.0000   0.0000   0.0000   0.0000   0.0000   0.0000

          k =-0.0884 0.0884 0.7955 (   452 PWs)   bands (ev):

     4.1417   8.7510  10.6431  14.5420  15.8739  20.2359

     occupation numbers 
     1.0000   0.0030   0.0000   0.0000   0.0000   0.0000

          k =-0.1768 0.1768 0.7071 (   440 PWs)   bands (ev):

     6.4384   6.9355   8.0547  15.1509  16.8191  24.4731

     occupation numbers 
     1.0000   1.0000   1.0253   0.0000   0.0000   0.0000

          k =-0.2652 0.2652 0.6187 (   449 PWs)   bands (ev):

     4.1686   6.3547  11.0071  16.4956  18.3898  26.5552

     occupation numbers 
     1.0000   1.0000   0.0000   0.0000   0.0000   0.0000

          k =-0.3536 0.3536 0.5303 (   447 PWs)   bands (ev):

     2.0733   6.5305  15.2713  18.5913  20.5313  22.6076

     occupation numbers 
     1.0000   1.0000   0.0000   0.0000   0.0000   0.0000

          k =-0.4419 0.4419 0.4419 (   443 PWs)   bands (ev):

     0.7897   7.4915  19.4536  19.4536  21.4546  21.4546

     occupation numbers 
     1.0000   1.0011   0.0000   0.0000   0.0000   0.0000

          k =-0.5303 0.5303 0.3536 (   450 PWs)   bands (ev):

     0.3580   9.2293  17.0965  17.8025  18.8856  25.0683

     occupation numbers 
     1.0000   0.0000   0.0000   0.0000   0.0000   0.0000

          k =-0.6187 0.6187 0.2652 (   447 PWs)   bands (ev):

     0.7895  11.6505  14.0959  15.5061  16.9811  21.1714

     occupation numbers 
     1.0000   0.0000   0.0000   0.0000   0.0000   0.0000

          k = 0.0884 0.0884 0.9723 (   447 PWs)   bands (ev):

     0.7895  11.6505  14.0959  15.5061  16.9811  21.1714

     occupation numbers 
     1.0000   0.0000   0.0000   0.0000   0.0000   0.0000

          k = 0.0000 0.1768 0.8839 (   454 PWs)   bands (ev):

     2.6336  10.6605  11.3817  12.5637  19.2528  21.4361

     occupation numbers 
     1.0000   0.0000   0.0000   0.0000   0.0000   0.0000

          k =-0.0884 0.2652 0.7955 (   444 PWs)   bands (ev):

     5.2317   7.4163   9.8813  12.1920  20.5176  24.7569

     occupation numbers 
     1.0000   1.0003   0.0000   0.0000   0.0000   0.0000

          k =-0.1768 0.3536 0.7071 (   440 PWs)   bands (ev):

     4.3050   8.0151   9.6149  13.2934  21.7717  25.1413

     occupation numbers 
     1.0000   1.0607   0.0000   0.0000   0.0000   0.0000

          k =-0.2652 0.4419 0.6187 (   442 PWs)   bands (ev):

     1.9309   8.5093  13.0876  15.2357  21.4711  23.6331

     occupation numbers 
     1.0000   0.0843   0.0000   0.0000   0.0000   0.0000

          k =-0.3536 0.5303 0.5303 (   450 PWs)   bands (ev):

     0.3580   9.2293  17.0965  17.8025  18.8856  25.0683

     occupation numbers 
     1.0000   0.0000   0.0000   0.0000   0.0000   0.0000

          k =-0.4419 0.6187 0.4419 (   451 PWs)   bands (ev):

    -0.3659  10.6562  15.1808  20.4313  22.4581  22.4603

     occupation numbers 
     1.0000   0.0000   0.0000   0.0000   0.0000   0.0000

          k =-0.5303 0.7071 0.3536 (   448 PWs)   bands (ev):

    -0.2204  12.2596  13.8330  17.3969  20.8019  22.6574

     occupation numbers 
     1.0000   0.0000   0.0000   0.0000   0.0000   0.0000

          k = 0.1768 0.1768 1.0607 (   450 PWs)   bands (ev):

     0.3580   9.2293  17.0965  17.8025  18.8856  25.0683

     occupation numbers 
     1.0000   0.0000   0.0000   0.0000   0.0000   0.0000

          k = 0.0884 0.2652 0.9723 (   442 PWs)   bands (ev):

     1.9309   8.5093  13.0876  15.2357  21.4711  23.6331

     occupation numbers 
     1.0000   0.0843   0.0000   0.0000   0.0000   0.0000

          k =-0.0000 0.3536 0.8839 (   440 PWs)   bands (ev):

     4.3050   8.0151   9.6149  13.2934  21.7717  25.1413

     occupation numbers 
     1.0000   1.0607   0.0000   0.0000   0.0000   0.0000

          k =-0.0884 0.4419 0.7955 (   444 PWs)   bands (ev):

     5.2317   7.4163   9.8813  12.1920  20.5176  24.7569

     occupation numbers 
     1.0000   1.0003   0.0000   0.0000   0.0000   0.0000

          k =-0.1768 0.5303 0.7071 (   454 PWs)   bands (ev):

     2.6336  10.6605  11.3817  12.5637  19.2528  21.4361

     occupation numbers 
     1.0000   0.0000   0.0000   0.0000   0.0000   0.0000

          k =-0.2652 0.6187 0.6187 (   447 PWs)   bands (ev):

     0.7895  11.6505  14.0959  15.5061  16.9811  21.1714

     occupation numbers 
     1.0000   0.0000   0.0000   0.0000   0.0000   0.0000

          k =-0.3536 0.7071 0.5303 (   448 PWs)   bands (ev):

    -0.2204  12.2596  13.8330  17.3969  20.8019  22.6574

     occupation numbers 
     1.0000   0.0000   0.0000   0.0000   0.0000   0.0000

          k =-0.4419 0.7955 0.4419 (   451 PWs)   bands (ev):

    -0.3659  10.6562  15.1808  20.4313  22.4581  22.4603

     occupation numbers 
     1.0000   0.0000   0.0000   0.0000   0.0000   0.0000

          k =-0.5303-0.5303 0.5303 (   450 PWs)   bands (ev):

    -1.3883  11.8921  19.5451  19.5451  23.1352  23.5152

     occupation numbers 
     1.0000   0.0000   0.0000   0.0000   0.0000   0.0000

          k =-0.6187-0.4419 0.4419 (   451 PWs)   bands (ev):

    -0.3659  10.6562  15.1808  20.4313  22.4581  22.4603

     occupation numbers 
     1.0000   0.0000   0.0000   0.0000   0.0000   0.0000

          k =-0.7071-0.3536 0.3536 (   443 PWs)   bands (ev):

     1.5049   9.6015  11.2781  18.0965  20.1479  25.9411

     occupation numbers 
     1.0000   0.0000   0.0000   0.0000   0.0000   0.0000

          k =-0.7955-0.2652 0.2652 (   449 PWs)   bands (ev):

     4.1686   6.3547  11.0071  16.4956  18.3898  26.5552

     occupation numbers 
     1.0000   1.0000   0.0000   0.0000   0.0000   0.0000

          k =-0.8839-0.1768 0.1768 (   447 PWs)   bands (ev):

     3.1941   7.6009  12.1414  15.6350  17.3645  24.8868

     occupation numbers 
     1.0000   1.0059   0.0000   0.0000   0.0000   0.0000

          k =-0.9723-0.0884 0.0884 (   447 PWs)   bands (ev):

     0.7895  11.6505  14.0959  15.5061  16.9811  21.1714

     occupation numbers 
     1.0000   0.0000   0.0000   0.0000   0.0000   0.0000

          k =-1.0607 0.0000 0.0000 (   456 PWs)   bands (ev):

    -0.8023  15.8969  16.1068  16.1068  16.8211  19.8078

     occupation numbers 
     1.0000   0.0000   0.0000   0.0000   0.0000   0.0000

          k =-1.1490 0.0884-0.0884 (   451 PWs)   bands (ev):

    -1.5351  13.7840  17.4471  18.9870  20.2810  22.8783

     occupation numbers 
     1.0000   0.0000   0.0000   0.0000   0.0000   0.0000

          k =-0.4419-0.4419 0.6187 (   451 PWs)   bands (ev):

    -0.3659  10.6562  15.1808  20.4313  22.4581  22.4603

     occupation numbers 
     1.0000   0.0000   0.0000   0.0000   0.0000   0.0000

          k =-0.5303-0.3536 0.5303 (   450 PWs)   bands (ev):

     0.3580   9.2293  17.0965  17.8025  18.8856  25.0683

     occupation numbers 
     1.0000   0.0000   0.0000   0.0000   0.0000   0.0000

          k =-0.6187-0.2652 0.4419 (   442 PWs)   bands (ev):

     1.9309   8.5093  13.0876  15.2357  21.4711  23.6331

     occupation numbers 
     1.0000   0.0843   0.0000   0.0000   0.0000   0.0000

          k =-0.7071-0.1768 0.3536 (   440 PWs)   bands (ev):

     4.3050   8.0151   9.6149  13.2934  21.7717  25.1413

     occupation numbers 
     1.0000   1.0607   0.0000   0.0000   0.0000   0.0000

          k =-0.7955-0.0884 0.2652 (   444 PWs)   bands (ev):

     5.2317   7.4163   9.8813  12.1920  20.5176  24.7569

     occupation numbers 
     1.0000   1.0003   0.0000   0.0000   0.0000   0.0000

          k =-0.8839-0.0000 0.1768 (   454 PWs)   bands (ev):

     2.6336  10.6605  11.3817  12.5637  19.2528  21.4361

     occupation numbers 
     1.0000   0.0000   0.0000   0.0000   0.0000   0.0000

          k =-0.9723 0.0884 0.0884 (   447 PWs)   bands (ev):

     0.7895  11.6505  14.0959  15.5061  16.9811  21.1714

     occupation numbers 
     1.0000   0.0000   0.0000   0.0000   0.0000   0.0000

          k =-1.0607 0.1768 0.0000 (   448 PWs)   bands (ev):

    -0.2204  12.2596  13.8330  17.3969  20.8019  22.6574

     occupation numbers 
     1.0000   0.0000   0.0000   0.0000   0.0000   0.0000

          k =-0.3536-0.3536 0.7071 (   443 PWs)   bands (ev):

     1.5049   9.6015  11.2781  18.0965  20.1479  25.9411

     occupation numbers 
     1.0000   0.0000   0.0000   0.0000   0.0000   0.0000

          k =-0.4419-0.2652 0.6187 (   442 PWs)   bands (ev):

     1.9309   8.5093  13.0876  15.2357  21.4711  23.6331

     occupation numbers 
     1.0000   0.0843   0.0000   0.0000   0.0000   0.0000

          k =-0.5303-0.1768 0.5303 (   447 PWs)   bands (ev):

     3.1941   7.6009  12.1414  15.6350  17.3645  24.8868

     occupation numbers 
     1.0000   1.0059   0.0000   0.0000   0.0000   0.0000

          k =-0.6187-0.0884 0.4419 (   444 PWs)   bands (ev):

     5.2317   7.4163   9.8813  12.1920  20.5176  24.7569

     occupation numbers 
     1.0000   1.0003   0.0000   0.0000   0.0000   0.0000

          k =-0.7071-0.0000 0.3536 (   444 PWs)   bands (ev):

     7.4880   7.4880   8.4463   9.7744  24.6391  24.6391

     occupation numbers 
     1.0010   1.0010   0.1579   0.0000   0.0000   0.0000

          k =-0.7955 0.0884 0.2652 (   444 PWs)   bands (ev):

     5.2317   7.4163   9.8813  12.1920  20.5176  24.7569

     occupation numbers 
     1.0000   1.0003   0.0000   0.0000   0.0000   0.0000

          k =-0.8839 0.1768 0.1768 (   447 PWs)   bands (ev):

     3.1941   7.6009  12.1414  15.6350  17.3645  24.8868

     occupation numbers 
     1.0000   1.0059   0.0000   0.0000   0.0000   0.0000

          k =-0.9723 0.2652 0.0884 (   442 PWs)   bands (ev):

     1.9309   8.5093  13.0876  15.2357  21.4711  23.6331

     occupation numbers 
     1.0000   0.0843   0.0000   0.0000   0.0000   0.0000

          k =-0.2652-0.2652 0.7955 (   449 PWs)   bands (ev):

     4.1686   6.3547  11.0071  16.4956  18.3898  26.5552

     occupation numbers 
     1.0000   1.0000   0.0000   0.0000   0.0000   0.0000

          k =-0.3536-0.1768 0.7071 (   440 PWs)   bands (ev):

     4.3050   8.0151   9.6149  13.2934  21.7717  25.1413

     occupation numbers 
     1.0000   1.0607   0.0000   0.0000   0.0000   0.0000

          k =-0.4419-0.0884 0.6187 (   444 PWs)   bands (ev):

     5.2317   7.4163   9.8813  12.1920  20.5176  24.7569

     occupation numbers 
     1.0000   1.0003   0.0000   0.0000   0.0000   0.0000

          k =-0.5303 0.0000 0.5303 (   440 PWs)   bands (ev):

     6.4384   6.9355   8.0547  15.1509  16.8191  24.4731

     occupation numbers 
     1.0000   1.0000   1.0253   0.0000   0.0000   0.0000

          k =-0.6187 0.0884 0.4419 (   444 PWs)   bands (ev):

     5.2317   7.4163   9.8813  12.1920  20.5176  24.7569

     occupation numbers 
     1.0000   1.0003   0.0000   0.0000   0.0000   0.0000

          k =-0.7071 0.1768 0.3536 (   440 PWs)   bands (ev):

     4.3050   8.0151   9.6149  13.2934  21.7717  25.1413

     occupation numbers 
     1.0000   1.0607   0.0000   0.0000   0.0000   0.0000

          k =-0.7955 0.2652 0.2652 (   449 PWs)   bands (ev):

     4.1686   6.3547  11.0071  16.4956  18.3898  26.5552

     occupation numbers 
     1.0000   1.0000   0.0000   0.0000   0.0000   0.0000

          k =-0.8839 0.3536 0.1768 (   442 PWs)   bands (ev):

     4.7069   5.0376  13.4035  14.1003  21.9762  22.5286

     occupation numbers 
     1.0000   1.0000   0.0000   0.0000   0.0000   0.0000

          k =-0.1768-0.1768 0.8839 (   447 PWs)   bands (ev):

     3.1941   7.6009  12.1414  15.6350  17.3645  24.8868

     occupation numbers 
     1.0000   1.0059   0.0000   0.0000   0.0000   0.0000

          k =-0.2652-0.0884 0.7955 (   444 PWs)   bands (ev):

     5.2317   7.4163   9.8813  12.1920  20.5176  24.7569

     occupation numbers 
     1.0000   1.0003   0.0000   0.0000   0.0000   0.0000

          k =-0.3536-0.0000 0.7071 (   444 PWs)   bands (ev):

     7.4880   7.4880   8.4463   9.7744  24.6391  24.6391

     occupation numbers 
     1.0010   1.0010   0.1579   0.0000   0.0000   0.0000

          k =-0.4419 0.0884 0.6187 (   444 PWs)   bands (ev):

     5.2317   7.4163   9.8813  12.1920  20.5176  24.7569

     occupation numbers 
     1.0000   1.0003   0.0000   0.0000   0.0000   0.0000

          k =-0.5303 0.1768 0.5303 (   447 PWs)   bands (ev):

     3.1941   7.6009  12.1414  15.6350  17.3645  24.8868

     occupation numbers 
     1.0000   1.0059   0.0000   0.0000   0.0000   0.0000

          k =-0.6187 0.2652 0.4419 (   442 PWs)   bands (ev):

     1.9309   8.5093  13.0876  15.2357  21.4711  23.6331

     occupation numbers 
     1.0000   0.0843   0.0000   0.0000   0.0000   0.0000

          k =-0.7071 0.3536 0.3536 (   443 PWs)   bands (ev):

     1.5049   9.6015  11.2781  18.0965  20.1479  25.9411

     occupation numbers 
     1.0000   0.0000   0.0000   0.0000   0.0000   0.0000

          k =-0.7955 0.4419 0.2652 (   442 PWs)   bands (ev):

     1.9309   8.5093  13.0876  15.2357  21.4711  23.6331

     occupation numbers 
     1.0000   0.0843   0.0000   0.0000   0.0000   0.0000

          k =-0.0884-0.0884 0.9723 (   447 PWs)   bands (ev):

     0.7895  11.6505  14.0959  15.5061  16.9811  21.1714

     occupation numbers 
     1.0000   0.0000   0.0000   0.0000   0.0000   0.0000

          k =-0.1768-0.0000 0.8839 (   454 PWs)   bands (ev):

     2.6336  10.6605  11.3817  12.5637  19.2528  21.4361

     occupation numbers 
     1.0000   0.0000   0.0000   0.0000   0.0000   0.0000

          k =-0.2652 0.0884 0.7955 (   444 PWs)   bands (ev):

     5.2317   7.4163   9.8813  12.1920  20.5176  24.7569

     occupation numbers 
     1.0000   1.0003   0.0000   0.0000   0.0000   0.0000

          k =-0.3536 0.1768 0.7071 (   440 PWs)   bands (ev):

     4.3050   8.0151   9.6149  13.2934  21.7717  25.1413

     occupation numbers 
     1.0000   1.0607   0.0000   0.0000   0.0000   0.0000

          k =-0.4419 0.2652 0.6187 (   442 PWs)   bands (ev):

     1.9309   8.5093  13.0876  15.2357  21.4711  23.6331

     occupation numbers 
     1.0000   0.0843   0.0000   0.0000   0.0000   0.0000

          k =-0.5303 0.3536 0.5303 (   450 PWs)   bands (ev):

     0.3580   9.2293  17.0965  17.8025  18.8856  25.0683

     occupation numbers 
     1.0000   0.0000   0.0000   0.0000   0.0000   0.0000

          k =-0.6187 0.4419 0.4419 (   451 PWs)   bands (ev):

    -0.3659  10.6562  15.1808  20.4313  22.4581  22.4603

     occupation numbers 
     1.0000   0.0000   0.0000   0.0000   0.0000   0.0000

          k =-0.7071 0.5303 0.3536 (   448 PWs)   bands (ev):

    -0.2204  12.2596  13.8330  17.3969  20.8019  22.6574

     occupation numbers 
     1.0000   0.0000   0.0000   0.0000   0.0000   0.0000

          k = 0.0000 0.0000 1.0607 (   456 PWs)   bands (ev):

    -0.8023  15.8969  16.1068  16.1068  16.8211  19.8078

     occupation numbers 
     1.0000   0.0000   0.0000   0.0000   0.0000   0.0000

          k =-0.0884 0.0884 0.9723 (   447 PWs)   bands (ev):

     0.7895  11.6505  14.0959  15.5061  16.9811  21.1714

     occupation numbers 
     1.0000   0.0000   0.0000   0.0000   0.0000   0.0000

          k =-0.1768 0.1768 0.8839 (   447 PWs)   bands (ev):

     3.1941   7.6009  12.1414  15.6350  17.3645  24.8868

     occupation numbers 
     1.0000   1.0059   0.0000   0.0000   0.0000   0.0000

          k =-0.2652 0.2652 0.7955 (   449 PWs)   bands (ev):

     4.1686   6.3547  11.0071  16.4956  18.3898  26.5552

     occupation numbers 
     1.0000   1.0000   0.0000   0.0000   0.0000   0.0000

          k =-0.3536 0.3536 0.7071 (   443 PWs)   bands (ev):

     1.5049   9.6015  11.2781  18.0965  20.1479  25.9411

     occupation numbers 
     1.0000   0.0000   0.0000   0.0000   0.0000   0.0000

          k =-0.4419 0.4419 0.6187 (   451 PWs)   bands (ev):

    -0.3659  10.6562  15.1808  20.4313  22.4581  22.4603

     occupation numbers 
     1.0000   0.0000   0.0000   0.0000   0.0000   0.0000

          k =-0.5303 0.5303 0.5303 (   450 PWs)   bands (ev):

    -1.3883  11.8921  19.5451  19.5451  23.1352  23.5152

     occupation numbers 
     1.0000   0.0000   0.0000   0.0000   0.0000   0.0000

          k =-0.6187 0.6187 0.4419 (   451 PWs)   bands (ev):

    -1.5351  13.7840  17.4471  18.9870  20.2810  22.8783

     occupation numbers 
     1.0000   0.0000   0.0000   0.0000   0.0000   0.0000

          k = 0.0884 0.0884 1.1490 (   451 PWs)   bands (ev):

    -1.5351  13.7840  17.4471  18.9870  20.2810  22.8783

     occupation numbers 
     1.0000   0.0000   0.0000   0.0000   0.0000   0.0000

          k =-0.0000 0.1768 1.0607 (   448 PWs)   bands (ev):

    -0.2204  12.2596  13.8330  17.3969  20.8019  22.6574

     occupation numbers 
     1.0000   0.0000   0.0000   0.0000   0.0000   0.0000

          k =-0.0884 0.2652 0.9723 (   442 PWs)   bands (ev):

     1.9309   8.5093  13.0876  15.2357  21.4711  23.6331

     occupation numbers 
     1.0000   0.0843   0.0000   0.0000   0.0000   0.0000

          k =-0.1768 0.3536 0.8839 (   442 PWs)   bands (ev):

     4.7069   5.0376  13.4035  14.1003  21.9762  22.5286

     occupation numbers 
     1.0000   1.0000   0.0000   0.0000   0.0000   0.0000

          k =-0.2652 0.4419 0.7955 (   442 PWs)   bands (ev):

     1.9309   8.5093  13.0876  15.2357  21.4711  23.6331

     occupation numbers 
     1.0000   0.0843   0.0000   0.0000   0.0000   0.0000

          k =-0.3536 0.5303 0.7071 (   448 PWs)   bands (ev):

    -0.2204  12.2596  13.8330  17.3969  20.8019  22.6574

     occupation numbers 
     1.0000   0.0000   0.0000   0.0000   0.0000   0.0000

          k =-0.4419 0.6187 0.6187 (   451 PWs)   bands (ev):

    -1.5351  13.7840  17.4471  18.9870  20.2810  22.8783

     occupation numbers 
     1.0000   0.0000   0.0000   0.0000   0.0000   0.0000

          k =-0.5303 0.7071 0.5303 (   451 PWs)   bands (ev):

    -1.9773  14.9230  16.3108  22.4871  22.7163  24.1671

     occupation numbers 
     1.0000   0.0000   0.0000   0.0000   0.0000   0.0000

          k =-0.6187-0.6187 0.6187 (   450 PWs)   bands (ev):

    -2.7188  16.8706  20.3298  20.3298  23.4417  24.3594

     occupation numbers 
     1.0000   0.0000   0.0000   0.0000   0.0000   0.0000

          k =-0.7071-0.5303 0.5303 (   451 PWs)   bands (ev):

    -1.9773  14.9230  16.3108  22.4871  22.7163  24.1671

     occupation numbers 
     1.0000   0.0000   0.0000   0.0000   0.0000   0.0000

          k =-0.7955-0.4419 0.4419 (   451 PWs)   bands (ev):

    -0.3659  10.6562  15.1808  20.4313  22.4581  22.4603

     occupation numbers 
     1.0000   0.0000   0.0000   0.0000   0.0000   0.0000

          k =-0.8839-0.3536 0.3536 (   447 PWs)   bands (ev):

     2.0733   6.5305  15.2713  18.5913  20.5313  22.6076

     occupation numbers 
     1.0000   1.0000   0.0000   0.0000   0.0000   0.0000

          k =-0.9723-0.2652 0.2652 (   447 PWs)   bands (ev):

     3.0576   5.3043  16.1608  17.4759  19.3238  23.4826

     occupation numbers 
     1.0000   1.0000   0.0000   0.0000   0.0000   0.0000

          k =-1.0607-0.1768 0.1768 (   450 PWs)   bands (ev):

     0.3580   9.2293  17.0965  17.8025  18.8856  25.0683

     occupation numbers 
     1.0000   0.0000   0.0000   0.0000   0.0000   0.0000

          k =-1.1490-0.0884 0.0884 (   451 PWs)   bands (ev):

    -1.5351  13.7840  17.4471  18.9870  20.2810  22.8783

     occupation numbers 
     1.0000   0.0000   0.0000   0.0000   0.0000   0.0000

          k =-1.2374 0.0000 0.0000 (   451 PWs)   bands (ev):

    -2.5700  18.5272  18.5272  18.7073  21.6734  23.4208

     occupation numbers 
     1.0000   0.0000   0.0000   0.0000   0.0000   0.0000

          k =-0.5303-0.5303 0.7071 (   451 PWs)   bands (ev):

    -1.9773  14.9230  16.3108  22.4871  22.7163  24.1671

     occupation numbers 
     1.0000   0.0000   0.0000   0.0000   0.0000   0.0000

          k =-0.6187-0.4419 0.6187 (   451 PWs)   bands (ev):

    -1.5351  13.7840  17.4471  18.9870  20.2810  22.8783

     occupation numbers 
     1.0000   0.0000   0.0000   0.0000   0.0000   0.0000

          k =-0.7071-0.3536 0.5303 (   448 PWs)   bands (ev):

    -0.2204  12.2596  13.8330  17.3969  20.8019  22.6574

     occupation numbers 
     1.0000   0.0000   0.0000   0.0000   0.0000   0.0000

          k =-0.7955-0.2652 0.4419 (   442 PWs)   bands (ev):

     1.9309   8.5093  13.0876  15.2357  21.4711  23.6331

     occupation numbers 
     1.0000   0.0843   0.0000   0.0000   0.0000   0.0000

          k =-0.8839-0.1768 0.3536 (   442 PWs)   bands (ev):

     4.7069   5.0376  13.4035  14.1003  21.9762  22.5286

     occupation numbers 
     1.0000   1.0000   0.0000   0.0000   0.0000   0.0000

          k =-0.9723-0.0884 0.2652 (   442 PWs)   bands (ev):

     1.9309   8.5093  13.0876  15.2357  21.4711  23.6331

     occupation numbers 
     1.0000   0.0843   0.0000   0.0000   0.0000   0.0000

          k =-1.0607 0.0000 0.1768 (   448 PWs)   bands (ev):

    -0.2204  12.2596  13.8330  17.3969  20.8019  22.6574

     occupation numbers 
     1.0000   0.0000   0.0000   0.0000   0.0000   0.0000

          k =-1.1490 0.0884 0.0884 (   451 PWs)   bands (ev):

    -1.5351  13.7840  17.4471  18.9870  20.2810  22.8783

     occupation numbers 
     1.0000   0.0000   0.0000   0.0000   0.0000   0.0000

          k =-0.4419-0.4419 0.7955 (   451 PWs)   bands (ev):

    -0.3659  10.6562  15.1808  20.4313  22.4581  22.4603

     occupation numbers 
     1.0000   0.0000   0.0000   0.0000   0.0000   0.0000

          k =-0.5303-0.3536 0.7071 (   448 PWs)   bands (ev):

    -0.2204  12.2596  13.8330  17.3969  20.8019  22.6574

     occupation numbers 
     1.0000   0.0000   0.0000   0.0000   0.0000   0.0000

          k =-0.6187-0.2652 0.6187 (   447 PWs)   bands (ev):

     0.7895  11.6505  14.0959  15.5061  16.9811  21.1714

     occupation numbers 
     1.0000   0.0000   0.0000   0.0000   0.0000   0.0000

          k =-0.7071-0.1768 0.5303 (   454 PWs)   bands (ev):

     2.6336  10.6605  11.3817  12.5637  19.2528  21.4361

     occupation numbers 
     1.0000   0.0000   0.0000   0.0000   0.0000   0.0000

          k =-0.7955-0.0884 0.4419 (   444 PWs)   bands (ev):

     5.2317   7.4163   9.8813  12.1920  20.5176  24.7569

     occupation numbers 
     1.0000   1.0003   0.0000   0.0000   0.0000   0.0000

          k =-0.8839 0.0000 0.3536 (   440 PWs)   bands (ev):

     4.3050   8.0151   9.6149  13.2934  21.7717  25.1413

     occupation numbers 
     1.0000   1.0607   0.0000   0.0000   0.0000   0.0000

          k =-0.9723 0.0884 0.2652 (   442 PWs)   bands (ev):

     1.9309   8.5093  13.0876  15.2357  21.4711  23.6331

     occupation numbers 
     1.0000   0.0843   0.0000   0.0000   0.0000   0.0000

          k =-1.0607 0.1768 0.1768 (   450 PWs)   bands (ev):

     0.3580   9.2293  17.0965  17.8025  18.8856  25.0683

     occupation numbers 
     1.0000   0.0000   0.0000   0.0000   0.0000   0.0000

          k =-0.3536-0.3536 0.8839 (   447 PWs)   bands (ev):

     2.0733   6.5305  15.2713  18.5913  20.5313  22.6076

     occupation numbers 
     1.0000   1.0000   0.0000   0.0000   0.0000   0.0000

          k =-0.4419-0.2652 0.7955 (   442 PWs)   bands (ev):

     1.9309   8.5093  13.0876  15.2357  21.4711  23.6331

     occupation numbers 
     1.0000   0.0843   0.0000   0.0000   0.0000   0.0000

          k =-0.5303-0.1768 0.7071 (   454 PWs)   bands (ev):

     2.6336  10.6605  11.3817  12.5637  19.2528  21.4361

     occupation numbers 
     1.0000   0.0000   0.0000   0.0000   0.0000   0.0000

          k =-0.6187-0.0884 0.6187 (   452 PWs)   bands (ev):

     4.1417   8.7510  10.6431  14.5420  15.8739  20.2359

     occupation numbers 
     1.0000   0.0030   0.0000   0.0000   0.0000   0.0000

          k =-0.7071 0.0000 0.5303 (   452 PWs)   bands (ev):

     5.9150   7.2876  10.1277  11.8817  18.7272  20.9863

     occupation numbers 
     1.0000   1.0000   0.0000   0.0000   0.0000   0.0000

          k =-0.7955 0.0884 0.4419 (   444 PWs)   bands (ev):

     5.2317   7.4163   9.8813  12.1920  20.5176  24.7569

     occupation numbers 
     1.0000   1.0003   0.0000   0.0000   0.0000   0.0000

          k =-0.8839 0.1768 0.3536 (   442 PWs)   bands (ev):

     4.7069   5.0376  13.4035  14.1003  21.9762  22.5286

     occupation numbers 
     1.0000   1.0000   0.0000   0.0000   0.0000   0.0000

          k =-0.9723 0.2652 0.2652 (   447 PWs)   bands (ev):

     3.0576   5.3043  16.1608  17.4759  19.3238  23.4826

     occupation numbers 
     1.0000   1.0000   0.0000   0.0000   0.0000   0.0000

          k =-0.2652-0.2652 0.9723 (   447 PWs)   bands (ev):

     3.0576   5.3043  16.1608  17.4759  19.3238  23.4826

     occupation numbers 
     1.0000   1.0000   0.0000   0.0000   0.0000   0.0000

          k =-0.3536-0.1768 0.8839 (   442 PWs)   bands (ev):

     4.7069   5.0376  13.4035  14.1003  21.9762  22.5286

     occupation numbers 
     1.0000   1.0000   0.0000   0.0000   0.0000   0.0000

          k =-0.4419-0.0884 0.7955 (   444 PWs)   bands (ev):

     5.2317   7.4163   9.8813  12.1920  20.5176  24.7569

     occupation numbers 
     1.0000   1.0003   0.0000   0.0000   0.0000   0.0000

          k =-0.5303 0.0000 0.7071 (   452 PWs)   bands (ev):

     5.9150   7.2876  10.1277  11.8817  18.7272  20.9863

     occupation numbers 
     1.0000   1.0000   0.0000   0.0000   0.0000   0.0000

          k =-0.6187 0.0884 0.6187 (   452 PWs)   bands (ev):

     4.1417   8.7510  10.6431  14.5420  15.8739  20.2359

     occupation numbers 
     1.0000   0.0030   0.0000   0.0000   0.0000   0.0000

          k =-0.7071 0.1768 0.5303 (   454 PWs)   bands (ev):

     2.6336  10.6605  11.3817  12.5637  19.2528  21.4361

     occupation numbers 
     1.0000   0.0000   0.0000   0.0000   0.0000   0.0000

          k =-0.7955 0.2652 0.4419 (   442 PWs)   bands (ev):

     1.9309   8.5093  13.0876  15.2357  21.4711  23.6331

     occupation numbers 
     1.0000   0.0843   0.0000   0.0000   0.0000   0.0000

          k =-0.8839 0.3536 0.3536 (   447 PWs)   bands (ev):

     2.0733   6.5305  15.2713  18.5913  20.5313  22.6076

     occupation numbers 
     1.0000   1.0000   0.0000   0.0000   0.0000   0.0000

          k =-0.1768-0.1768 1.0607 (   450 PWs)   bands (ev):

     0.3580   9.2293  17.0965  17.8025  18.8856  25.0683

     occupation numbers 
     1.0000   0.0000   0.0000   0.0000   0.0000   0.0000

          k =-0.2652-0.0884 0.9723 (   442 PWs)   bands (ev):

     1.9309   8.5093  13.0876  15.2357  21.4711  23.6331

     occupation numbers 
     1.0000   0.0843   0.0000   0.0000   0.0000   0.0000

          k =-0.3536 0.0000 0.8839 (   440 PWs)   bands (ev):

     4.3050   8.0151   9.6149  13.2934  21.7717  25.1413

     occupation numbers 
     1.0000   1.0607   0.0000   0.0000   0.0000   0.0000

          k =-0.4419 0.0884 0.7955 (   444 PWs)   bands (ev):

     5.2317   7.4163   9.8813  12.1920  20.5176  24.7569

     occupation numbers 
     1.0000   1.0003   0.0000   0.0000   0.0000   0.0000

          k =-0.5303 0.1768 0.7071 (   454 PWs)   bands (ev):

     2.6336  10.6605  11.3817  12.5637  19.2528  21.4361

     occupation numbers 
     1.0000   0.0000   0.0000   0.0000   0.0000   0.0000

          k =-0.6187 0.2652 0.6187 (   447 PWs)   bands (ev):

     0.7895  11.6505  14.0959  15.5061  16.9811  21.1714

     occupation numbers 
     1.0000   0.0000   0.0000   0.0000   0.0000   0.0000

          k =-0.7071 0.3536 0.5303 (   448 PWs)   bands (ev):

    -0.2204  12.2596  13.8330  17.3969  20.8019  22.6574

     occupation numbers 
     1.0000   0.0000   0.0000   0.0000   0.0000   0.0000

          k =-0.7955 0.4419 0.4419 (   451 PWs)   bands (ev):

    -0.3659  10.6562  15.1808  20.4313  22.4581  22.4603

     occupation numbers 
     1.0000   0.0000   0.0000   0.0000   0.0000   0.0000

          k =-0.0884-0.0884 1.1490 (   451 PWs)   bands (ev):

    -1.5351  13.7840  17.4471  18.9870  20.2810  22.8783

     occupation numbers 
     1.0000   0.0000   0.0000   0.0000   0.0000   0.0000

          k =-0.1768 0.0000 1.0607 (   448 PWs)   bands (ev):

    -0.2204  12.2596  13.8330  17.3969  20.8019  22.6574

     occupation numbers 
     1.0000   0.0000   0.0000   0.0000   0.0000   0.0000

          k =-0.2652 0.0884 0.9723 (   442 PWs)   bands (ev):

     1.9309   8.5093  13.0876  15.2357  21.4711  23.6331

     occupation numbers 
     1.0000   0.0843   0.0000   0.0000   0.0000   0.0000

          k =-0.3536 0.1768 0.8839 (   442 PWs)   bands (ev):

     4.7069   5.0376  13.4035  14.1003  21.9762  22.5286

     occupation numbers 
     1.0000   1.0000   0.0000   0.0000   0.0000   0.0000

          k =-0.4419 0.2652 0.7955 (   442 PWs)   bands (ev):

     1.9309   8.5093  13.0876  15.2357  21.4711  23.6331

     occupation numbers 
     1.0000   0.0843   0.0000   0.0000   0.0000   0.0000

          k =-0.5303 0.3536 0.7071 (   448 PWs)   bands (ev):

    -0.2204  12.2596  13.8330  17.3969  20.8019  22.6574

     occupation numbers 
     1.0000   0.0000   0.0000   0.0000   0.0000   0.0000

          k =-0.6187 0.4419 0.6187 (   451 PWs)   bands (ev):

    -1.5351  13.7840  17.4471  18.9870  20.2810  22.8783

     occupation numbers 
     1.0000   0.0000   0.0000   0.0000   0.0000   0.0000

          k =-0.7071 0.5303 0.5303 (   451 PWs)   bands (ev):

    -1.9773  14.9230  16.3108  22.4871  22.7163  24.1671

     occupation numbers 
     1.0000   0.0000   0.0000   0.0000   0.0000   0.0000

          k = 0.0000 0.0000 1.2374 (   451 PWs)   bands (ev):

    -2.5700  18.5272  18.5272  18.7073  21.6734  23.4208

     occupation numbers 
     1.0000   0.0000   0.0000   0.0000   0.0000   0.0000

          k =-0.0884 0.0884 1.1490 (   451 PWs)   bands (ev):

    -1.5351  13.7840  17.4471  18.9870  20.2810  22.8783

     occupation numbers 
     1.0000   0.0000   0.0000   0.0000   0.0000   0.0000

          k =-0.1768 0.1768 1.0607 (   450 PWs)   bands (ev):

     0.3580   9.2293  17.0965  17.8025  18.8856  25.0683

     occupation numbers 
     1.0000   0.0000   0.0000   0.0000   0.0000   0.0000

          k =-0.2652 0.2652 0.9723 (   447 PWs)   bands (ev):

     3.0576   5.3043  16.1608  17.4759  19.3238  23.4826

     occupation numbers 
     1.0000   1.0000   0.0000   0.0000   0.0000   0.0000

          k =-0.3536 0.3536 0.8839 (   447 PWs)   bands (ev):

     2.0733   6.5305  15.2713  18.5913  20.5313  22.6076

     occupation numbers 
     1.0000   1.0000   0.0000   0.0000   0.0000   0.0000

          k =-0.4419 0.4419 0.7955 (   451 PWs)   bands (ev):

    -0.3659  10.6562  15.1808  20.4313  22.4581  22.4603

     occupation numbers 
     1.0000   0.0000   0.0000   0.0000   0.0000   0.0000

          k =-0.5303 0.5303 0.7071 (   451 PWs)   bands (ev):

    -1.9773  14.9230  16.3108  22.4871  22.7163  24.1671

     occupation numbers 
     1.0000   0.0000   0.0000   0.0000   0.0000   0.0000

          k =-0.6187 0.6187 0.6187 (   450 PWs)   bands (ev):

    -2.7188  16.8706  20.3298  20.3298  23.4417  24.3594

     occupation numbers 
     1.0000   0.0000   0.0000   0.0000   0.0000   0.0000

     the Fermi energy is     8.3255 ev
     (compare with:     8.4122 eV, computed in scf)

     Writing all to output data dir ./tmp/al.save/ :
     XML data file, pseudopotentials, collected wavefunctions
 
     init_run     :      0.01s CPU      0.02s WALL (       1 calls)
     electrons    :      2.85s CPU      2.95s WALL (       1 calls)

     Called by init_run:
     wfcinit      :      0.00s CPU      0.00s WALL (       1 calls)
     wfcinit:atom :      0.00s CPU      0.00s WALL (      64 calls)
     wfcinit:wfcr :      0.10s CPU      0.11s WALL (      64 calls)
     potinit      :      0.00s CPU      0.00s WALL (       1 calls)
     hinit0       :      0.00s CPU      0.01s WALL (       1 calls)

     Called by electrons:
     c_bands      :      2.85s CPU      2.94s WALL (       1 calls)
     v_of_rho     :      0.00s CPU      0.00s WALL (       1 calls)
     v_h          :      0.00s CPU      0.00s WALL (       1 calls)
     v_xc         :      0.00s CPU      0.00s WALL (       1 calls)

     Called by c_bands:
     init_us_2    :      0.00s CPU      0.00s WALL (      64 calls)
     cegterg      :      2.29s CPU      2.36s WALL (     135 calls)

     Called by sum_band:

     Called by *egterg:
     cdiaghg      :      0.07s CPU      0.08s WALL (    2230 calls)
     cegterg:over :      0.11s CPU      0.11s WALL (    2166 calls)
     cegterg:upda :      0.03s CPU      0.03s WALL (    2166 calls)
     cegterg:last :      0.03s CPU      0.03s WALL (    1513 calls)
     h_psi        :      2.10s CPU      2.17s WALL (    2365 calls)
     g_psi        :      0.01s CPU      0.01s WALL (    2166 calls)

     Called by h_psi:
     h_psi:calbec :      0.03s CPU      0.03s WALL (    2365 calls)
     vloc_psi     :      2.04s CPU      2.11s WALL (    2365 calls)
                                        0.00s GPU  (    2365 calls)
     add_vuspsi   :      0.01s CPU      0.01s WALL (    2365 calls)

     General routines
     calbec       :      0.02s CPU      0.02s WALL (    2365 calls)
     fft          :      0.00s CPU      0.00s WALL (       3 calls)
     fftw         :      1.86s CPU      1.93s WALL (   18408 calls)
     davcio       :      0.00s CPU      0.00s WALL (     128 calls)
 
     Parallel routines
 
     PWSCF        :      2.92s CPU      3.05s WALL

 
   This run was terminated on:  15:19:21  23Sep2026            

=------------------------------------------------------------------------------=
   JOB DONE.
=------------------------------------------------------------------------------=
