
     Program PWSCF v.7.5 starts on 22Sep2026 at 22:21:35 

     This program is part of the open-source Quantum ESPRESSO suite
     for quantum simulation of materials; please cite
         "P. Giannozzi et al., J. Phys.:Condens. Matter 21 395502 (2009);
         "P. Giannozzi et al., J. Phys.:Condens. Matter 29 465901 (2017);
         "P. Giannozzi et al., J. Chem. Phys. 152 154105 (2020);
          URL http://www.quantum-espresso.org", 
     in publications or presentations arising from this work. More details at
     http://www.quantum-espresso.org/quote

     Parallel version (MPI), running on     8 processors

     MPI processes distributed on     1 nodes
     1503 MiB available memory on the printing compute node when the environment starts
 
     Reading input from al.md.in

     Current dimensions of program PWSCF are:
     Max number of different atomic species (ntypx) = 10
     Max number of k-points (npk) =  40000
     Max angular momentum in pseudopotentials (lmaxx) =  4
     Found identity + ( -0.5000  0.0000  0.0000) symmetry
     This is a supercell, fractional translations are disabled
     Message from routine setup:
     using ibrav=0 with symmetry is DISCOURAGED, use correct ibrav instead
     Message from routine setup:
     Dynamics, you should have no symmetries
 
     R & G space division:  proc/nbgrp/npool/nimage =       8
     Subspace diagonalization in iterative solution of the eigenvalue problem:
     a serial algorithm will be used

 
     Parallelization info
     --------------------
     sticks:   dense  smooth     PW     G-vecs:    dense   smooth      PW
     Min         154     154     45                 3570     3570     558
     Max         155     155     46                 3573     3573     560
     Sum        1237    1237    361                28571    28571    4477
 
     Using Slab Decomposition
 


     bravais-lattice index     =            0
     lattice parameter (alat)  =      10.5725  a.u.
     unit-cell volume          =     835.6372 (a.u.)^3
     number of atoms/cell      =            8
     number of atomic types    =            1
     number of electrons       =        24.00
     number of Kohn-Sham states=           18
     kinetic-energy cutoff     =      40.0000  Ry
     charge density cutoff     =     160.0000  Ry
     scf convergence threshold =      1.0E-10
     mixing beta               =       0.7000
     number of iterations used =            8  plain     mixing
     energy convergence thresh.=      0.0E+00
     force convergence thresh. =      0.0E+00
     Exchange-correlation= SLA  PZ   NOGX NOGC
                           (   1   1   0   0   0   0   0)
     nstep                     =          100


     celldm(1)=  10.572497  celldm(2)=   0.000000  celldm(3)=   0.000000
     celldm(4)=   0.000000  celldm(5)=   0.000000  celldm(6)=   0.000000

     crystal axes: (cart. coord. in units of alat)
               a(1) = (  -0.707107   0.000000   0.707107 )  
               a(2) = (   0.000000   0.707107   0.707107 )  
               a(3) = (  -0.707107   0.707107   0.000000 )  

     reciprocal axes: (cart. coord. in units 2 pi/alat)
               b(1) = ( -0.707107 -0.707107  0.707107 )  
               b(2) = (  0.707107  0.707107  0.707107 )  
               b(3) = ( -0.707107  0.707107 -0.707107 )  


     PseudoPot. # 1 for Al read from file:
     <工作目录>/pseudo/Al.pz-vbc.UPF
     MD5 check sum: f06ceae8da0fe5c02c98e3688433298c
     Pseudo is Norm-conserving, Zval =  3.0
     Generated by new atomic code, or converted to UPF format
     Using radial grid of  171 points,  2 beta functions with: 
                l(1) =   0
                l(2) =   1

     atomic species   valence    mass     pseudopotential
     Al                3.00    26.98154     Al( 1.00)

     48 Sym. Ops., with inversion, found



   Cartesian axes

     site n.     atom                  positions (alat units)
         1        Al     tau(   1) = (   0.0000000   0.0000000   0.0000000  )
         2        Al     tau(   2) = (  -0.3535534   0.0000000   0.3535534  )
         3        Al     tau(   3) = (   0.0000000   0.3535534   0.3535534  )
         4        Al     tau(   4) = (  -0.3535534   0.3535534   0.7071068  )
         5        Al     tau(   5) = (  -0.3535534   0.3535534   0.0000000  )
         6        Al     tau(   6) = (  -0.7071068   0.3535534   0.3535534  )
         7        Al     tau(   7) = (  -0.3535534   0.7071068   0.3535534  )
         8        Al     tau(   8) = (  -0.7071068   0.7071068   0.7071068  )

     number of k points=     8  Marzari-Vanderbilt smearing, width (Ry)=  0.0200
                       cart. coord. in units 2pi/alat
        k(    1) = (   0.0000000   0.0000000   0.0000000), wk =   0.0312500
        k(    2) = (  -0.1767767   0.1767767  -0.1767767), wk =   0.2500000
        k(    3) = (   0.3535534  -0.3535534   0.3535534), wk =   0.1250000
        k(    4) = (   0.0000000   0.3535534   0.0000000), wk =   0.1875000
        k(    5) = (   0.5303301  -0.1767767   0.5303301), wk =   0.7500000
        k(    6) = (   0.3535534   0.0000000   0.3535534), wk =   0.3750000
        k(    7) = (   0.0000000  -0.7071068   0.0000000), wk =   0.0937500
        k(    8) = (  -0.3535534  -0.7071068   0.0000000), wk =   0.1875000

     Dense  grid:    28571 G-vectors     FFT dimensions: (  45,  45,  45)

     Estimated max dynamical RAM per process >       4.28 MB

     Estimated total dynamical RAM >      34.28 MB

     Initial potential from superposition of free atoms

     starting charge      23.9835, renormalised to      24.0000

     negative rho (up, down):  1.121E-04 0.000E+00
     Starting wfcs are   32 randomized atomic wfcs

     total cpu time spent up to now is        0.1 secs

     Self-consistent Calculation

     iteration #  1     ecut=    40.00 Ry     beta= 0.70
     Davidson diagonalization with overlap
     ethr =  1.00E-02,  avg # of iterations =  3.4

     Threshold (ethr) on eigenvalues was too large:
     Diagonalizing with lowered threshold

     Davidson diagonalization with overlap
     ethr =  1.74E-04,  avg # of iterations =  4.5

     negative rho (up, down):  8.423E-06 0.000E+00

     total cpu time spent up to now is        0.5 secs

     total energy              =     -33.52048975 Ry
     estimated scf accuracy    <       0.04571719 Ry

     iteration #  2     ecut=    40.00 Ry     beta= 0.70
     Davidson diagonalization with overlap
     ethr =  1.90E-04,  avg # of iterations =  1.0

     total cpu time spent up to now is        0.7 secs

     total energy              =     -33.52083500 Ry
     estimated scf accuracy    <       0.00360561 Ry

     iteration #  3     ecut=    40.00 Ry     beta= 0.70
     Davidson diagonalization with overlap
     ethr =  1.50E-05,  avg # of iterations =  2.4

     total cpu time spent up to now is        0.8 secs

     total energy              =     -33.52087558 Ry
     estimated scf accuracy    <       0.00000236 Ry

     iteration #  4     ecut=    40.00 Ry     beta= 0.70
     Davidson diagonalization with overlap
     ethr =  9.84E-09,  avg # of iterations =  5.1

     total cpu time spent up to now is        1.0 secs

     total energy              =     -33.52087977 Ry
     estimated scf accuracy    <       0.00000015 Ry

     iteration #  5     ecut=    40.00 Ry     beta= 0.70
     Davidson diagonalization with overlap
     ethr =  6.15E-10,  avg # of iterations =  2.1

     total cpu time spent up to now is        1.2 secs

     total energy              =     -33.52087979 Ry
     estimated scf accuracy    <       0.00000001 Ry

     iteration #  6     ecut=    40.00 Ry     beta= 0.70
     Davidson diagonalization with overlap
     ethr =  4.31E-11,  avg # of iterations =  2.0

     total cpu time spent up to now is        1.3 secs

     total energy              =     -33.52087979 Ry
     estimated scf accuracy    <          4.0E-10 Ry

     iteration #  7     ecut=    40.00 Ry     beta= 0.70
     Davidson diagonalization with overlap
     ethr =  1.65E-12,  avg # of iterations =  2.4

     total cpu time spent up to now is        1.5 secs

     End of self-consistent calculation

          k = 0.0000 0.0000 0.0000 (  3527 PWs)   bands (ev):

    -3.1656   3.6450   3.6450   3.6450   3.6450   3.8964   3.8964   3.8964
     3.8964   5.3948   5.3948   5.3948   6.7305   6.7305   6.7305  14.1810
    14.1811  14.1811

          k =-0.1768 0.1768-0.1768 (  3590 PWs)   bands (ev):

    -2.7178   0.7907   3.0587   3.0587   3.0587   4.1429   4.1429   4.1429
     5.3056   5.3056   5.3056   7.4929   8.7515   8.7515   8.7515  10.6450
    10.6450  10.6450

          k = 0.3536-0.3536 0.3536 (  3582 PWs)   bands (ev):

    -1.3873  -1.3873   3.1952   3.1952   3.1952   3.1952   3.1952   3.1952
     7.6023   7.6023   7.6023   7.6023   7.6023   7.6023  11.8936  11.8937
    12.1424  12.1424

          k = 0.0000 0.3536 0.0000 (  3591 PWs)   bands (ev):

    -2.5690   2.0707   2.0744   2.0744   2.0744   2.0744   5.9169   5.9169
     6.5318   6.5318   6.5318   6.5318   7.2874   7.2874  10.1297  10.1297
    11.0251  11.8830

          k = 0.5303-0.1768 0.5303 (  3570 PWs)   bands (ev):

    -1.5341  -0.3648   0.7906   1.9320   1.9320   4.1696   5.2328   5.2328
     6.3562   7.4176   7.4176   8.5108   8.5108   9.8820   9.8820  10.6577
    11.0080  11.6521

          k = 0.3536 0.0000 0.3536 (  3583 PWs)   bands (ev):

    -1.9763   0.3590   0.3590   2.6347   2.6347   4.7072   4.7073   5.0396
     5.0397   6.4403   6.9360   8.0558   9.2307   9.2307  10.6625  10.6625
    11.3816  11.3816

          k = 0.0000-0.7071 0.0000 (  3572 PWs)   bands (ev):

    -0.8013  -0.8013   1.5059   1.5059   1.5059   1.5059   7.4899   7.4899
     7.4899   7.4899   8.4449   8.4449   9.6034   9.6034   9.6034   9.6034
     9.7767   9.7767

          k =-0.3536-0.7071 0.0000 (  3552 PWs)   bands (ev):

    -0.2194  -0.2194  -0.2194  -0.2194   4.3061   4.3061   4.3061   4.3061
     8.0170   8.0170   8.0170   8.0170   9.6152   9.6152   9.6152   9.6152
    12.2616  12.2617

     the Fermi energy is     8.3267 ev

!    total energy              =     -33.52087979 Ry
     estimated scf accuracy    <          6.8E-11 Ry
     smearing contrib. (-TS)   =       0.00028281 Ry
     internal energy E=F+TS    =     -33.52116259 Ry

     convergence has been achieved in   7 iterations

     Forces acting on atoms (cartesian axes, Ry/au):

     atom    1 type  1   force =    -0.00000000   -0.00000000    0.00000000
     atom    2 type  1   force =     0.00000000    0.00000000    0.00000000
     atom    3 type  1   force =    -0.00000000   -0.00000000    0.00000000
     atom    4 type  1   force =     0.00000000    0.00000000    0.00000000
     atom    5 type  1   force =    -0.00000000   -0.00000000    0.00000000
     atom    6 type  1   force =     0.00000000    0.00000000   -0.00000000
     atom    7 type  1   force =     0.00000000   -0.00000000    0.00000000
     atom    8 type  1   force =     0.00000000    0.00000000    0.00000000

     Total force =     0.000000     Total SCF correction =     0.000000


     Computing stress (Cartesian axis) and pressure

          total   stress  (Ry/bohr**3)                   (kbar)     P=        2.98
   0.00002024  -0.00000000   0.00000000            2.98       -0.00        0.00
   0.00000000   0.00002024   0.00000000            0.00        2.98        0.00
  -0.00000000   0.00000000   0.00002024           -0.00        0.00        2.98


     Molecular Dynamics Calculation
     mass Al               =    26.98
     Time step             =    10.00 a.u.,  0.4838 femto-seconds

     Entering Dynamics:    iteration =     1
                           time      =   0.0005 pico-seconds


ATOMIC_POSITIONS (crystal)
Al               0.0000687745        0.0004028600        0.0003280821
Al               0.5000963088        0.0003113805       -0.0003413228
Al               0.0003660329        0.4991284544        0.0001187181
Al               0.4998315462        0.5000304499        0.0000931574
Al              -0.0003129122        0.0003539676        0.4998827258
Al               0.4996703665        0.0001049735        0.4999420417
Al               0.0003421181        0.4998144943        0.4998597675
Al               0.4999377651        0.4998534198        0.5001168303


     kinetic energy (Ekin) =           0.01995091 Ry
     temperature           =         299.99999998 K 
     Ekin + Etot (const)   =         -33.50092887 Ry
     Ions kinetic stress =            2.34 (kbar)
                                      2.03           0.64           0.14
                                      0.64           3.10           1.57
                                      0.14           1.57           1.90



     Linear momentum :   -0.0000000000    0.0000000000    0.0000000000

 %%%%%%%%%%%%%%%%%%%%%%%%%%%%%%%%%%%%%%%%%%%%%%%%%%%%%%%%%%%%%%%%%%%%%%%%%%%%%%
     Error in routine checkallsym (1):
     some of the original symmetry operations not satisfied
 %%%%%%%%%%%%%%%%%%%%%%%%%%%%%%%%%%%%%%%%%%%%%%%%%%%%%%%%%%%%%%%%%%%%%%%%%%%%%%

     stopping ...
