       N       E                     dE             d eps       ncg     rms          rms(c)
DAV:   1     0.124508647745E+04    0.12451E+04   -0.65979E+04  8528   0.109E+03
DAV:   2     0.432966895417E+01   -0.12408E+04   -0.12121E+04  9096   0.298E+02
DAV:   3    -0.102979477504E+03   -0.10731E+03   -0.10644E+03  8408   0.822E+01
DAV:   4    -0.107358229172E+03   -0.43788E+01   -0.43594E+01  9512   0.162E+01
DAV:   5    -0.107488711487E+03   -0.13048E+00   -0.13027E+00  9992   0.282E+00    0.233E+01
DAV:   6    -0.105629802597E+03    0.18589E+01   -0.11413E+00  8344   0.293E+00    0.187E+01
DAV:   7    -0.102710696705E+03    0.29191E+01   -0.11708E+01  8088   0.957E+00    0.720E+00
DAV:   8    -0.102677379000E+03    0.33318E-01   -0.33077E+00  8776   0.464E+00    0.491E+00
DAV:   9    -0.102828599837E+03   -0.15122E+00   -0.47086E-01  9728   0.186E+00    0.360E+00
DAV:  10    -0.102654573571E+03    0.17403E+00   -0.15117E-01  8216   0.114E+00    0.247E+00
DAV:  11    -0.102432912535E+03    0.22166E+00   -0.87952E-01  8120   0.279E+00    0.150E+00
DAV:  12    -0.102441996874E+03   -0.90843E-02   -0.88953E-02  8936   0.647E-01    0.493E-01
DAV:  13    -0.102438510151E+03    0.34867E-02   -0.70810E-03  8496   0.218E-01    0.691E-01
DAV:  14    -0.102438564057E+03   -0.53906E-04   -0.15844E-03  8696   0.101E-01    0.511E-01
DAV:  15    -0.102437761583E+03    0.80247E-03   -0.63119E-03  8184   0.241E-01    0.469E-01
DAV:  16    -0.102437965280E+03   -0.20370E-03   -0.16274E-03  8984   0.840E-02    0.463E-01
DAV:  17    -0.102437973389E+03   -0.81089E-05   -0.14549E-04  8752   0.310E-02    0.460E-01
DAV:  18    -0.102437964910E+03    0.84796E-05   -0.20530E-05  7752   0.105E-02    0.475E-01
DAV:  19    -0.102437788313E+03    0.17660E-03   -0.19295E-04  8216   0.354E-02    0.407E-01
DAV:  20    -0.102437733178E+03    0.55136E-04   -0.11838E-04  8840   0.216E-02    0.374E-01
DAV:  21    -0.102437722959E+03    0.10219E-04   -0.74777E-06  8496   0.653E-03    0.366E-01
DAV:  22    -0.102437718345E+03    0.46134E-05   -0.12885E-06  5344   0.342E-03    0.361E-01
DAV:  23    -0.102437695130E+03    0.23215E-04   -0.80945E-06  7552   0.869E-03    0.328E-01
DAV:  24    -0.102437686963E+03    0.81664E-05   -0.67058E-06  7840   0.588E-03    0.311E-01
DAV:  25    -0.102437683518E+03    0.34457E-05   -0.12737E-06  5288   0.321E-03    0.303E-01
DAV:  26    -0.102437679008E+03    0.45093E-05   -0.92271E-07  5264   0.277E-03    0.293E-01
DAV:  27    -0.102437668221E+03    0.10788E-04   -0.36116E-06  7120   0.389E-03    0.260E-01
DAV:  28    -0.102437659187E+03    0.90341E-05   -0.33447E-06  7016   0.427E-03    0.226E-01
DAV:  29    -0.102437652203E+03    0.69833E-05   -0.25208E-06  6528   0.365E-03    0.197E-01
DAV:  30    -0.102437646925E+03    0.52786E-05   -0.18846E-06  6240   0.309E-03    0.169E-01
DAV:  31    -0.102437641140E+03    0.57852E-05   -0.40420E-06  7448   0.439E-03    0.127E-01
DAV:  32    -0.102437637967E+03    0.31721E-05   -0.20381E-06  6232   0.333E-03    0.838E-02
DAV:  33    -0.102437635845E+03    0.21226E-05   -0.39911E-06  7120   0.442E-03    0.404E-02
DAV:  34    -0.102437635612E+03    0.23289E-06   -0.91818E-07  4568   0.242E-03
   1 F= -.10755116E+03 E0= -.10755116E+03  d E =-.468396E-08
