8
Lattice="-3.956067800811 0.000000000000 3.956067800811 0.000000000000 3.956067800811 3.956067800811 -3.956067800811 3.956067800811 0.000000000000" Properties=species:S:1:pos:R:3 pbc="T T T" time_fs=0.0
Al 0.0000000000 0.0000000000 0.0000000000
Al -1.9780339004 0.0000000000 1.9780339004
Al 0.0000000000 1.9780339004 1.9780339004
Al -1.9780339004 1.9780339004 3.9560678008
Al -1.9780339004 1.9780339004 0.0000000000
Al -3.9560678008 1.9780339004 1.9780339004
Al -1.9780339004 3.9560678008 1.9780339004
Al -3.9560678008 3.9560678008 3.9560678008
8
Lattice="-3.956067800811 0.000000000000 3.956067800811 0.000000000000 3.956067800811 3.956067800811 -3.956067800811 3.956067800811 0.000000000000" Properties=species:S:1:pos:R:3 pbc="T T T" time_fs=0.9675537305999999
Al -0.0031399832 0.0057833146 0.0037316361
Al -1.9760953172 -0.0002369075 1.9812595934
Al -0.0038354156 1.9720774271 1.9740342130
Al -1.9774381467 1.9790118977 3.9549758956
Al -1.9746302057 1.9799066503 0.0003248363
Al -3.9530011215 1.9784058906 1.9762563616
Al -1.9796312463 3.9534905160 1.9792730393
Al -3.9564997662 3.9558324140 3.9544156274
8
Lattice="-3.956067800811 0.000000000000 3.956067800811 0.000000000000 3.956067800811 3.956067800811 -3.956067800811 3.956067800811 0.000000000000" Properties=species:S:1:pos:R:3 pbc="T T T" time_fs=1.9351074611999999
Al -0.0062736668 0.0115533214 0.0074517217
Al -1.9741681109 -0.0004792495 1.9844818981
Al -0.0076599608 1.9661363620 1.9700456611
Al -1.9768418035 1.9799898575 3.9538892730
Al -1.9712383895 1.9817785136 0.0006439343
Al -3.9499388584 1.9787741737 1.9744779406
Al -1.9812230303 3.9509195364 1.9805104894
Al -3.9569273835 3.9555986887 3.9527702850
8
Lattice="-3.956067800811 0.000000000000 3.956067800811 0.000000000000 3.956067800811 3.956067800811 -3.956067800811 3.956067800811 0.000000000000" Properties=species:S:1:pos:R:3 pbc="T T T" time_fs=2.9026611918
Al -0.0093947674 0.0172967268 0.0111487153
Al -1.9722636147 -0.0007324351 1.9876974299
Al -0.0114628002 1.9602260900 1.9660793744
Al -1.9762442861 1.9809677349 3.9528131972
Al -1.9678702879 1.9836486026 0.0009515763
Al -3.9468854221 1.9791350537 1.9726977682
Al -1.9828037041 3.9483611529 1.9817445611
Al -3.9573463208 3.9553682774 3.9511385807
8
Lattice="-3.956067800811 0.000000000000 3.956067800811 0.000000000000 3.956067800811 3.956067800811 -3.956067800811 3.956067800811 0.000000000000" Properties=species:S:1:pos:R:3 pbc="T T T" time_fs=3.8702149223999998
Al -0.0124970338 0.0230002605 0.0148110973
Al -1.9703930700 -0.0010018239 1.9909028149
Al -0.0152331702 1.9543619494 1.9621464745
Al -1.9756450182 1.9819454656 3.9517528967
Al -1.9645376584 1.9855160379 0.0012420906
Al -3.9438452105 1.9794848646 1.9709149948
Al -1.9843677537 3.9458216279 1.9829735610
Al -3.9577522882 3.9551428211 3.9495272739
8
Lattice="-3.956067800811 0.000000000000 3.956067800811 0.000000000000 3.956067800811 3.956067800811 -3.956067800811 3.956067800811 0.000000000000" Properties=species:S:1:pos:R:3 pbc="T T T" time_fs=4.8377686529999995
Al -0.0155742604 0.0286506916 0.0184273792
Al -1.9685675844 -0.0012927009 1.9940946962
Al -0.0189604111 1.9485592074 1.9582580689
Al -1.9750434328 1.9829229570 3.9507135503
Al -1.9612521370 1.9873799460 0.0015098677
Al -3.9408226073 1.9798199768 1.9691288013
Al -1.9859097114 3.9433071837 1.9841957854
Al -3.9581410581 3.9549239410 3.9479430535
8
Lattice="-3.956067800811 0.000000000000 3.956067800811 0.000000000000 3.956067800811 3.956067800811 -3.956067800811 3.956067800811 0.000000000000" Properties=species:S:1:pos:R:3 pbc="T T T" time_fs=5.8053223836
Al -0.0186203036 0.0342348435 0.0219861202
Al -1.9667980859 -0.0016102501 1.9972697361
Al -0.0226340066 1.9428330350 1.9544252441
Al -1.9744389761 1.9839000748 3.9497002640
Al -1.9580252017 1.9892394636 0.0017493898
Al -3.9378219738 1.9801368151 1.9673384120
Al -1.9874241705 3.9408239876 1.9854095216
Al -3.9585084854 3.9547132337 3.9463925158
8
Lattice="-3.956067800811 0.000000000000 3.956067800811 0.000000000000 3.956067800811 3.956067800811 -3.956067800811 3.956067800811 0.000000000000" Properties=species:S:1:pos:R:3 pbc="T T T" time_fs=6.7728761142
Al -0.0216290969 0.0397396102 0.0254759393
Al -1.9650952764 -0.0019595250 2.0004246219
Al -0.0262436190 1.9371984753 1.9506590525
Al -1.9738311120 1.9848766381 3.9487180578
Al -1.9548681279 1.9910937327 0.0019552505
Al -3.9348476418 1.9804318697 1.9655431013
Al -1.9889058029 3.9383781384 1.9866130409
Al -3.9588505258 3.9545122635 3.9448821390
8
Lattice="-3.956067800811 0.000000000000 3.956067800811 0.000000000000 3.956067800811 3.956067800811 -3.956067800811 3.956067800811 0.000000000000" Properties=species:S:1:pos:R:3 pbc="T T T" time_fs=7.7404298447999995
Al -0.0245946714 0.0451519837 0.0288855447
Al -1.9634695858 -0.0023454236 2.0035560655
Al -0.0297791283 1.9316704125 1.9469704980
Al -1.9732193271 1.9858524070 3.9477718475
Al -1.9517919505 1.9929419040 0.0021221815
Al -3.9319039092 1.9807017151 1.9637422099
Al -1.9903493741 3.9359756513 1.9878045982
Al -3.9591632573 3.9543225542 3.9434182582
8
Lattice="-3.956067800811 0.000000000000 3.956067800811 0.000000000000 3.956067800811 3.956067800811 -3.956067800811 3.956067800811 0.000000000000" Properties=species:S:1:pos:R:3 pbc="T T T" time_fs=8.7079835754
Al -0.0275111700 0.0504590751 0.0322037524
Al -1.9619311252 -0.0027726592 2.0066608069
Al -0.0332306689 1.9262635340 1.9433705167
Al -1.9726031320 1.9868270749 3.9468664246
Al -1.9488074217 1.9947831287 0.0022450788
Al -3.9289950296 1.9809430214 1.9619351517
Al -1.9917497600 3.9336224457 1.9889824312
Al -3.9594428967 3.9541455835 3.9420070418
8
Lattice="-3.956067800811 0.000000000000 3.956067800811 0.000000000000 3.956067800811 3.956067800811 -3.956067800811 3.956067800811 0.000000000000" Properties=species:S:1:pos:R:3 pbc="T T T" time_fs=9.675537305999999
Al -0.0303728656 0.0556481448 0.0354195169
Al -1.9604896425 -0.0032457313 2.0097356116
Al -0.0365886670 1.9209922940 1.9398699541
Al -1.9719820693 1.9878002628 3.9460064432
Al -1.9459249714 1.9966165545 0.0023190252
Al -3.9261252078 1.9811525759 1.9601214299
Al -1.9931019633 3.9313243303 1.9901447552
Al -3.9596858167 3.9539827727 3.9406544673
8
Lattice="-3.956067800811 0.000000000000 3.956067800811 0.000000000000 3.956067800811 3.956067800811 -3.956067800811 3.956067800811 0.000000000000" Properties=species:S:1:pos:R:3 pbc="T T T" time_fs=10.6430910366
Al -0.0331741810 0.0607066374 0.0385219641
Al -1.9591544795 -0.0037688983 2.0127772711
Al -0.0398438787 1.9158708711 1.9364795387
Al -1.9713557185 1.9887715122 3.9451964027
Al -1.9431546689 1.9984413217 0.0023393186
Al -3.9232985883 1.9813272932 1.9583006453
Al -1.9944011300 3.9290869872 1.9912897650
Al -3.9598885592 3.9538354792 3.9393662981
8
Lattice="-3.956067800811 0.000000000000 3.956067800811 0.000000000000 3.956067800811 3.956067800811 -3.956067800811 3.956067800811 0.000000000000" Properties=species:S:1:pos:R:3 pbc="T T T" time_fs=11.6106447672
Al -0.0359097029 0.0656222130 0.0415004267
Al -1.9579345291 -0.0043461491 2.0157826024
Al -0.0429874235 1.9109131226 1.9332098479
Al -1.9707236987 1.9897402793 3.9444406288
Al -1.9405061843 2.0002565519 0.0023014974
Al -3.9205192469 1.9814642365 1.9564725088
Al -1.9956425659 3.9269159613 1.9924156338
Al -3.9600478519 3.9537049879 3.9381480575
8
Lattice="-3.956067800811 0.000000000000 3.956067800811 0.000000000000 3.956067800811 3.956067800811 -3.956067800811 3.956067800811 0.000000000000" Properties=species:S:1:pos:R:3 pbc="T T T" time_fs=12.578198497799999
Al -0.0385742016 0.0703827899 0.0443444826
Al -1.9568381943 -0.0049811775 2.0187484423
Al -0.0460108215 1.9061325394 1.9300712742
Al -1.9700856772 1.9907059325 3.9437432622
Al -1.9379887536 2.0020613401 0.0022013634
Al -3.9177911837 1.9815606324 1.9546368530
Al -1.9968217534 3.9248166422 1.9935205153
Al -3.9601606180 3.9535925042 3.9370050102
8
Lattice="-3.956067800811 0.000000000000 3.956067800811 0.000000000000 3.956067800811 3.956067800811 -3.956067800811 3.956067800811 0.000000000000" Properties=species:S:1:pos:R:3 pbc="T T T" time_fs=13.5457522284
Al -0.0411626473 0.0749765869 0.0470439996
Al -1.9558733525 -0.0056773557 2.0216716481
Al -0.0489060250 1.9015421945 1.9270739835
Al -1.9694413734 1.9916677503 3.9431082421
Al -1.9356111422 2.0038547471 0.0020350084
Al -3.9151183084 1.9816138846 1.9527936391
Al -1.9979343666 3.9227942533 1.9946025445
Al -3.9602239879 3.9534991422 3.9359421378
8
Lattice="-3.956067800811 0.000000000000 3.956067800811 0.000000000000 3.956067800811 3.956067800811 -3.956067800811 3.956067800811 0.000000000000" Properties=species:S:1:pos:R:3 pbc="T T T" time_fs=14.513305959
Al -0.0436702274 0.0793921682 0.0495891809
Al -1.9550473188 -0.0064377087 2.0245490912
Al -0.0516654503 1.8971546914 1.9242278728
Al -1.9687905654 1.9926249205 3.9425392927
Al -1.9333816128 2.0056357854 0.0017988355
Al -3.9125044359 1.9816215930 1.9509429724
Al -1.9989762876 3.9208538349 1.9956598393
Al -3.9602353058 3.9534259190 3.9349641188
8
Lattice="-3.956067800811 0.000000000000 3.956067800811 0.000000000000 3.956067800811 3.956067800811 -3.956067800811 3.956067800811 0.000000000000" Properties=species:S:1:pos:R:3 pbc="T T T" time_fs=15.480859689599999
Al -0.0460923623 0.0836184936 0.0519706131
Al -1.9543668114 -0.0072648956 2.0273776540
Al -0.0542820082 1.8929821108 1.9215425185
Al -1.9681330934 1.9935765395 3.9420399112
Al -1.9313078951 2.0074034107 0.0014895830
Al -3.9099532718 1.9815815651 1.9490851049
Al -1.9999436218 3.9190002332 1.9966905065
Al -3.9601921396 3.9533737455 3.9340753122
8
Lattice="-3.956067800811 0.000000000000 3.956067800811 0.000000000000 3.956067800811 3.956067800811 -3.956067800811 3.956067800811 0.000000000000" Properties=species:S:1:pos:R:3 pbc="T T T" time_fs=16.448413420199998
Al -0.0484247226 0.0876449723 0.0541793209
Al -1.9538379227 -0.0081611804 2.0301542265
Al -0.0567491327 1.8890359521 1.9190271276
Al -1.9674688685 1.9945216164 3.9416133549
Al -1.9293971515 2.0091565065 0.0011043450
Al -3.9074684055 1.9814918332 1.9472204467
Al -2.0008327124 3.9172380835 1.9976926449
Al -3.9600922864 3.9533434191 3.9332797355
8
Lattice="-3.956067800811 0.000000000000 3.956067800811 0.000000000000 3.956067800811 3.956067800811 -3.956067800811 3.956067800811 0.000000000000" Properties=species:S:1:pos:R:3 pbc="T T T" time_fs=17.4159671508
Al -0.0506632446 0.0914615144 0.0562068223
Al -1.9534660900 -0.0091284176 2.0328757017
Al -0.0590608079 1.8853270780 1.9166904813
Al -1.9667978751 1.9954590728 3.9412626309
Al -1.9276559524 2.0108938750 0.0006405922
Al -3.9050532969 1.9813506673 1.9453495736
Al -2.0016401573 3.9155717984 1.9986643517
Al -3.9599337787 3.9533356154 3.9325810496
8
Lattice="-3.956067800811 0.000000000000 3.956067800811 0.000000000000 3.956067800811 3.956067800811 -3.956067800811 3.956067800811 0.000000000000" Properties=species:S:1:pos:R:3 pbc="T T T" time_fs=18.3835208814
Al -0.0528041447 0.0950585892 0.0580451793
Al -1.9532560675 -0.0101680310 2.0355389704
Al -0.0612115915 1.8818656536 1.9145408771
Al -1.9661201761 1.9963877478 3.9409904843
Al -1.9260902479 2.0126142225 0.0000961910
Al -3.9027112692 1.9811565861 1.9434732316
Al -2.0023628197 3.9140055548 1.9996037259
Al -3.9597148871 3.9533508803 3.9319825432
8
Lattice="-3.956067800811 0.000000000000 3.956067800811 0.000000000000 3.956067800811 3.956067800811 -3.956067800811 3.956067800811 0.000000000000" Properties=species:S:1:pos:R:3 pbc="T T T" time_fs=19.351074611999998
Al -0.0548439348 0.0984272818 0.0596870606
Al -1.9532119067 -0.0112809960 2.0381409209
Al -0.0631966359 1.8786610923 1.9125860736
Al -1.9654359176 1.9973063998 3.9407993900
Al -1.9247053437 2.0143161478 -0.0005305807
Al -3.9004454986 1.9809083718 1.9415923441
Al -2.0029978402 3.9125432794 2.0005088750
Al -3.9594341261 3.9533896268 3.9314871197
8
Lattice="-3.956067800811 0.000000000000 3.956067800811 0.000000000000 3.956067800811 3.956067800811 -3.956067800811 3.956067800811 0.000000000000" Properties=species:S:1:pos:R:3 pbc="T T T" time_fs=20.3186283426
Al -0.0567794319 0.1015593466 0.0611257950
Al -1.9533369334 -0.0124678238 2.0406784255
Al -0.0650117067 1.8757219970 1.9108332314
Al -1.9647453349 1.9982137148 3.9406915420
Al -1.9235058830 2.0159981278 -0.0012410121
Al -3.8982590025 1.9806050794 1.9397080168
Al -2.0035426572 3.9111886371 2.0013779234
Al -3.9590902540 3.9534521239 3.9310972812
8
Lattice="-3.956067800811 0.000000000000 3.956067800811 0.000000000000 3.956067800811 3.956067800811 -3.956067800811 3.956067800811 0.000000000000" Properties=species:S:1:pos:R:3 pbc="T T T" time_fs=21.2861820732
Al -0.0586077765 0.1044472709 0.0623554287
Al -1.9536337319 -0.0137285522 2.0431483529
Al -0.0666532062 1.8730561034 1.9092888517
Al -1.9640487505 1.9991083060 3.9406688500
Al -1.9224958158 2.0176585124 -0.0020359555
Al -3.8961546383 1.9802460457 1.9378215386
Al -2.0039950027 3.9099450218 2.0022090134
Al -3.9586822818 3.9535384964 3.9308151234
8
Lattice="-3.956067800811 0.000000000000 3.956067800811 0.000000000000 3.956067800811 3.956067800811 -3.956067800811 3.956067800811 0.000000000000" Properties=species:S:1:pos:R:3 pbc="T T T" time_fs=22.253735803799998
Al -0.0603264391 0.1070843264 0.0633707769
Al -1.9541041301 -0.0150627361 2.0455475573
Al -0.0681181793 1.8706702278 1.9079587224
Al -1.9633465790 1.9999887190 3.9407329328
Al -1.9216783889 2.0192955103 -0.0029158083
Al -3.8941350910 1.9798308928 1.9359343834
Al -2.0043529224 3.9088155451 2.0030003152
Al -3.9582094735 3.9536487188 3.9306423236
8
Lattice="-3.956067800811 0.000000000000 3.956067800811 0.000000000000 3.956067800811 3.956067800811 -3.956067800811 3.956067800811 0.000000000000" Properties=species:S:1:pos:R:3 pbc="T T T" time_fs=23.2212895344
Al -0.0619332312 0.1094646180 0.0641674763
Al -1.9547491899 -0.0164694350 2.0478728782
Al -0.0694043274 1.8685702232 1.9068478673
Al -1.9626393290 2.0008534387 3.9408851093
Al -1.9210561303 2.0209071807 -0.0038805065
Al -3.8922028680 1.9793595423 1.9340482170
Al -2.0046147797 3.9078030248 2.0037500296
Al -3.9576713470 3.9537826103 3.9305801318
8
Lattice="-3.956067800811 0.000000000000 3.956067800811 0.000000000000 3.956067800811 3.956067800811 -3.956067800811 3.956067800811 0.000000000000" Properties=species:S:1:pos:R:3 pbc="T T T" time_fs=24.188843265
Al -0.0634263094 0.1115831315 0.0647420287
Al -1.9555692001 -0.0179472111 2.0501211400
Al -0.0705100151 1.8667609342 1.9059604964
Al -1.9619276071 2.0017008925 3.9411263962
Al -1.9206308372 2.0224914276 -0.0049295141
Al -3.8903602922 1.9788322175 1.9321648929
Al -2.0047792663 3.9069099788 2.0044563969
Al -3.9570676764 3.9539398327 3.9306293670
8
Lattice="-3.956067800811 0.000000000000 3.956067800811 0.000000000000 3.956067800811 3.956067800811 -3.956067800811 3.956067800811 0.000000000000" Properties=species:S:1:pos:R:3 pbc="T T T" time_fs=25.156396995599998
Al -0.0648041809 0.1134357730 0.0650918448
Al -1.9565636701 -0.0194941250 2.0522891518
Al -0.0714342716 1.8652461590 1.9052999624
Al -1.9612121186 2.0025294553 3.9414575036
Al -1.9204035682 2.0240459926 -0.0060618226
Al -3.8886094964 1.9782494491 1.9302864570
Al -2.0048454058 3.9061386125 2.0051176964
Al -3.9563984917 3.9541198860 3.9307904099
8
Lattice="-3.956067800811 0.000000000000 3.956067800811 0.000000000000 3.956067800811 3.956067800811 -3.956067800811 3.956067800811 0.000000000000" Properties=species:S:1:pos:R:3 pbc="T T T" time_fs=26.1239507262
Al -0.0660657076 0.1150194087 0.0652152776
Al -1.9577313332 -0.0211077354 2.0543737119
Al -0.0721767943 1.8640286217 1.9048687257
Al -1.9604936686 2.0033374528 3.9418788292
Al -1.9203746363 2.0255684540 -0.0072759445
Al -3.8869524171 1.9776120799 1.9284151455
Al -2.0048125637 3.9054908151 2.0057322569
Al -3.9556640821 3.9543221068 3.9310632009
8
Lattice="-3.956067800811 0.000000000000 3.956067800811 0.000000000000 3.956067800811 3.956067800811 -3.956067800811 3.956067800811 0.000000000000" Properties=species:S:1:pos:R:3 pbc="T T T" time_fs=27.0915044568
Al -0.0672101043 0.1163318861 0.0651116500
Al -1.9590701484 -0.0227851074 2.0563716080
Al -0.0727379419 1.8631099500 1.9046683248
Al -1.9597731634 2.0041231663 3.9423904607
Al -1.9205436122 2.0270562259 -0.0085699169
Al -3.8853907930 1.9769212639 1.9265533836
Al -2.0046804461 3.9049681509 2.0062984545
Al -3.9548649936 3.9545456673 3.9314472386
8
Lattice="-3.956067800811 0.000000000000 3.956067800811 0.000000000000 3.956067800811 3.956067800811 -3.956067800811 3.956067800811 0.000000000000" Properties=species:S:1:pos:R:3 pbc="T T T" time_fs=28.059058187399998
Al -0.0682369369 0.1173720569 0.0647812709
Al -1.9605773117 -0.0245228149 2.0582796239
Al -0.0731187265 1.8624906616 1.9046993605
Al -1.9590516079 2.0048848371 3.9429921739
Al -1.9209093254 2.0285065599 -0.0099413076
Al -3.8839261613 1.9761784658 1.9247037787
Al -2.0044491043 3.9045718593 2.0068147205
Al -3.9540020284 3.9547895779 3.9319415821
8
Lattice="-3.956067800811 0.000000000000 3.956067800811 0.000000000000 3.956067800811 3.956067800811 -3.956067800811 3.956067800811 0.000000000000" Properties=species:S:1:pos:R:3 pbc="T T T" time_fs=29.026611918
Al -0.0691461188 0.1181397849 0.0642254481
Al -1.9622492654 -0.0263169538 2.0600945448
Al -0.0733208036 1.8621701612 1.9049614801
Al -1.9583301058 2.0056206673 3.9436834350
Al -1.9214698705 2.0299165487 -0.0113872195
Al -3.8825598589 1.9753854606 1.9228691218
Al -2.0041189329 3.9043028487 2.0072795395
Al -3.9530762473 3.9550526861 3.9325448539
8
Lattice="-3.956067800811 0.000000000000 3.956067800811 0.000000000000 3.956067800811 3.956067800811 -3.956067800811 3.956067800811 0.000000000000" Properties=species:S:1:pos:R:3 pbc="T T T" time_fs=29.9941656486
Al -0.0699379048 0.1186359514 0.0634464897
Al -1.9640817117 -0.0281631533 2.0618131623
Al -0.0733464572 1.8621467405 1.9054533767
Al -1.9576098581 2.0063288264 3.9444633971
Al -1.9222226188 2.0312831352 -0.0129043007
Al -3.8812930160 1.9745443286 1.9210523784
Al -2.0036906719 3.9041616962 2.0076914563
Al -3.9520889650 3.9553336792 3.9332552438
8
Lattice="-3.956067800811 0.000000000000 3.956067800811 0.000000000000 3.956067800811 3.956067800811 -3.956067800811 3.956067800811 0.000000000000" Properties=species:S:1:pos:R:3 pbc="T T T" time_fs=30.961719379199998
Al -0.0706128839 0.1188624477 0.0624476981
Al -1.9660696322 -0.0300565918 2.0634322859
Al -0.0731985841 1.8624175942 1.9061727972
Al -1.9568921630 2.0070074534 3.9453309078
Al -1.9231642274 2.0326031179 -0.0144887581
Al -3.8801265615 1.9736574525 1.9192566867
Al -2.0031654027 3.9041486431 2.0080490742
Al -3.9510417480 3.9556310865 3.9340705123
8
Lattice="-3.956067800811 0.000000000000 3.956067800811 0.000000000000 3.956067800811 3.956067800811 -3.956067800811 3.956067800811 0.000000000000" Properties=species:S:1:pos:R:3 pbc="T T T" time_fs=31.9292731098
Al -0.0711719665 0.1188221568 0.0612333498
Al -1.9682073101 -0.0319920169 2.0649487492
Al -0.0728806733 1.8629788400 1.9071165587
Al -1.9561784116 2.0076546610 3.9462845096
Al -1.9242906632 2.0338731684 -0.0161363709
Al -3.8790612210 1.9727275115 1.9174853487
Al -2.0025445449 3.9042635993 2.0083510571
Al -3.9499364128 3.9559432828 3.9349880015
8
Lattice="-3.956067800811 0.000000000000 3.956067800811 0.000000000000 3.956067800811 3.956067800811 -3.956067800811 3.956067800811 0.000000000000" Properties=species:S:1:pos:R:3 pbc="T T T" time_fs=32.896826840399996
Al -0.0716163754 0.1185189344 0.0598086764
Al -1.9704883511 -0.0339637646 2.0663594244
Al -0.0723967837 1.8638255477 1.9082805715
Al -1.9554700855 2.0082685363 3.9473224453
Al -1.9255972147 2.0350898424 -0.0178425110
Al -3.8780975181 1.9717574711 1.9157418234
Al -2.0018298535 3.9045061443 2.0085961315
Al -3.9487750209 3.9562684913 3.9360046417
8
Lattice="-3.956067800811 0.000000000000 3.956067800811 0.000000000000 3.956067800811 3.956067800811 -3.956067800811 3.956067800811 0.000000000000" Properties=species:S:1:pos:R:3 pbc="T T T" time_fs=33.864380571
Al -0.0719476300 0.1179575716 0.0581798268
Al -1.9729057102 -0.0359657869 2.0676612314
Al -0.0717515182 1.8649517769 1.9096598751
Al -1.9547687554 2.0088471456 3.9484426641
Al -1.9270785211 2.0362495969 -0.0196021617
Al -3.8772357805 1.9707505751 1.9140297179
Al -2.0010234099 3.9048755298 2.0087830846
Al -3.9475598778 3.9566047935 3.9371169650
8
Lattice="-3.956067800811 0.000000000000 3.956067800811 0.000000000000 3.956067800811 3.956067800811 -3.956067800811 3.956067800811 0.000000000000" Properties=species:S:1:pos:R:3 pbc="T T T" time_fs=34.8319343016
Al -0.0721675319 0.1171437566 0.0563538266
Al -1.9754517239 -0.0379916742 2.0688511533
Al -0.0709499995 1.8663506215 1.9112486794
Al -1.9540760721 2.0093885366 3.9496428263
Al -1.9287285962 2.0373488105 -0.0214099418
Al -3.8764761415 1.9697103349 1.9123527784
Al -2.0001276134 3.9053706851 2.0089107659
Al -3.9462935255 3.9569501321 3.9383211153
8
Lattice="-3.956067800811 0.000000000000 3.956067800811 0.000000000000 3.956067800811 3.956067800811 -3.956067800811 3.956067800811 0.000000000000" Properties=species:S:1:pos:R:3 pbc="T T T" time_fs=35.799488032199996
Al -0.0722781503 0.1160840285 0.0543385313
Al -1.9781181374 -0.0400346877 2.0699262483
Al -0.0699978384 1.8680142611 1.9130404114
Al -1.9533937659 2.0098907428 3.9509203133
Al -1.9305408563 2.0383838037 -0.0232601299
Al -3.8758185449 1.9686405141 1.9107148773
Al -1.9991451734 3.9059902220 2.0089780883
Al -3.9449787363 3.9573023183 3.9396128640
8
Lattice="-3.956067800811 0.000000000000 3.956067800811 0.000000000000 3.956067800811 3.956067800811 -3.956067800811 3.956067800811 0.000000000000" Properties=species:S:1:pos:R:3 pbc="T T T" time_fs=36.7670417628
Al -0.0722818053 0.1147857234 0.0521425703
Al -1.9808961388 -0.0420877860 2.0708836646
Al -0.0689011084 1.8699340158 1.9150277701
Al -1.9527236405 2.0103517865 3.9522722334
Al -1.9325081510 2.0393508593 -0.0251466943
Al -3.8752627530 1.9675451177 1.9091200052
Al -1.9980790981 3.9067324420 2.0089840275
Al -3.9436185080 3.9576590452 3.9409876264
8
Lattice="-3.956067800811 0.000000000000 3.956067800811 0.000000000000 3.956067800811 3.956067800811 -3.956067800811 3.956067800811 0.000000000000" Properties=species:S:1:pos:R:3 pbc="T T T" time_fs=37.7345954934
Al -0.0721810498 0.1132569141 0.0497752866
Al -1.9837763955 -0.0441436635 2.0717206582
Al -0.0676663105 1.8721004092 1.9172027861
Al -1.9520675634 2.0107696834 3.9536954348
Al -1.9346227982 2.0402462500 -0.0270633186
Al -3.8748083492 1.9664283736 1.9075722542
Al -1.9969326815 3.9075953446 2.0089276243
Al -3.9422160547 3.9580178918 3.9424404773
8
Lattice="-3.956067800811 0.000000000000 3.956067800811 0.000000000000 3.956067800811 3.956067800811 -3.956067800811 3.956067800811 0.000000000000" Properties=species:S:1:pos:R:3 pbc="T T T" time_fs=38.702149223999996
Al -0.0719786534 0.1115063521 0.0472466729
Al -1.9867490909 -0.0461947822 2.0724346086
Al -0.0663003436 1.8745032306 1.9195568862
Al -1.9514274653 2.0111424494 3.9551865131
Al -1.9368766179 2.0410662638 -0.0290034395
Al -3.8744547416 1.9652947176 1.9060758031
Al -1.9957094938 3.9085766358 2.0088079861
Al -3.9407747963 3.9583763361 3.9439661724
8
Lattice="-3.956067800811 0.000000000000 3.956067800811 0.000000000000 3.956067800811 3.956067800811 -3.956067800811 3.956067800811 0.000000000000" Properties=species:S:1:pos:R:3 pbc="T T T" time_fs=39.6697029546
Al -0.0716775836 0.1095433987 0.0445673037
Al -1.9898039593 -0.0482334044 2.0730230337
Al -0.0648104726 1.8771316021 1.9220809520
Al -1.9508053266 2.0114681038 3.9567418230
Al -1.9392609673 2.0418072266 -0.0309602701
Al -3.8742011778 1.9641487722 1.9046349071
Al -1.9944133622 3.9096737361 2.0086242869
Al -3.9392983526 3.9587317670 3.9455591662
8
Lattice="-3.956067800811 0.000000000000 3.956067800811 0.000000000000 3.956067800811 3.956067800811 -3.956067800811 3.956067800811 0.000000000000" Properties=species:S:1:pos:R:3 pbc="T T T" time_fs=40.6372566852
Al -0.0712809890 0.1073779627 0.0417482680
Al -1.9929303250 -0.0502516328 2.0734836062
Al -0.0632042964 1.8799740451 1.9247653889
Al -1.9502031735 2.0117446773 3.9583574914
Al -1.9417667766 2.0424655297 -0.0329268405
Al -3.8740467503 1.9629953304 1.9032538806
Al -1.9930483602 3.9108837928 2.0083757750
Al -3.9377905322 3.9590814977 3.9472136341
8
Lattice="-3.956067800811 0.000000000000 3.956067800811 0.000000000000 3.956067800811 3.956067800811 -3.956067800811 3.956067800811 0.000000000000" Properties=species:S:1:pos:R:3 pbc="T T T" time_fs=41.604810415799996
Al -0.0707921820 0.1050204280 0.0388010956
Al -1.9961171417 -0.0522414478 2.0738141729
Al -0.0614897129 1.8830185491 1.9276001904
Al -1.9496230680 2.0119702202 3.9600294285
Al -1.9443845906 2.0430376566 -0.0348960290
Al -3.8739904001 1.9618393322 1.9019370777
Al -1.9916187904 3.9122036897 2.0080617720
Al -3.9362553172 3.9594227750 3.9489234952
8
Lattice="-3.956067800811 0.000000000000 3.956067800811 0.000000000000 3.956067800811 3.956067800811 -3.956067800811 3.956067800811 0.000000000000" Properties=species:S:1:pos:R:3 pbc="T T T" time_fs=42.5723641464
Al -0.0702146258 0.1024816005 0.0357376994
Al -1.9993530256 -0.0541947373 2.0740127691
Al -0.0596748965 1.8862526258 1.9305749947
Al -1.9490671032 2.0121428076 3.9617533384
Al -1.9471045945 2.0435202087 -0.0368605913
Al -3.8740309265 1.9606858476 1.9006888829
Al -1.9901291722 3.9136300559 2.0076816793
Al -3.9346968595 3.9597527949 3.9506824306
8
Lattice="-3.956067800811 0.000000000000 3.956067800811 0.000000000000 3.956067800811 3.956067800811 -3.956067800811 3.956067800811 0.000000000000" Properties=species:S:1:pos:R:3 pbc="T T T" time_fs=43.539917877
Al -0.0695519109 0.0997726206 0.0325702841
Al -2.0026263144 -0.0561033529 2.0740776375
Al -0.0577682518 1.8896634011 1.9336791673
Al -1.9485373885 2.0122605513 3.9635247425
Al -1.9499166755 2.0439099351 -0.0388132095
Al -3.8741669927 1.9595400485 1.8995136812
Al -1.9885842166 3.9151592810 2.0072349827
Al -3.9331194526 3.9600687174 3.9524839175
8
Lattice="-3.956067800811 0.000000000000 3.956067800811 0.000000000000 3.956067800811 3.956067800811 -3.956067800811 3.956067800811 0.000000000000" Properties=species:S:1:pos:R:3 pbc="T T T" time_fs=44.507471607599996
Al -0.0688077456 0.0969049109 0.0293112896
Al -2.0059250986 -0.0579591356 2.0740072436
Al -0.0557783881 1.8932376636 1.9369018481
Al -1.9480360459 2.0123216096 3.9653389873
Al -1.9528104504 2.0442037566 -0.0407465188
Al -3.8743971353 1.9584071913 1.8984158494
Al -1.9869888143 3.9167875277 2.0067212552
Al -3.9315275254 3.9603676782 3.9543212483
8
Lattice="-3.956067800811 0.000000000000 3.956067800811 0.000000000000 3.956067800811 3.956067800811 -3.956067800811 3.956067800811 0.000000000000" Properties=species:S:1:pos:R:3 pbc="T T T" time_fs=45.4750253382
Al -0.0679859394 0.0938901135 0.0259733254
Al -2.0092372622 -0.0597539577 2.0738002895
Al -0.0537140925 1.8969619272 1.9402320126
Al -1.9475651963 2.0123241933 3.9671912614
Al -1.9557753041 2.0443987868 -0.0426531425
Al -3.8747197685 1.9572925918 1.8973997338
Al -1.9853480170 3.9185107430 2.0061401663
Al -3.9299256233 3.9606468057 3.9561875573
8
Lattice="-3.956067800811 0.000000000000 3.956067800811 0.000000000000 3.956067800811 3.956067800811 -3.956067800811 3.956067800811 0.000000000000" Properties=species:S:1:pos:R:3 pbc="T T T" time_fs=46.4425790688
Al -0.0670903909 0.0907400324 0.0225691105
Al -2.0125505204 -0.0614797551 2.0734557254
Al -0.0515842999 1.9008224868 1.9436585188
Al -1.9471269557 2.0122665791 3.9690766106
Al -1.9588004276 2.0444923554 -0.0445257231
Al -3.8751331926 1.9562016052 1.8964696349
Al -1.9836670189 3.9203246673 2.0054914835
Al -3.9283183976 3.9609032325 3.9580758435
8
Lattice="-3.956067800811 0.000000000000 3.956067800811 0.000000000000 3.956067800811 3.956067800811 -3.956067800811 3.956067800811 0.000000000000" Properties=species:S:1:pos:R:3 pbc="T T T" time_fs=47.410132799399996
Al -0.0661250775 0.0874665845 0.0191114178
Al -2.0158524571 -0.0631285623 2.0729727667
Al -0.0493980692 1.9048054709 1.9471701572
Al -1.9467234210 2.0121471150 3.9709899505
Al -1.9618748533 2.0444820268 -0.0463569537
Al -3.8756355994 1.9551396071 1.8956297910
Al -1.9819511426 3.9222248525 2.0047750811
Al -3.9267105828 3.9611341086 3.9599789930
8
Lattice="-3.956067800811 0.000000000000 3.956067800811 0.000000000000 3.956067800811 3.956067800811 -3.956067800811 3.956067800811 0.000000000000" Properties=species:S:1:pos:R:3 pbc="T T T" time_fs=48.37768653
Al -0.0650940432 0.0840817464 0.0156130200
Al -2.0191305649 -0.0646925458 2.0723509001
Al -0.0471645576 1.9088968916 1.9507556945
Al -1.9463566638 2.0119642347 3.9729260845
Al -1.9649874918 2.0443656180 -0.0481396073
Al -3.8762250788 1.9541119698 1.8948843606
Al -1.9802058153 3.9242066704 2.0039909442
Al -3.9251069884 3.9613366185 3.9618898065
