
     Program PWSCF v.7.5 starts on  3Oct2026 at  2:20:27 

     This program is part of the open-source Quantum ESPRESSO suite
     for quantum simulation of materials; please cite
         "P. Giannozzi et al., J. Phys.:Condens. Matter 21 395502 (2009);
         "P. Giannozzi et al., J. Phys.:Condens. Matter 29 465901 (2017);
         "P. Giannozzi et al., J. Chem. Phys. 152 154105 (2020);
          URL http://www.quantum-espresso.org", 
     in publications or presentations arising from this work. More details at
     http://www.quantum-espresso.org/quote

     Parallel version (MPI), running on    28 processors

     MPI processes distributed on     1 nodes
     12150 MiB available memory on the printing compute node when the environment starts

     Reading input from scf.in

     Current dimensions of program PWSCF are:
     Max number of different atomic species (ntypx) = 10
     Max number of k-points (npk) =  40000
     Max angular momentum in pseudopotentials (lmaxx) =  4
     file Sc.pbe-spn-kjpaw_psl.1.0.0.UPF: wavefunction(s)  3S 3P 3D renormalized
     file C.pbe-n-kjpaw_psl.1.0.0.UPF: wavefunction(s)  2S 2P renormalized

     IMPORTANT: XC functional enforced from input :
     Exchange-correlation= VDW-DF3-OPT1
                           (   1   4  45   0   3   0   0)
     Any further DFT definition will be discarded
     Please, verify this is what you really want

     Message from routine setup:
     using ibrav=0 with symmetry is DISCOURAGED, use correct ibrav instead

     K-points division:     npool     =       4
     R & G space division:  proc/nbgrp/npool/nimage =       7
     Subspace diagonalization in iterative solution of the eigenvalue problem:
     a serial algorithm will be used


     Parallelization info
     --------------------
     sticks:   dense  smooth     PW     G-vecs:    dense   smooth      PW
     Min         317     158     44               144007    50858    7626
     Max         318     159     45               144066    50897    7669
     Sum        2221    1111    313              1008177   356155   53571

     Using Slab Decomposition



     bravais-lattice index     =            0
     lattice parameter (alat)  =       6.3466  a.u.
     unit-cell volume          =    2636.7687 (a.u.)^3
     number of atoms/cell      =            3
     number of atomic types    =            2
     number of electrons       =        26.00
     number of Kohn-Sham states=           17
     kinetic-energy cutoff     =     100.0000  Ry
     charge density cutoff     =     800.0000  Ry
     scf convergence threshold =      1.0E-12
     mixing beta               =       0.4000
     number of iterations used =            8  plain     mixing
     Exchange-correlation= VDW-DF3-OPT1
                           (   1   4  45   0   3   0   0)

     celldm(1)=   6.346602  celldm(2)=   0.000000  celldm(3)=   0.000000
     celldm(4)=   0.000000  celldm(5)=   0.000000  celldm(6)=   0.000000

     crystal axes: (cart. coord. in units of alat)
               a(1) = (   1.000000  -0.000000   0.000000 )  
               a(2) = (  -0.500000   0.866025   0.000000 )  
               a(3) = (   0.000000   0.000000  11.910160 )  

     reciprocal axes: (cart. coord. in units 2 pi/alat)
               b(1) = (  1.000000  0.577350 -0.000000 )  
               b(2) = (  0.000000  1.154701 -0.000000 )  
               b(3) = ( -0.000000 -0.000000  0.083962 )  


     PseudoPot. # 1 for Sc read from file:
     ../pseudos/Sc.pbe-spn-kjpaw_psl.1.0.0.UPF
     MD5 check sum: 11225039ff5626e1db4d2bb2aa06604c
     Pseudo is Projector augmented-wave + core cor, Zval = 11.0
     Generated using 'atomic' code by A. Dal Corso  v.7.2
     Shape of augmentation charge: PSQ
     Using radial grid of 1173 points,  6 beta functions with: 
                l(1) =   0
                l(2) =   0
                l(3) =   1
                l(4) =   1
                l(5) =   2
                l(6) =   2
     Q(r) pseudized with 0 coefficients 


     PseudoPot. # 2 for C  read from file:
     ../pseudos/C.pbe-n-kjpaw_psl.1.0.0.UPF
     MD5 check sum: 334dd717d05d9fc315cfa464949a1b6f
     Pseudo is Projector augmented-wave + core cor, Zval =  4.0
     Generated using 'atomic' code by A. Dal Corso  v.7.2
     Shape of augmentation charge: PSQ
     Using radial grid of 1073 points,  4 beta functions with: 
                l(1) =   0
                l(2) =   0
                l(3) =   1
                l(4) =   1
     Q(r) pseudized with 0 coefficients 


     atomic species   valence    mass     pseudopotential
     Sc               11.00    44.95600     Sc( 1.00)
     C                 4.00    12.01100     C ( 1.00)

      6 Sym. Ops. (no inversion) found


                                    s                        frac. trans.

      isym =  1     identity                                     

 cryst.   s( 1) = (     1          0          0      )
                  (     0          1          0      )
                  (     0          0          1      )

 cart.    s( 1) = (  1.0000000  0.0000000  0.0000000 )
                  (  0.0000000  1.0000000  0.0000000 )
                  (  0.0000000  0.0000000  1.0000000 )


      isym =  2     120 deg rotation - cryst. axis [0,0,1]       

 cryst.   s( 2) = (     0          1          0      )
                  (    -1         -1          0      )
                  (     0          0          1      )

 cart.    s( 2) = ( -0.5000000 -0.8660254  0.0000000 )
                  (  0.8660254 -0.5000000  0.0000000 )
                  (  0.0000000  0.0000000  1.0000000 )


      isym =  3     120 deg rotation - cryst. axis [0,0,-1]      

 cryst.   s( 3) = (    -1         -1          0      )
                  (     1          0          0      )
                  (     0          0          1      )

 cart.    s( 3) = ( -0.5000000  0.8660254  0.0000000 )
                  ( -0.8660254 -0.5000000  0.0000000 )
                  (  0.0000000  0.0000000  1.0000000 )


      isym =  4     inv. 180 deg rotation - cart. axis [1,0,0]   

 cryst.   s( 4) = (    -1          0          0      )
                  (     1          1          0      )
                  (     0          0          1      )

 cart.    s( 4) = ( -1.0000000 -0.0000000  0.0000000 )
                  (  0.0000000  1.0000000  0.0000000 )
                  (  0.0000000  0.0000000  1.0000000 )


      isym =  5     inv. 180 deg rotation - cryst. axis [0,1,0]  

 cryst.   s( 5) = (     1          1          0      )
                  (     0         -1          0      )
                  (     0          0          1      )

 cart.    s( 5) = (  0.5000000  0.8660254  0.0000000 )
                  (  0.8660254 -0.5000000  0.0000000 )
                  (  0.0000000  0.0000000  1.0000000 )


      isym =  6     inv. 180 deg rotation - cryst. axis [1,1,0]  

 cryst.   s( 6) = (     0         -1          0      )
                  (    -1          0          0      )
                  (     0          0          1      )

 cart.    s( 6) = (  0.5000000 -0.8660254  0.0000000 )
                  ( -0.8660254 -0.5000000  0.0000000 )
                  (  0.0000000  0.0000000  1.0000000 )


   Cartesian axes

     site n.     atom                  positions (alat units)
         1        C      tau(   1) = (   0.0000000   0.0000000   5.2668162  )
         2        Sc     tau(   2) = (  -0.0000000   0.5773503   4.9329513  )
         3        Sc     tau(   3) = (   0.5000000   0.2886751   5.6253669  )

   Crystallographic axes

     site n.     atom                  positions (cryst. coord.)
         1        C      tau(   1) = (  0.0000000  0.0000000  0.4422121  )
         2        Sc     tau(   2) = (  0.3333333  0.6666667  0.4141801  )
         3        Sc     tau(   3) = (  0.6666667  0.3333333  0.4723167  )

     number of k points=    30  Gaussian smearing, width (Ry)=  0.0037
                       cart. coord. in units 2pi/alat
        k(    1) = (   0.0000000   0.0000000   0.0000000), wk =   0.0078125
        k(    2) = (   0.0000000   0.0721688   0.0000000), wk =   0.0468750
        k(    3) = (   0.0000000   0.1443376   0.0000000), wk =   0.0468750
        k(    4) = (   0.0000000   0.2165064   0.0000000), wk =   0.0468750
        k(    5) = (   0.0000000   0.2886751   0.0000000), wk =   0.0468750
        k(    6) = (   0.0000000   0.3608439   0.0000000), wk =   0.0468750
        k(    7) = (   0.0000000   0.4330127   0.0000000), wk =   0.0468750
        k(    8) = (   0.0000000   0.5051815   0.0000000), wk =   0.0468750
        k(    9) = (   0.0000000  -0.5773503   0.0000000), wk =   0.0234375
        k(   10) = (   0.0625000   0.1082532   0.0000000), wk =   0.0468750
        k(   11) = (   0.0625000   0.1804220   0.0000000), wk =   0.0937500
        k(   12) = (   0.0625000   0.2525907   0.0000000), wk =   0.0937500
        k(   13) = (   0.0625000   0.3247595   0.0000000), wk =   0.0937500
        k(   14) = (   0.0625000   0.3969283   0.0000000), wk =   0.0937500
        k(   15) = (   0.0625000   0.4690971   0.0000000), wk =   0.0937500
        k(   16) = (   0.0625000   0.5412659   0.0000000), wk =   0.0937500
        k(   17) = (   0.1250000   0.2165064   0.0000000), wk =   0.0468750
        k(   18) = (   0.1250000   0.2886751   0.0000000), wk =   0.0937500
        k(   19) = (   0.1250000   0.3608439   0.0000000), wk =   0.0937500
        k(   20) = (   0.1250000   0.4330127   0.0000000), wk =   0.0937500
        k(   21) = (   0.1250000   0.5051815   0.0000000), wk =   0.0937500
        k(   22) = (   0.1250000   0.5773503   0.0000000), wk =   0.0468750
        k(   23) = (   0.1875000   0.3247595   0.0000000), wk =   0.0468750
        k(   24) = (   0.1875000   0.3969283   0.0000000), wk =   0.0937500
        k(   25) = (   0.1875000   0.4690971   0.0000000), wk =   0.0937500
        k(   26) = (   0.1875000   0.5412659   0.0000000), wk =   0.0937500
        k(   27) = (   0.2500000   0.4330127   0.0000000), wk =   0.0468750
        k(   28) = (   0.2500000   0.5051815   0.0000000), wk =   0.0937500
        k(   29) = (   0.2500000   0.5773503   0.0000000), wk =   0.0468750
        k(   30) = (   0.3125000   0.5412659   0.0000000), wk =   0.0468750

                       cryst. coord.
        k(    1) = (   0.0000000   0.0000000   0.0000000), wk =   0.0078125
        k(    2) = (   0.0000000   0.0625000   0.0000000), wk =   0.0468750
        k(    3) = (   0.0000000   0.1250000   0.0000000), wk =   0.0468750
        k(    4) = (   0.0000000   0.1875000   0.0000000), wk =   0.0468750
        k(    5) = (   0.0000000   0.2500000   0.0000000), wk =   0.0468750
        k(    6) = (   0.0000000   0.3125000   0.0000000), wk =   0.0468750
        k(    7) = (   0.0000000   0.3750000   0.0000000), wk =   0.0468750
        k(    8) = (   0.0000000   0.4375000   0.0000000), wk =   0.0468750
        k(    9) = (   0.0000000  -0.5000000   0.0000000), wk =   0.0234375
        k(   10) = (   0.0625000   0.0625000   0.0000000), wk =   0.0468750
        k(   11) = (   0.0625000   0.1250000   0.0000000), wk =   0.0937500
        k(   12) = (   0.0625000   0.1875000   0.0000000), wk =   0.0937500
        k(   13) = (   0.0625000   0.2500000   0.0000000), wk =   0.0937500
        k(   14) = (   0.0625000   0.3125000   0.0000000), wk =   0.0937500
        k(   15) = (   0.0625000   0.3750000   0.0000000), wk =   0.0937500
        k(   16) = (   0.0625000   0.4375000   0.0000000), wk =   0.0937500
        k(   17) = (   0.1250000   0.1250000   0.0000000), wk =   0.0468750
        k(   18) = (   0.1250000   0.1875000   0.0000000), wk =   0.0937500
        k(   19) = (   0.1250000   0.2500000   0.0000000), wk =   0.0937500
        k(   20) = (   0.1250000   0.3125000   0.0000000), wk =   0.0937500
        k(   21) = (   0.1250000   0.3750000   0.0000000), wk =   0.0937500
        k(   22) = (   0.1250000   0.4375000   0.0000000), wk =   0.0468750
        k(   23) = (   0.1875000   0.1875000   0.0000000), wk =   0.0468750
        k(   24) = (   0.1875000   0.2500000   0.0000000), wk =   0.0937500
        k(   25) = (   0.1875000   0.3125000   0.0000000), wk =   0.0937500
        k(   26) = (   0.1875000   0.3750000   0.0000000), wk =   0.0937500
        k(   27) = (   0.2500000   0.2500000   0.0000000), wk =   0.0468750
        k(   28) = (   0.2500000   0.3125000   0.0000000), wk =   0.0937500
        k(   29) = (   0.2500000   0.3750000   0.0000000), wk =   0.0468750
        k(   30) = (   0.3125000   0.3125000   0.0000000), wk =   0.0468750

     Dense  grid:  1008177 G-vectors     FFT dimensions: (  60,  60, 720)

     Smooth grid:   356155 G-vectors     FFT dimensions: (  45,  45, 486)

     Dynamical RAM for                 wfc:       1.65 MB

     Dynamical RAM for     wfc (w. buffer):      14.85 MB

     Dynamical RAM for           str. fact:       4.39 MB

     Dynamical RAM for           local pot:       0.00 MB

     Dynamical RAM for          nlocal pot:       4.27 MB

     Dynamical RAM for                qrad:       4.54 MB

     Dynamical RAM for          rho,v,vnew:      15.08 MB

     Dynamical RAM for               rhoin:       5.03 MB

     Dynamical RAM for            rho*nmix:      35.16 MB

     Dynamical RAM for           G-vectors:       8.63 MB

     Dynamical RAM for          h,s,v(r/c):       0.05 MB

     Dynamical RAM for          <psi|beta>:       0.01 MB

     Dynamical RAM for                 psi:       3.30 MB

     Dynamical RAM for                hpsi:       3.30 MB

     Dynamical RAM for                spsi:       3.30 MB

     Dynamical RAM for      wfcinit/wfcrot:       3.31 MB

     Dynamical RAM for           addusdens:     104.92 MB

     Dynamical RAM for          addusforce:     105.48 MB

     Dynamical RAM for         addusstress:     111.24 MB

     Estimated static dynamical RAM per process >      77.52 MB

     Estimated max dynamical RAM per process >     223.92 MB

     Estimated total dynamical RAM >       5.40 GB

     Initial potential from superposition of free atoms

     starting charge      25.9948, renormalised to      26.0000

     negative rho (up, down):  1.755E-04 0.000E+00


     %%%%%%%%%%%%%%%%%%%%%%%%%%%%%%%%%%%%%%%%%%%%%%%%%%%%%%%%%%%%%%%%%%%%%%%%
     %                                                                      %
     % You are using vdW-DF, which was implemented by the Thonhauser group. %
     % Please cite the following two papers that made this development      %
     % possible and the two reviews that describe the various versions:     %
     %                                                                      %
     %   T. Thonhauser et al., PRL 115, 136402 (2015).                      %
     %   T. Thonhauser et al., PRB 76, 125112 (2007).                       %
     %   K. Berland et al., Rep. Prog. Phys. 78, 066501 (2015).             %
     %   D.C. Langreth et al., J. Phys.: Condens. Matter 21, 084203 (2009). %
     %                                                                      %
     % If you are calculating stress with vdW-DF, please also cite:         %
     %                                                                      %
     %   R. Sabatini et al., J. Phys.: Condens. Matter 24, 424209 (2012).   %
     %                                                                      %
     %%%%%%%%%%%%%%%%%%%%%%%%%%%%%%%%%%%%%%%%%%%%%%%%%%%%%%%%%%%%%%%%%%%%%%%%

     %%%%%%%%%%%%%%%%%%%%%%%%%%%%%%%%%%%%%%%%%%%%%%%%%%%%%%%%%%%%%%%%%%%%%%%%
     %                                                                      %
     %  vdW-DF NEWS:                                                        %
     %                                                                      %
     %  * vdW-DF3 is now available. DOI: 10.1021/acs.jctc.0c00471           %
     %    use with input_dft = 'vdW-DF3-opt1' or 'vdW-DF3-opt2'             %
     %                                                                      %
     %  * Unscreened and range-separated hybrid vdW-DF-cx functionals       %
     %    DOI: 10.1063/1.4986522 and 10.1088/1361-648X/ac2ad2               %
     %    use with input_dft = 'vdW-DF-cx0'    and 'vdW-DF-ahcx'            %
     %  * Unscreened and range-separated hybrid vdW-DF2-b86r functionals    %
     %    DOI: 10.1063/1.4986522 and DOI: 10.1103/PhysRevX.12.041003        %
     %    use with input_dft = 'vdW-DF2-br0' and 'vdW-DF2-ahbr'             %
     %                                                                      %
     %%%%%%%%%%%%%%%%%%%%%%%%%%%%%%%%%%%%%%%%%%%%%%%%%%%%%%%%%%%%%%%%%%%%%%%%


     Carrying out vdW-DF run using the following parameters:
     Nqs    =  20  Npoints =  1024  r_max =  100.000
     q_mesh =  0.00001000  0.04494208  0.09755937  0.15916263
               0.23128650  0.31572767  0.41458969  0.53033537
               0.66584808  0.82450364  1.01025438  1.22772762
               1.48234092  1.78043706  2.12944203  2.53805004
               3.01644009  3.57652955  4.23227104  5.00000000


     -----------------------------------------------
     Non-local corr. energy    =       0.36529482 Ry
     -----------------------------------------------

     Starting wfcs are   24 randomized atomic wfcs
     Checking if some PAW data can be deallocated... 
       PAW data deallocated on   10 nodes for type:  1
       PAW data deallocated on   18 nodes for type:  2

     total cpu time spent up to now is       17.4 secs

     per-process dynamical memory:   108.7 Mb

     Self-consistent Calculation

     iteration #  1     ecut=   100.00 Ry     beta= 0.40
     Davidson diagonalization with overlap

---- Real-time Memory Report at c_bands before calling an iterative solver
           350 MiB given to the printing process from OS
           106 MiB allocation reported by mallinfo(arena+hblkhd)
          7420 MiB available memory on the node where the printing process lives
------------------
     ethr =  1.00E-02,  avg # of iterations =  2.0

     negative rho (up, down):  3.591E-07 0.000E+00


     -----------------------------------------------
     Non-local corr. energy    =       0.37673193 Ry
     -----------------------------------------------


     total cpu time spent up to now is       32.6 secs

     total energy              =    -329.72750670 Ry
     estimated scf accuracy    <       2.19908688 Ry

     iteration #  2     ecut=   100.00 Ry     beta= 0.40
     Davidson diagonalization with overlap

---- Real-time Memory Report at c_bands before calling an iterative solver
           393 MiB given to the printing process from OS
           143 MiB allocation reported by mallinfo(arena+hblkhd)
          5403 MiB available memory on the node where the printing process lives
------------------
     ethr =  8.46E-03,  avg # of iterations =  2.7


     -----------------------------------------------
     Non-local corr. energy    =       0.37213666 Ry
     -----------------------------------------------


     total cpu time spent up to now is       48.7 secs

     total energy              =    -330.01147196 Ry
     estimated scf accuracy    <       1.62478797 Ry

     iteration #  3     ecut=   100.00 Ry     beta= 0.40
     Davidson diagonalization with overlap

---- Real-time Memory Report at c_bands before calling an iterative solver
           395 MiB given to the printing process from OS
           145 MiB allocation reported by mallinfo(arena+hblkhd)
          5366 MiB available memory on the node where the printing process lives
------------------
     ethr =  6.25E-03,  avg # of iterations =  1.9


     -----------------------------------------------
     Non-local corr. energy    =       0.37180211 Ry
     -----------------------------------------------


     total cpu time spent up to now is       63.6 secs

     total energy              =    -330.37334410 Ry
     estimated scf accuracy    <       2.20341210 Ry

     iteration #  4     ecut=   100.00 Ry     beta= 0.40
     Davidson diagonalization with overlap

---- Real-time Memory Report at c_bands before calling an iterative solver
           396 MiB given to the printing process from OS
           146 MiB allocation reported by mallinfo(arena+hblkhd)
          5363 MiB available memory on the node where the printing process lives
------------------
     ethr =  6.25E-03,  avg # of iterations =  1.1


     -----------------------------------------------
     Non-local corr. energy    =       0.37166797 Ry
     -----------------------------------------------


     total cpu time spent up to now is       77.8 secs

     total energy              =    -330.48723117 Ry
     estimated scf accuracy    <       0.10288098 Ry

     iteration #  5     ecut=   100.00 Ry     beta= 0.40
     Davidson diagonalization with overlap

---- Real-time Memory Report at c_bands before calling an iterative solver
           398 MiB given to the printing process from OS
           148 MiB allocation reported by mallinfo(arena+hblkhd)
          5320 MiB available memory on the node where the printing process lives
------------------
     ethr =  3.96E-04,  avg # of iterations =  7.1


     -----------------------------------------------
     Non-local corr. energy    =       0.37137898 Ry
     -----------------------------------------------


     total cpu time spent up to now is       96.9 secs

     total energy              =    -330.54093146 Ry
     estimated scf accuracy    <       0.05261287 Ry

     iteration #  6     ecut=   100.00 Ry     beta= 0.40
     Davidson diagonalization with overlap

---- Real-time Memory Report at c_bands before calling an iterative solver
           399 MiB given to the printing process from OS
           149 MiB allocation reported by mallinfo(arena+hblkhd)
          5228 MiB available memory on the node where the printing process lives
------------------
     ethr =  2.02E-04,  avg # of iterations =  2.7

     negative rho (up, down):  8.191E-06 0.000E+00


     -----------------------------------------------
     Non-local corr. energy    =       0.37071850 Ry
     -----------------------------------------------


     total cpu time spent up to now is      112.4 secs

     total energy              =    -330.55307913 Ry
     estimated scf accuracy    <       0.06174990 Ry

     iteration #  7     ecut=   100.00 Ry     beta= 0.40
     Davidson diagonalization with overlap

---- Real-time Memory Report at c_bands before calling an iterative solver
           401 MiB given to the printing process from OS
           151 MiB allocation reported by mallinfo(arena+hblkhd)
          5409 MiB available memory on the node where the printing process lives
------------------
     ethr =  2.02E-04,  avg # of iterations =  2.0

     negative rho (up, down):  1.758E-03 0.000E+00


     -----------------------------------------------
     Non-local corr. energy    =       0.36950873 Ry
     -----------------------------------------------


     total cpu time spent up to now is      127.8 secs

     total energy              =    -330.57319517 Ry
     estimated scf accuracy    <       0.09308379 Ry

     iteration #  8     ecut=   100.00 Ry     beta= 0.40
     Davidson diagonalization with overlap

---- Real-time Memory Report at c_bands before calling an iterative solver
           402 MiB given to the printing process from OS
           152 MiB allocation reported by mallinfo(arena+hblkhd)
          5128 MiB available memory on the node where the printing process lives
------------------
     ethr =  2.02E-04,  avg # of iterations =  2.2

     negative rho (up, down):  1.578E-03 0.000E+00


     -----------------------------------------------
     Non-local corr. energy    =       0.36941638 Ry
     -----------------------------------------------


     total cpu time spent up to now is      143.2 secs

     total energy              =    -330.55317882 Ry
     estimated scf accuracy    <       0.16189158 Ry

     iteration #  9     ecut=   100.00 Ry     beta= 0.40
     Davidson diagonalization with overlap

---- Real-time Memory Report at c_bands before calling an iterative solver
           404 MiB given to the printing process from OS
           154 MiB allocation reported by mallinfo(arena+hblkhd)
          5312 MiB available memory on the node where the printing process lives
------------------
     ethr =  2.02E-04,  avg # of iterations =  1.7

     negative rho (up, down):  7.018E-04 0.000E+00


     -----------------------------------------------
     Non-local corr. energy    =       0.36959964 Ry
     -----------------------------------------------


     total cpu time spent up to now is      157.8 secs

     total energy              =    -330.52617006 Ry
     estimated scf accuracy    <       0.09524068 Ry

     iteration # 10     ecut=   100.00 Ry     beta= 0.40
     Davidson diagonalization with overlap

---- Real-time Memory Report at c_bands before calling an iterative solver
           405 MiB given to the printing process from OS
           156 MiB allocation reported by mallinfo(arena+hblkhd)
          5048 MiB available memory on the node where the printing process lives
------------------
     ethr =  2.02E-04,  avg # of iterations =  2.2

     negative rho (up, down):  7.973E-04 0.000E+00


     -----------------------------------------------
     Non-local corr. energy    =       0.36948884 Ry
     -----------------------------------------------


     total cpu time spent up to now is      173.2 secs

     total energy              =    -330.53560783 Ry
     estimated scf accuracy    <       0.01682725 Ry

     iteration # 11     ecut=   100.00 Ry     beta= 0.40
     Davidson diagonalization with overlap

---- Real-time Memory Report at c_bands before calling an iterative solver
           405 MiB given to the printing process from OS
           156 MiB allocation reported by mallinfo(arena+hblkhd)
          5115 MiB available memory on the node where the printing process lives
------------------
     ethr =  6.47E-05,  avg # of iterations =  5.3

     negative rho (up, down):  8.179E-04 0.000E+00


     -----------------------------------------------
     Non-local corr. energy    =       0.36943620 Ry
     -----------------------------------------------


     total cpu time spent up to now is      191.0 secs

     total energy              =    -330.53922575 Ry
     estimated scf accuracy    <       0.01065850 Ry

     iteration # 12     ecut=   100.00 Ry     beta= 0.40
     Davidson diagonalization with overlap

---- Real-time Memory Report at c_bands before calling an iterative solver
           405 MiB given to the printing process from OS
           156 MiB allocation reported by mallinfo(arena+hblkhd)
          4978 MiB available memory on the node where the printing process lives
------------------
     ethr =  4.10E-05,  avg # of iterations =  7.3

     negative rho (up, down):  6.978E-04 0.000E+00


     -----------------------------------------------
     Non-local corr. energy    =       0.36938566 Ry
     -----------------------------------------------


     total cpu time spent up to now is      210.3 secs

     total energy              =    -330.54260521 Ry
     estimated scf accuracy    <       0.00459898 Ry

     iteration # 13     ecut=   100.00 Ry     beta= 0.40
     Davidson diagonalization with overlap

---- Real-time Memory Report at c_bands before calling an iterative solver
           405 MiB given to the printing process from OS
           156 MiB allocation reported by mallinfo(arena+hblkhd)
          5288 MiB available memory on the node where the printing process lives
------------------
     ethr =  1.77E-05,  avg # of iterations =  9.3

     negative rho (up, down):  1.091E-04 0.000E+00


     -----------------------------------------------
     Non-local corr. energy    =       0.36958300 Ry
     -----------------------------------------------


     total cpu time spent up to now is      230.5 secs

     total energy              =    -330.54312779 Ry
     estimated scf accuracy    <       0.00248967 Ry

     iteration # 14     ecut=   100.00 Ry     beta= 0.40
     Davidson diagonalization with overlap

---- Real-time Memory Report at c_bands before calling an iterative solver
           405 MiB given to the printing process from OS
           156 MiB allocation reported by mallinfo(arena+hblkhd)
          5462 MiB available memory on the node where the printing process lives
------------------
     ethr =  9.58E-06,  avg # of iterations = 11.7

     negative rho (up, down):  1.152E-04 0.000E+00


     -----------------------------------------------
     Non-local corr. energy    =       0.36958781 Ry
     -----------------------------------------------


     total cpu time spent up to now is      256.0 secs

     total energy              =    -330.54715270 Ry
     estimated scf accuracy    <       0.01493879 Ry

     iteration # 15     ecut=   100.00 Ry     beta= 0.40
     Davidson diagonalization with overlap

---- Real-time Memory Report at c_bands before calling an iterative solver
           405 MiB given to the printing process from OS
           156 MiB allocation reported by mallinfo(arena+hblkhd)
          5239 MiB available memory on the node where the printing process lives
------------------
     ethr =  9.58E-06,  avg # of iterations =  2.8

     negative rho (up, down):  1.302E-04 0.000E+00


     -----------------------------------------------
     Non-local corr. energy    =       0.36956157 Ry
     -----------------------------------------------


     total cpu time spent up to now is      271.2 secs

     total energy              =    -330.54475438 Ry
     estimated scf accuracy    <       0.01529015 Ry

     iteration # 16     ecut=   100.00 Ry     beta= 0.40
     Davidson diagonalization with overlap

---- Real-time Memory Report at c_bands before calling an iterative solver
           405 MiB given to the printing process from OS
           156 MiB allocation reported by mallinfo(arena+hblkhd)
          5335 MiB available memory on the node where the printing process lives
------------------
     ethr =  9.58E-06,  avg # of iterations =  2.0

     negative rho (up, down):  1.108E-04 0.000E+00


     -----------------------------------------------
     Non-local corr. energy    =       0.36952720 Ry
     -----------------------------------------------


     total cpu time spent up to now is      286.3 secs

     total energy              =    -330.54645275 Ry
     estimated scf accuracy    <       0.00972508 Ry

     iteration # 17     ecut=   100.00 Ry     beta= 0.40
     Davidson diagonalization with overlap

---- Real-time Memory Report at c_bands before calling an iterative solver
           405 MiB given to the printing process from OS
           156 MiB allocation reported by mallinfo(arena+hblkhd)
          5220 MiB available memory on the node where the printing process lives
------------------
     ethr =  9.58E-06,  avg # of iterations =  1.2

     negative rho (up, down):  9.691E-05 0.000E+00


     -----------------------------------------------
     Non-local corr. energy    =       0.36949115 Ry
     -----------------------------------------------


     total cpu time spent up to now is      300.6 secs

     total energy              =    -330.54545163 Ry
     estimated scf accuracy    <       0.01286611 Ry

     iteration # 18     ecut=   100.00 Ry     beta= 0.40
     Davidson diagonalization with overlap

---- Real-time Memory Report at c_bands before calling an iterative solver
           405 MiB given to the printing process from OS
           156 MiB allocation reported by mallinfo(arena+hblkhd)
          5287 MiB available memory on the node where the printing process lives
------------------
     ethr =  9.58E-06,  avg # of iterations =  1.1

     negative rho (up, down):  1.675E-04 0.000E+00


     -----------------------------------------------
     Non-local corr. energy    =       0.36959243 Ry
     -----------------------------------------------


     total cpu time spent up to now is      314.8 secs

     total energy              =    -330.54208348 Ry
     estimated scf accuracy    <       0.01048173 Ry

     iteration # 19     ecut=   100.00 Ry     beta= 0.40
     Davidson diagonalization with overlap

---- Real-time Memory Report at c_bands before calling an iterative solver
           405 MiB given to the printing process from OS
           156 MiB allocation reported by mallinfo(arena+hblkhd)
          5173 MiB available memory on the node where the printing process lives
------------------
     ethr =  9.58E-06,  avg # of iterations =  6.5

     negative rho (up, down):  8.820E-05 0.000E+00


     -----------------------------------------------
     Non-local corr. energy    =       0.36964219 Ry
     -----------------------------------------------


     total cpu time spent up to now is      332.4 secs

     total energy              =    -330.54398778 Ry
     estimated scf accuracy    <       0.00078559 Ry

     iteration # 20     ecut=   100.00 Ry     beta= 0.40
     Davidson diagonalization with overlap

---- Real-time Memory Report at c_bands before calling an iterative solver
           405 MiB given to the printing process from OS
           156 MiB allocation reported by mallinfo(arena+hblkhd)
          5262 MiB available memory on the node where the printing process lives
------------------
     ethr =  3.02E-06,  avg # of iterations =  7.9

     negative rho (up, down):  9.132E-05 0.000E+00


     -----------------------------------------------
     Non-local corr. energy    =       0.36962421 Ry
     -----------------------------------------------


     total cpu time spent up to now is      351.5 secs

     total energy              =    -330.54305757 Ry
     estimated scf accuracy    <       0.00251410 Ry

     iteration # 21     ecut=   100.00 Ry     beta= 0.40
     Davidson diagonalization with overlap

---- Real-time Memory Report at c_bands before calling an iterative solver
           405 MiB given to the printing process from OS
           156 MiB allocation reported by mallinfo(arena+hblkhd)
          5393 MiB available memory on the node where the printing process lives
------------------
     ethr =  3.02E-06,  avg # of iterations =  8.9

     negative rho (up, down):  9.342E-05 0.000E+00


     -----------------------------------------------
     Non-local corr. energy    =       0.36961380 Ry
     -----------------------------------------------


     total cpu time spent up to now is      372.2 secs

     total energy              =    -330.54388646 Ry
     estimated scf accuracy    <       0.00018700 Ry

     iteration # 22     ecut=   100.00 Ry     beta= 0.40
     Davidson diagonalization with overlap

---- Real-time Memory Report at c_bands before calling an iterative solver
           405 MiB given to the printing process from OS
           156 MiB allocation reported by mallinfo(arena+hblkhd)
          5402 MiB available memory on the node where the printing process lives
------------------
     c_bands:  2 eigenvalues not converged
     ethr =  7.19E-07,  avg # of iterations =  8.8

     negative rho (up, down):  8.650E-05 0.000E+00


     -----------------------------------------------
     Non-local corr. energy    =       0.36962085 Ry
     -----------------------------------------------


     total cpu time spent up to now is      392.0 secs

     total energy              =    -330.54392130 Ry
     estimated scf accuracy    <       0.00036705 Ry

     iteration # 23     ecut=   100.00 Ry     beta= 0.40
     Davidson diagonalization with overlap

---- Real-time Memory Report at c_bands before calling an iterative solver
           405 MiB given to the printing process from OS
           156 MiB allocation reported by mallinfo(arena+hblkhd)
          5257 MiB available memory on the node where the printing process lives
------------------
     c_bands:  2 eigenvalues not converged
     ethr =  7.19E-07,  avg # of iterations =  2.3

     negative rho (up, down):  8.690E-05 0.000E+00


     -----------------------------------------------
     Non-local corr. energy    =       0.36960618 Ry
     -----------------------------------------------


     total cpu time spent up to now is      407.2 secs

     total energy              =    -330.54386496 Ry
     estimated scf accuracy    <       0.00030939 Ry

     iteration # 24     ecut=   100.00 Ry     beta= 0.40
     Davidson diagonalization with overlap

---- Real-time Memory Report at c_bands before calling an iterative solver
           405 MiB given to the printing process from OS
           156 MiB allocation reported by mallinfo(arena+hblkhd)
          5500 MiB available memory on the node where the printing process lives
------------------
     ethr =  7.19E-07,  avg # of iterations =  1.9

     negative rho (up, down):  7.754E-05 0.000E+00


     -----------------------------------------------
     Non-local corr. energy    =       0.36960975 Ry
     -----------------------------------------------


     total cpu time spent up to now is      421.9 secs

     total energy              =    -330.54378609 Ry
     estimated scf accuracy    <       0.00016907 Ry

     iteration # 25     ecut=   100.00 Ry     beta= 0.40
     Davidson diagonalization with overlap

---- Real-time Memory Report at c_bands before calling an iterative solver
           405 MiB given to the printing process from OS
           156 MiB allocation reported by mallinfo(arena+hblkhd)
          4989 MiB available memory on the node where the printing process lives
------------------
     ethr =  6.50E-07,  avg # of iterations =  5.5

     negative rho (up, down):  8.196E-05 0.000E+00


     -----------------------------------------------
     Non-local corr. energy    =       0.36960355 Ry
     -----------------------------------------------


     total cpu time spent up to now is      438.6 secs

     total energy              =    -330.54384205 Ry
     estimated scf accuracy    <       0.00000937 Ry

     iteration # 26     ecut=   100.00 Ry     beta= 0.40
     Davidson diagonalization with overlap

---- Real-time Memory Report at c_bands before calling an iterative solver
           405 MiB given to the printing process from OS
           156 MiB allocation reported by mallinfo(arena+hblkhd)
          5313 MiB available memory on the node where the printing process lives
------------------
     ethr =  3.61E-08,  avg # of iterations = 11.1

     negative rho (up, down):  8.284E-05 0.000E+00


     -----------------------------------------------
     Non-local corr. energy    =       0.36960025 Ry
     -----------------------------------------------


     total cpu time spent up to now is      462.4 secs

     total energy              =    -330.54386085 Ry
     estimated scf accuracy    <       0.00000262 Ry

     iteration # 27     ecut=   100.00 Ry     beta= 0.40
     Davidson diagonalization with overlap

---- Real-time Memory Report at c_bands before calling an iterative solver
           405 MiB given to the printing process from OS
           156 MiB allocation reported by mallinfo(arena+hblkhd)
          5342 MiB available memory on the node where the printing process lives
------------------
     ethr =  1.01E-08,  avg # of iterations =  7.7

     negative rho (up, down):  8.265E-05 0.000E+00


     -----------------------------------------------
     Non-local corr. energy    =       0.36960050 Ry
     -----------------------------------------------


     total cpu time spent up to now is      481.9 secs

     total energy              =    -330.54386256 Ry
     estimated scf accuracy    <       0.00000296 Ry

     iteration # 28     ecut=   100.00 Ry     beta= 0.40
     Davidson diagonalization with overlap

---- Real-time Memory Report at c_bands before calling an iterative solver
           405 MiB given to the printing process from OS
           156 MiB allocation reported by mallinfo(arena+hblkhd)
          5060 MiB available memory on the node where the printing process lives
------------------
     ethr =  1.01E-08,  avg # of iterations =  1.7

     negative rho (up, down):  8.249E-05 0.000E+00


     -----------------------------------------------
     Non-local corr. energy    =       0.36959979 Ry
     -----------------------------------------------


     total cpu time spent up to now is      496.5 secs

     total energy              =    -330.54386335 Ry
     estimated scf accuracy    <       0.00000288 Ry

     iteration # 29     ecut=   100.00 Ry     beta= 0.40
     Davidson diagonalization with overlap

---- Real-time Memory Report at c_bands before calling an iterative solver
           405 MiB given to the printing process from OS
           156 MiB allocation reported by mallinfo(arena+hblkhd)
          5354 MiB available memory on the node where the printing process lives
------------------
     ethr =  1.01E-08,  avg # of iterations =  2.0

     negative rho (up, down):  8.195E-05 0.000E+00


     -----------------------------------------------
     Non-local corr. energy    =       0.36959570 Ry
     -----------------------------------------------


     total cpu time spent up to now is      511.5 secs

     total energy              =    -330.54386388 Ry
     estimated scf accuracy    <       0.00000431 Ry

     iteration # 30     ecut=   100.00 Ry     beta= 0.40
     Davidson diagonalization with overlap

---- Real-time Memory Report at c_bands before calling an iterative solver
           405 MiB given to the printing process from OS
           156 MiB allocation reported by mallinfo(arena+hblkhd)
          5356 MiB available memory on the node where the printing process lives
------------------
     ethr =  1.01E-08,  avg # of iterations =  1.8

     negative rho (up, down):  8.241E-05 0.000E+00


     -----------------------------------------------
     Non-local corr. energy    =       0.36957189 Ry
     -----------------------------------------------


     total cpu time spent up to now is      526.2 secs

     total energy              =    -330.54386124 Ry
     estimated scf accuracy    <       0.00000543 Ry

     iteration # 31     ecut=   100.00 Ry     beta= 0.40
     Davidson diagonalization with overlap

---- Real-time Memory Report at c_bands before calling an iterative solver
           405 MiB given to the printing process from OS
           156 MiB allocation reported by mallinfo(arena+hblkhd)
          5586 MiB available memory on the node where the printing process lives
------------------
     ethr =  1.01E-08,  avg # of iterations =  2.0

     negative rho (up, down):  8.433E-05 0.000E+00


     -----------------------------------------------
     Non-local corr. energy    =       0.36956981 Ry
     -----------------------------------------------


     total cpu time spent up to now is      541.7 secs

     total energy              =    -330.54386031 Ry
     estimated scf accuracy    <       0.00000124 Ry

     iteration # 32     ecut=   100.00 Ry     beta= 0.40
     Davidson diagonalization with overlap

---- Real-time Memory Report at c_bands before calling an iterative solver
           405 MiB given to the printing process from OS
           156 MiB allocation reported by mallinfo(arena+hblkhd)
          5316 MiB available memory on the node where the printing process lives
------------------
     ethr =  4.77E-09,  avg # of iterations =  8.9

     negative rho (up, down):  8.484E-05 0.000E+00


     -----------------------------------------------
     Non-local corr. energy    =       0.36957079 Ry
     -----------------------------------------------


     total cpu time spent up to now is      563.9 secs

     total energy              =    -330.54386107 Ry
     estimated scf accuracy    <       0.00000329 Ry

     iteration # 33     ecut=   100.00 Ry     beta= 0.40
     Davidson diagonalization with overlap

---- Real-time Memory Report at c_bands before calling an iterative solver
           405 MiB given to the printing process from OS
           156 MiB allocation reported by mallinfo(arena+hblkhd)
          5130 MiB available memory on the node where the printing process lives
------------------
     ethr =  4.77E-09,  avg # of iterations =  2.0

     negative rho (up, down):  8.601E-05 0.000E+00


     -----------------------------------------------
     Non-local corr. energy    =       0.36957184 Ry
     -----------------------------------------------


     total cpu time spent up to now is      578.9 secs

     total energy              =    -330.54385987 Ry
     estimated scf accuracy    <       0.00000125 Ry

     iteration # 34     ecut=   100.00 Ry     beta= 0.40
     Davidson diagonalization with overlap

---- Real-time Memory Report at c_bands before calling an iterative solver
           405 MiB given to the printing process from OS
           156 MiB allocation reported by mallinfo(arena+hblkhd)
          4912 MiB available memory on the node where the printing process lives
------------------
     ethr =  4.77E-09,  avg # of iterations =  8.7

     negative rho (up, down):  8.563E-05 0.000E+00


     -----------------------------------------------
     Non-local corr. energy    =       0.36957145 Ry
     -----------------------------------------------


     total cpu time spent up to now is      599.8 secs

     total energy              =    -330.54386081 Ry
     estimated scf accuracy    <       0.00000403 Ry

     iteration # 35     ecut=   100.00 Ry     beta= 0.40
     Davidson diagonalization with overlap

---- Real-time Memory Report at c_bands before calling an iterative solver
           405 MiB given to the printing process from OS
           156 MiB allocation reported by mallinfo(arena+hblkhd)
          4986 MiB available memory on the node where the printing process lives
------------------
     ethr =  4.77E-09,  avg # of iterations =  2.0

     negative rho (up, down):  8.543E-05 0.000E+00


     -----------------------------------------------
     Non-local corr. energy    =       0.36957185 Ry
     -----------------------------------------------


     total cpu time spent up to now is      614.9 secs

     total energy              =    -330.54386042 Ry
     estimated scf accuracy    <       0.00000167 Ry

     iteration # 36     ecut=   100.00 Ry     beta= 0.40
     Davidson diagonalization with overlap

---- Real-time Memory Report at c_bands before calling an iterative solver
           405 MiB given to the printing process from OS
           156 MiB allocation reported by mallinfo(arena+hblkhd)
          4981 MiB available memory on the node where the printing process lives
------------------
     ethr =  4.77E-09,  avg # of iterations =  6.3

     negative rho (up, down):  8.568E-05 0.000E+00


     -----------------------------------------------
     Non-local corr. energy    =       0.36956925 Ry
     -----------------------------------------------


     total cpu time spent up to now is      632.1 secs

     total energy              =    -330.54386095 Ry
     estimated scf accuracy    <       0.00000004 Ry

     iteration # 37     ecut=   100.00 Ry     beta= 0.40
     Davidson diagonalization with overlap

---- Real-time Memory Report at c_bands before calling an iterative solver
           405 MiB given to the printing process from OS
           156 MiB allocation reported by mallinfo(arena+hblkhd)
          5301 MiB available memory on the node where the printing process lives
------------------
     ethr =  1.70E-10,  avg # of iterations = 13.6

     negative rho (up, down):  8.581E-05 0.000E+00


     -----------------------------------------------
     Non-local corr. energy    =       0.36957037 Ry
     -----------------------------------------------


     total cpu time spent up to now is      661.8 secs

     total energy              =    -330.54386097 Ry
     estimated scf accuracy    <       0.00000126 Ry

     iteration # 38     ecut=   100.00 Ry     beta= 0.40
     Davidson diagonalization with overlap

---- Real-time Memory Report at c_bands before calling an iterative solver
           405 MiB given to the printing process from OS
           156 MiB allocation reported by mallinfo(arena+hblkhd)
          5001 MiB available memory on the node where the printing process lives
------------------
     ethr =  1.70E-10,  avg # of iterations =  7.5

     negative rho (up, down):  8.587E-05 0.000E+00


     -----------------------------------------------
     Non-local corr. energy    =       0.36957053 Ry
     -----------------------------------------------


     total cpu time spent up to now is      681.9 secs

     total energy              =    -330.54386093 Ry
     estimated scf accuracy    <       0.00000036 Ry

     iteration # 39     ecut=   100.00 Ry     beta= 0.40
     Davidson diagonalization with overlap

---- Real-time Memory Report at c_bands before calling an iterative solver
           405 MiB given to the printing process from OS
           156 MiB allocation reported by mallinfo(arena+hblkhd)
          4921 MiB available memory on the node where the printing process lives
------------------
     ethr =  1.70E-10,  avg # of iterations =  2.7

     negative rho (up, down):  8.587E-05 0.000E+00


     -----------------------------------------------
     Non-local corr. energy    =       0.36957078 Ry
     -----------------------------------------------


     total cpu time spent up to now is      697.3 secs

     total energy              =    -330.54386089 Ry
     estimated scf accuracy    <       0.00000021 Ry

     iteration # 40     ecut=   100.00 Ry     beta= 0.40
     Davidson diagonalization with overlap

---- Real-time Memory Report at c_bands before calling an iterative solver
           405 MiB given to the printing process from OS
           156 MiB allocation reported by mallinfo(arena+hblkhd)
          5222 MiB available memory on the node where the printing process lives
------------------
     ethr =  1.70E-10,  avg # of iterations =  6.6

     negative rho (up, down):  8.592E-05 0.000E+00


     -----------------------------------------------
     Non-local corr. energy    =       0.36957077 Ry
     -----------------------------------------------


     total cpu time spent up to now is      716.1 secs

     total energy              =    -330.54386091 Ry
     estimated scf accuracy    <          8.2E-09 Ry

     iteration # 41     ecut=   100.00 Ry     beta= 0.40
     Davidson diagonalization with overlap

---- Real-time Memory Report at c_bands before calling an iterative solver
           405 MiB given to the printing process from OS
           156 MiB allocation reported by mallinfo(arena+hblkhd)
          5293 MiB available memory on the node where the printing process lives
------------------
     ethr =  3.15E-11,  avg # of iterations =  7.7

     negative rho (up, down):  8.590E-05 0.000E+00


     -----------------------------------------------
     Non-local corr. energy    =       0.36957067 Ry
     -----------------------------------------------


     total cpu time spent up to now is      736.4 secs

     total energy              =    -330.54386092 Ry
     estimated scf accuracy    <          7.6E-10 Ry

     iteration # 42     ecut=   100.00 Ry     beta= 0.40
     Davidson diagonalization with overlap

---- Real-time Memory Report at c_bands before calling an iterative solver
           405 MiB given to the printing process from OS
           156 MiB allocation reported by mallinfo(arena+hblkhd)
          5411 MiB available memory on the node where the printing process lives
------------------
     ethr =  2.91E-12,  avg # of iterations =  9.3

     negative rho (up, down):  8.591E-05 0.000E+00


     -----------------------------------------------
     Non-local corr. energy    =       0.36957064 Ry
     -----------------------------------------------


     total cpu time spent up to now is      758.8 secs

     total energy              =    -330.54386093 Ry
     estimated scf accuracy    <          7.3E-10 Ry

     iteration # 43     ecut=   100.00 Ry     beta= 0.40
     Davidson diagonalization with overlap

---- Real-time Memory Report at c_bands before calling an iterative solver
           405 MiB given to the printing process from OS
           156 MiB allocation reported by mallinfo(arena+hblkhd)
          5129 MiB available memory on the node where the printing process lives
------------------
     ethr =  2.81E-12,  avg # of iterations =  8.2

     negative rho (up, down):  8.590E-05 0.000E+00


     -----------------------------------------------
     Non-local corr. energy    =       0.36957071 Ry
     -----------------------------------------------


     total cpu time spent up to now is      779.5 secs

     total energy              =    -330.54386093 Ry
     estimated scf accuracy    <          3.9E-09 Ry

     iteration # 44     ecut=   100.00 Ry     beta= 0.40
     Davidson diagonalization with overlap

---- Real-time Memory Report at c_bands before calling an iterative solver
           405 MiB given to the printing process from OS
           156 MiB allocation reported by mallinfo(arena+hblkhd)
          5334 MiB available memory on the node where the printing process lives
------------------
     ethr =  2.81E-12,  avg # of iterations =  1.2

     negative rho (up, down):  8.593E-05 0.000E+00


     -----------------------------------------------
     Non-local corr. energy    =       0.36957043 Ry
     -----------------------------------------------


     total cpu time spent up to now is      793.7 secs

     total energy              =    -330.54386093 Ry
     estimated scf accuracy    <          3.9E-09 Ry

     iteration # 45     ecut=   100.00 Ry     beta= 0.40
     Davidson diagonalization with overlap

---- Real-time Memory Report at c_bands before calling an iterative solver
           405 MiB given to the printing process from OS
           156 MiB allocation reported by mallinfo(arena+hblkhd)
          5187 MiB available memory on the node where the printing process lives
------------------
     ethr =  2.81E-12,  avg # of iterations =  6.9

     negative rho (up, down):  8.591E-05 0.000E+00


     -----------------------------------------------
     Non-local corr. energy    =       0.36957009 Ry
     -----------------------------------------------


     total cpu time spent up to now is      811.8 secs

     total energy              =    -330.54386093 Ry
     estimated scf accuracy    <       0.00000001 Ry

     iteration # 46     ecut=   100.00 Ry     beta= 0.40
     Davidson diagonalization with overlap

---- Real-time Memory Report at c_bands before calling an iterative solver
           405 MiB given to the printing process from OS
           156 MiB allocation reported by mallinfo(arena+hblkhd)
          4993 MiB available memory on the node where the printing process lives
------------------
     ethr =  2.81E-12,  avg # of iterations =  9.5

     negative rho (up, down):  8.592E-05 0.000E+00


     -----------------------------------------------
     Non-local corr. energy    =       0.36956988 Ry
     -----------------------------------------------


     total cpu time spent up to now is      835.5 secs

     total energy              =    -330.54386093 Ry
     estimated scf accuracy    <          5.5E-11 Ry

     iteration # 47     ecut=   100.00 Ry     beta= 0.40
     Davidson diagonalization with overlap

---- Real-time Memory Report at c_bands before calling an iterative solver
           405 MiB given to the printing process from OS
           156 MiB allocation reported by mallinfo(arena+hblkhd)
          5371 MiB available memory on the node where the printing process lives
------------------
     ethr =  2.13E-13,  avg # of iterations = 14.0

     negative rho (up, down):  8.592E-05 0.000E+00


     -----------------------------------------------
     Non-local corr. energy    =       0.36957007 Ry
     -----------------------------------------------


     total cpu time spent up to now is      867.9 secs

     total energy              =    -330.54386092 Ry
     estimated scf accuracy    <          2.1E-09 Ry

     iteration # 48     ecut=   100.00 Ry     beta= 0.40
     Davidson diagonalization with overlap

---- Real-time Memory Report at c_bands before calling an iterative solver
           405 MiB given to the printing process from OS
           156 MiB allocation reported by mallinfo(arena+hblkhd)
          5117 MiB available memory on the node where the printing process lives
------------------
     ethr =  2.13E-13,  avg # of iterations = 10.9

     negative rho (up, down):  8.592E-05 0.000E+00


     -----------------------------------------------
     Non-local corr. energy    =       0.36957011 Ry
     -----------------------------------------------


     total cpu time spent up to now is      893.8 secs

     total energy              =    -330.54386092 Ry
     estimated scf accuracy    <          1.8E-10 Ry

     iteration # 49     ecut=   100.00 Ry     beta= 0.40
     Davidson diagonalization with overlap

---- Real-time Memory Report at c_bands before calling an iterative solver
           405 MiB given to the printing process from OS
           156 MiB allocation reported by mallinfo(arena+hblkhd)
          5172 MiB available memory on the node where the printing process lives
------------------
     ethr =  2.13E-13,  avg # of iterations =  7.3

     negative rho (up, down):  8.592E-05 0.000E+00


     -----------------------------------------------
     Non-local corr. energy    =       0.36957010 Ry
     -----------------------------------------------


     total cpu time spent up to now is      914.2 secs

     total energy              =    -330.54386092 Ry
     estimated scf accuracy    <          3.1E-12 Ry

     iteration # 50     ecut=   100.00 Ry     beta= 0.40
     Davidson diagonalization with overlap

---- Real-time Memory Report at c_bands before calling an iterative solver
           405 MiB given to the printing process from OS
           156 MiB allocation reported by mallinfo(arena+hblkhd)
          5397 MiB available memory on the node where the printing process lives
------------------
     ethr =  1.00E-13,  avg # of iterations =  4.0

     negative rho (up, down):  8.592E-05 0.000E+00


     -----------------------------------------------
     Non-local corr. energy    =       0.36957010 Ry
     -----------------------------------------------


     total cpu time spent up to now is      930.0 secs

     total energy              =    -330.54386092 Ry
     estimated scf accuracy    <          3.5E-12 Ry

     iteration # 51     ecut=   100.00 Ry     beta= 0.40
     Davidson diagonalization with overlap

---- Real-time Memory Report at c_bands before calling an iterative solver
           405 MiB given to the printing process from OS
           156 MiB allocation reported by mallinfo(arena+hblkhd)
          5056 MiB available memory on the node where the printing process lives
------------------
     ethr =  1.00E-13,  avg # of iterations =  1.4

     negative rho (up, down):  8.592E-05 0.000E+00


     -----------------------------------------------
     Non-local corr. energy    =       0.36957010 Ry
     -----------------------------------------------


     total cpu time spent up to now is      944.3 secs

     total energy              =    -330.54386092 Ry
     estimated scf accuracy    <          1.2E-12 Ry

     iteration # 52     ecut=   100.00 Ry     beta= 0.40
     Davidson diagonalization with overlap

---- Real-time Memory Report at c_bands before calling an iterative solver
           405 MiB given to the printing process from OS
           156 MiB allocation reported by mallinfo(arena+hblkhd)
          5299 MiB available memory on the node where the printing process lives
------------------
     ethr =  1.00E-13,  avg # of iterations =  1.0

     negative rho (up, down):  8.592E-05 0.000E+00


     -----------------------------------------------
     Non-local corr. energy    =       0.36957010 Ry
     -----------------------------------------------


     total cpu time spent up to now is      958.3 secs

     End of self-consistent calculation

          k = 0.0000 0.0000 0.0000 ( 44467 PWs)   bands (ev):

   -51.2344 -51.0931 -30.2774 -29.8799 -29.8685 -29.8685 -29.7358 -29.7358
   -12.2589  -6.4116  -4.0389  -4.0389  -3.1003  -2.4656  -0.6980  -0.6980
    -0.5276

     occupation numbers 
     1.0000   1.0000   1.0000   1.0000   1.0000   1.0000   1.0000   1.0000
     1.0000   1.0000   1.0000   1.0000   1.0000   1.0000   0.0000   0.0000
     0.0000

          k = 0.0000 0.0722 0.0000 ( 44445 PWs)   bands (ev):

   -51.2329 -51.0923 -30.2743 -29.9011 -29.8720 -29.8597 -29.7447 -29.7372
   -12.2213  -6.3381  -4.1969  -4.0260  -2.9703  -2.4424  -0.7883  -0.6555
    -0.5236

     occupation numbers 
     1.0000   1.0000   1.0000   1.0000   1.0000   1.0000   1.0000   1.0000
     1.0000   1.0000   1.0000   1.0000   1.0000   1.0000   0.0000   0.0000
     0.0000

          k = 0.0000 0.1443 0.0000 ( 44401 PWs)   bands (ev):

   -51.2284 -51.0899 -30.2657 -29.9402 -29.8817 -29.8563 -29.7693 -29.7413
   -12.1142  -6.1265  -4.5212  -3.9927  -2.7222  -2.3671  -1.0536  -0.5356
    -0.5106

     occupation numbers 
     1.0000   1.0000   1.0000   1.0000   1.0000   1.0000   1.0000   1.0000
     1.0000   1.0000   1.0000   1.0000   1.0000   1.0000   0.0000   0.0000
     0.0000

          k = 0.0000 0.2165 0.0000 ( 44447 PWs)   bands (ev):

   -51.2217 -51.0863 -30.2532 -29.9909 -29.8960 -29.8613 -29.8027 -29.7476
   -11.9549  -5.8101  -4.8560  -3.9531  -2.4913  -2.2311  -1.4255  -0.4817
    -0.3575

     occupation numbers 
     1.0000   1.0000   1.0000   1.0000   1.0000   1.0000   1.0000   1.0000
     1.0000   1.0000   1.0000   1.0000   1.0000   0.9986   0.0000   0.0000
     0.0000

          k = 0.0000 0.2887 0.0000 ( 44491 PWs)   bands (ev):

   -51.2138 -51.0821 -30.2398 -30.0477 -29.9126 -29.8761 -29.8340 -29.7553
   -11.7689  -5.5235  -5.0461  -3.9227  -2.3033  -2.0914  -1.7706  -0.4011
    -0.1346

     occupation numbers 
     1.0000   1.0000   1.0000   1.0000   1.0000   1.0000   1.0000   1.0000
     1.0000   1.0000   1.0000   1.0000   1.0000   0.1747   0.0000   0.0000
     0.0000

          k = 0.0000 0.3608 0.0000 ( 44530 PWs)   bands (ev):

   -51.2057 -51.0780 -30.2287 -30.1033 -29.9289 -29.8982 -29.8556 -29.7632
   -11.5861  -5.5908  -4.8034  -3.9096  -2.2516  -2.0642  -1.8247  -0.2135
     0.1357

     occupation numbers 
     1.0000   1.0000   1.0000   1.0000   1.0000   1.0000   1.0000   1.0000
     1.0000   1.0000   1.0000   1.0000   0.9998   0.0445   0.0000   0.0000
     0.0000

          k = 0.0000 0.4330 0.0000 ( 44482 PWs)   bands (ev):

   -51.1989 -51.0746 -30.2224 -30.1500 -29.9425 -29.9158 -29.8717 -29.7700
   -11.4345  -5.7462  -4.4679  -3.9111  -2.4503  -1.8396  -1.7220   0.0522
     0.4440

     occupation numbers 
     1.0000   1.0000   1.0000   1.0000   1.0000   1.0000   1.0000   1.0000
     1.0000   1.0000   1.0000   1.0000   1.0000   0.0000   0.0000   0.0000
     0.0000

          k = 0.0000 0.5052 0.0000 ( 44514 PWs)   bands (ev):

   -51.1942 -51.0723 -30.2203 -30.1813 -29.9515 -29.9229 -29.8846 -29.7747
   -11.3354  -5.8473  -4.2508  -3.9181  -2.5813  -1.6292  -1.5866   0.1973
     0.3164

     occupation numbers 
     1.0000   1.0000   1.0000   1.0000   1.0000   1.0000   1.0000   1.0000
     1.0000   1.0000   1.0000   1.0000   1.0000   0.0000   0.0000   0.0000
     0.0000

          k = 0.0000-0.5774 0.0000 ( 44512 PWs)   bands (ev):

   -51.1926 -51.0715 -30.2198 -30.1925 -29.9547 -29.9237 -29.8902 -29.7763
   -11.3011  -5.8810  -4.1807  -3.9216  -2.6243  -1.5882  -1.4653   0.2104
     0.4065

     occupation numbers 
     1.0000   1.0000   1.0000   1.0000   1.0000   1.0000   1.0000   1.0000
     1.0000   1.0000   1.0000   1.0000   1.0000   0.0000   0.0000   0.0000
     0.0000

          k = 0.0625 0.1083 0.0000 ( 44412 PWs)   bands (ev):

   -51.2299 -51.0906 -30.2684 -29.9278 -29.8801 -29.8556 -29.7607 -29.7406
   -12.1489  -6.1952  -4.4258  -4.0083  -2.7877  -2.3925  -0.9573  -0.6195
    -0.4869

     occupation numbers 
     1.0000   1.0000   1.0000   1.0000   1.0000   1.0000   1.0000   1.0000
     1.0000   1.0000   1.0000   1.0000   1.0000   1.0000   0.0000   0.0000
     0.0000

          k = 0.0625 0.1804 0.0000 ( 44437 PWs)   bands (ev):

   -51.2243 -51.0876 -30.2578 -29.9697 -29.8962 -29.8557 -29.7880 -29.7472
   -12.0157  -5.9270  -4.7374  -3.9866  -2.5527  -2.2805  -1.2715  -0.6066
    -0.3726

     occupation numbers 
     1.0000   1.0000   1.0000   1.0000   1.0000   1.0000   1.0000   1.0000
     1.0000   1.0000   1.0000   1.0000   1.0000   1.0000   0.0000   0.0000
     0.0000

          k = 0.0625 0.2526 0.0000 ( 44446 PWs)   bands (ev):

   -51.2169 -51.0838 -30.2448 -30.0211 -29.9167 -29.8626 -29.8194 -29.7555
   -11.8431  -5.5901  -5.0163  -3.9708  -2.3460  -2.1102  -1.6358  -0.5752
    -0.2358

     occupation numbers 
     1.0000   1.0000   1.0000   1.0000   1.0000   1.0000   1.0000   1.0000
     1.0000   1.0000   1.0000   1.0000   1.0000   0.3413   0.0000   0.0000
     0.0000

          k = 0.0625 0.3248 0.0000 ( 44500 PWs)   bands (ev):

   -51.2089 -51.0796 -30.2324 -30.0758 -29.9374 -29.8778 -29.8456 -29.7642
   -11.6589  -5.4771  -4.9757  -3.9673  -2.1962  -2.0086  -1.8583  -0.4684
    -0.0974

     occupation numbers 
     1.0000   1.0000   1.0000   1.0000   1.0000   1.0000   1.0000   1.0000
     1.0000   1.0000   1.0000   1.0000   0.9777   0.0006   0.0000   0.0000
     0.0000

          k = 0.0625 0.3969 0.0000 ( 44520 PWs)   bands (ev):

   -51.2015 -51.0759 -30.2234 -30.1261 -29.9541 -29.8980 -29.8630 -29.7721
   -11.4922  -5.6343  -4.6243  -3.9744  -2.3203  -1.8941  -1.7665  -0.2511
     0.0696

     occupation numbers 
     1.0000   1.0000   1.0000   1.0000   1.0000   1.0000   1.0000   1.0000
     1.0000   1.0000   1.0000   1.0000   1.0000   0.0000   0.0000   0.0000
     0.0000

          k = 0.0625 0.4691 0.0000 ( 44513 PWs)   bands (ev):

   -51.1957 -51.0730 -30.2188 -30.1650 -29.9639 -29.9137 -29.8756 -29.7782
   -11.3676  -5.7628  -4.3384  -3.9855  -2.4731  -1.6916  -1.6447   0.0130
     0.2405

     occupation numbers 
     1.0000   1.0000   1.0000   1.0000   1.0000   1.0000   1.0000   1.0000
     1.0000   1.0000   1.0000   1.0000   1.0000   0.0000   0.0000   0.0000
     0.0000

          k = 0.0625 0.5413 0.0000 ( 44574 PWs)   bands (ev):

   -51.1926 -51.0715 -30.2166 -30.1870 -29.9679 -29.9212 -29.8834 -29.7816
   -11.3015  -5.8279  -4.1966  -3.9934  -2.5474  -1.5991  -1.4868   0.2017
     0.3381

     occupation numbers 
     1.0000   1.0000   1.0000   1.0000   1.0000   1.0000   1.0000   1.0000
     1.0000   1.0000   1.0000   1.0000   1.0000   0.0000   0.0000   0.0000
     0.0000

          k = 0.1250 0.2165 0.0000 ( 44446 PWs)   bands (ev):

   -51.2181 -51.0844 -30.2466 -30.0087 -29.9233 -29.8568 -29.8106 -29.7582
   -11.8693  -5.6196  -4.9870  -4.0109  -2.3479  -2.1090  -1.5625  -0.6965
    -0.2618

     occupation numbers 
     1.0000   1.0000   1.0000   1.0000   1.0000   1.0000   1.0000   1.0000
     1.0000   1.0000   1.0000   1.0000   1.0000   0.3290   0.0000   0.0000
     0.0000

          k = 0.1250 0.2887 0.0000 ( 44441 PWs)   bands (ev):

   -51.2107 -51.0805 -30.2343 -30.0534 -29.9532 -29.8628 -29.8347 -29.7705
   -11.6986  -5.3220  -5.1394  -4.0525  -2.1753  -1.8867  -1.8273  -0.7484
    -0.1681

     occupation numbers 
     1.0000   1.0000   1.0000   1.0000   1.0000   1.0000   1.0000   1.0000
     1.0000   1.0000   1.0000   1.0000   0.9222   0.0000   0.0000   0.0000
     0.0000

          k = 0.1250 0.3608 0.0000 ( 44520 PWs)   bands (ev):

   -51.2033 -51.0768 -30.2236 -30.0993 -29.9774 -29.8764 -29.8550 -29.7813
   -11.5311  -5.4576  -4.8016  -4.0955  -2.1716  -1.9203  -1.6600  -0.6794
    -0.0106

     occupation numbers 
     1.0000   1.0000   1.0000   1.0000   1.0000   1.0000   1.0000   1.0000
     1.0000   1.0000   1.0000   1.0000   0.9061   0.0000   0.0000   0.0000
     0.0000

          k = 0.1250 0.4330 0.0000 ( 44559 PWs)   bands (ev):

   -51.1969 -51.0736 -30.2157 -30.1402 -29.9921 -29.8959 -29.8668 -29.7899
   -11.3926  -5.5967  -4.4684  -4.1306  -2.2974  -1.7752  -1.5582  -0.4256
     0.1946

     occupation numbers 
     1.0000   1.0000   1.0000   1.0000   1.0000   1.0000   1.0000   1.0000
     1.0000   1.0000   1.0000   1.0000   1.0000   0.0000   0.0000   0.0000
     0.0000

          k = 0.1250 0.5052 0.0000 ( 44600 PWs)   bands (ev):

   -51.1926 -51.0715 -30.2097 -30.1702 -29.9984 -29.9115 -29.8735 -29.7956
   -11.3023  -5.6800  -4.2595  -4.1544  -2.3625  -1.6432  -1.4877  -0.0873
     0.3318

     occupation numbers 
     1.0000   1.0000   1.0000   1.0000   1.0000   1.0000   1.0000   1.0000
     1.0000   1.0000   1.0000   1.0000   1.0000   0.0000   0.0000   0.0000
     0.0000

          k = 0.1250 0.5774 0.0000 ( 44574 PWs)   bands (ev):

   -51.1911 -51.0707 -30.2056 -30.1830 -29.9998 -29.9173 -29.8758 -29.7976
   -11.2710  -5.7073  -4.1818  -4.1733  -2.3806  -1.5898  -1.4503   0.1553
     0.2796

     occupation numbers 
     1.0000   1.0000   1.0000   1.0000   1.0000   1.0000   1.0000   1.0000
     1.0000   1.0000   1.0000   1.0000   1.0000   0.0000   0.0000   0.0000
     0.0000

          k = 0.1875 0.3248 0.0000 ( 44526 PWs)   bands (ev):

   -51.2039 -51.0771 -30.2236 -30.0852 -29.9905 -29.8666 -29.8513 -29.7876
   -11.5449  -5.3362  -4.9188  -4.1517  -2.0799  -1.9843  -1.4897  -0.9399
    -0.0433

     occupation numbers 
     1.0000   1.0000   1.0000   1.0000   1.0000   1.0000   1.0000   1.0000
     1.0000   1.0000   1.0000   1.0000   0.1038   0.0000   0.0000   0.0000
     0.0000

          k = 0.1875 0.3969 0.0000 ( 44570 PWs)   bands (ev):

   -51.1975 -51.0739 -30.2136 -30.1161 -30.0182 -29.8777 -29.8652 -29.8020
   -11.4063  -5.4245  -4.6252  -4.2240  -2.1519  -1.8629  -1.2917  -0.8906
     0.1565

     occupation numbers 
     1.0000   1.0000   1.0000   1.0000   1.0000   1.0000   1.0000   1.0000
     1.0000   1.0000   1.0000   1.0000   0.7772   0.0000   0.0000   0.0000
     0.0000

          k = 0.1875 0.4691 0.0000 ( 44602 PWs)   bands (ev):

   -51.1926 -51.0715 -30.2037 -30.1451 -30.0331 -29.8962 -29.8697 -29.8121
   -11.3030  -5.4830  -4.4546  -4.2263  -2.1656  -1.7165  -1.3911  -0.4872
     0.3495

     occupation numbers 
     1.0000   1.0000   1.0000   1.0000   1.0000   1.0000   1.0000   1.0000
     1.0000   1.0000   1.0000   1.0000   0.8743   0.0000   0.0000   0.0000
     0.0000

          k = 0.1875 0.5413 0.0000 ( 44650 PWs)   bands (ev):

   -51.1900 -51.0702 -30.1924 -30.1679 -30.0385 -29.9086 -29.8711 -29.8176
   -11.2484  -5.5109  -4.4204  -4.1770  -2.1499  -1.6103  -1.4502  -0.1379
     0.3631

     occupation numbers 
     1.0000   1.0000   1.0000   1.0000   1.0000   1.0000   1.0000   1.0000
     1.0000   1.0000   1.0000   1.0000   0.7601   0.0000   0.0000   0.0000
     0.0000

          k = 0.2500 0.4330 0.0000 ( 44574 PWs)   bands (ev):

   -51.1926 -51.0715 -30.2014 -30.1287 -30.0528 -29.8838 -29.8736 -29.8200
   -11.3034  -5.3691  -4.5809  -4.2417  -2.0705  -1.7637  -1.2857  -0.7051
     0.3490

     occupation numbers 
     1.0000   1.0000   1.0000   1.0000   1.0000   1.0000   1.0000   1.0000
     1.0000   1.0000   1.0000   1.0000   0.0639   0.0000   0.0000   0.0000
     0.0000

          k = 0.2500 0.5052 0.0000 ( 44639 PWs)   bands (ev):

   -51.1894 -51.0699 -30.1854 -30.1440 -30.0739 -29.8970 -29.8732 -29.8320
   -11.2363  -5.3120  -4.6391  -4.1839  -1.9616  -1.6482  -1.4424  -0.3627
     0.4539

     occupation numbers 
     1.0000   1.0000   1.0000   1.0000   1.0000   1.0000   1.0000   1.0000
     1.0000   1.0000   1.0000   1.0000   0.0000   0.0000   0.0000   0.0000
     0.0000

          k = 0.2500 0.5774 0.0000 ( 44672 PWs)   bands (ev):

   -51.1882 -51.0693 -30.1680 -30.1619 -30.0800 -29.9030 -29.8719 -29.8366
   -11.2132  -5.2868  -4.6703  -4.1585  -1.9074  -1.5923  -1.5092  -0.1959
     0.3740

     occupation numbers 
     1.0000   1.0000   1.0000   1.0000   1.0000   1.0000   1.0000   1.0000
     1.0000   1.0000   1.0000   1.0000   0.0000   0.0000   0.0000   0.0000
     0.0000

          k = 0.3125 0.5413 0.0000 ( 44654 PWs)   bands (ev):

   -51.1876 -51.0690 -30.1616 -30.1440 -30.1074 -29.8990 -29.8743 -29.8438
   -11.2010  -5.1185  -4.8447  -4.1539  -1.7668  -1.5897  -1.5721  -0.2317
     0.4297

     occupation numbers 
     1.0000   1.0000   1.0000   1.0000   1.0000   1.0000   1.0000   1.0000
     1.0000   1.0000   1.0000   1.0000   0.0000   0.0000   0.0000   0.0000
     0.0000

     the Fermi energy is    -2.1247 ev

!    total energy              =    -330.54386092 Ry
     total all-electron energy =     -3131.285525 Ry
     estimated scf accuracy    <          4.1E-13 Ry
     smearing contrib. (-TS)   =      -0.00050597 Ry
     internal energy E=F+TS    =    -330.54335495 Ry

     The total energy is F=E-TS. E is the sum of the following terms:
     one-electron contribution =   -2543.24354058 Ry
     hartree contribution      =    1269.05600457 Ry
     xc contribution           =     -39.60607577 Ry
     ewald contribution        =    1108.07120273 Ry
     one-center paw contrib.   =    -124.82094591 Ry
      -> PAW hartree energy AE =       7.22894289 Ry
      -> PAW hartree energy PS =      -7.22027264 Ry
      -> PAW xc energy AE      =     -10.09760558 Ry
      -> PAW xc energy PS      =       4.03093453 Ry
      -> total E_H with PAW    =    1269.06467482 Ry
      -> total E_XC with PAW   =     -45.67274682 Ry

     convergence has been achieved in  52 iterations

     negative rho (up, down):  8.592E-05 0.000E+00


     -----------------------------------------------
     Non-local corr. energy    =       0.36957010 Ry
     -----------------------------------------------


     Forces acting on atoms (cartesian axes, Ry/au):

     atom    1 type  2   force =     0.00000000   -0.00000000    0.00336745
     atom    2 type  1   force =     0.00000000    0.00000000   -0.00729343
     atom    3 type  1   force =     0.00000000   -0.00000000    0.00392598
     The non-local contrib.  to forces
     atom    1 type  2   force =     0.00000000    0.00000000    0.01843354
     atom    2 type  1   force =     0.00000000    0.00000000    0.39616640
     atom    3 type  1   force =     0.00000000   -0.00000000   -0.42344139
     The ionic contribution  to forces
     atom    1 type  2   force =     0.00000000    0.00000000   -0.38693014
     atom    2 type  1   force =     0.00000000   -0.00000000  -49.41287250
     atom    3 type  1   force =    -0.00000000    0.00000000   49.79980265
     The local contribution  to forces
     atom    1 type  2   force =    -0.00000000   -0.00000000    0.37261424
     atom    2 type  1   force =     0.00000002   -0.00000001   49.03062878
     atom    3 type  1   force =    -0.00000002    0.00000001  -49.39441132
     The core correction contribution to forces
     atom    1 type  2   force =     0.00000000    0.00000000   -0.00075527
     atom    2 type  1   force =    -0.00000000    0.00000000   -0.02121952
     atom    3 type  1   force =     0.00000000   -0.00000000    0.02196956
     The Hubbard contrib.    to forces
     atom    1 type  2   force =     0.00000000    0.00000000    0.00000000
     atom    2 type  1   force =     0.00000000    0.00000000    0.00000000
     atom    3 type  1   force =     0.00000000    0.00000000    0.00000000
     The SCF correction term to forces
     atom    1 type  2   force =     0.00000000    0.00000000   -0.00000010
     atom    2 type  1   force =    -0.00000000   -0.00000000   -0.00000177
     atom    3 type  1   force =    -0.00000000    0.00000000    0.00000129

     Total force =     0.008941     Total SCF correction =     0.000002


     Computing stress (Cartesian axis) and pressure


     negative rho (up, down):  8.592E-05 0.000E+00


     -----------------------------------------------
     Non-local corr. energy    =       0.36957010 Ry
     -----------------------------------------------

          total   stress  (Ry/bohr**3)                   (kbar)     P=       -2.84
  -0.00003387  -0.00000000   0.00000000           -4.98       -0.00        0.00
  -0.00000000  -0.00003387   0.00000000           -0.00       -4.98        0.00
   0.00000000   0.00000000   0.00000973            0.00        0.00        1.43

     kinetic stress (kbar)   3107.87      0.00      0.00
                                0.00   3107.87     -0.00
                                0.00     -0.00   3065.43

     local   stress (kbar)-140325.27      0.00      0.00
                                0.00-140325.27     -0.00
                                0.00     -0.00 136766.42

     nonloc. stress (kbar)   1249.15      0.00      0.00
                                0.00   1249.15      0.00
                                0.00      0.00   1263.48

     hartree stress (kbar)  69308.05     -0.00      0.00
                               -0.00  69308.05      0.00
                                0.00      0.00 -67815.59

     exc-cor stress (kbar)     66.55     -0.00      0.00
                               -0.00     66.55     -0.00
                                0.00     -0.00     63.51

     corecor stress (kbar)   -669.31      0.00     -0.00
                                0.00   -669.31      0.00
                               -0.00      0.00   -668.80

     ewald   stress (kbar)  67251.04      0.00     -0.00
                                0.00  67251.04      0.00
                               -0.00      0.00 -72682.88

     hubbard stress (kbar)      0.00      0.00      0.00
                                0.00      0.00      0.00
                                0.00      0.00      0.00

     DFT-D   stress (kbar)      0.00      0.00      0.00
                                0.00      0.00      0.00
                                0.00      0.00      0.00

     XDM     stress (kbar)      0.00      0.00      0.00
                                0.00      0.00      0.00
                                0.00      0.00      0.00

     dft-nl  stress (kbar)      6.94      0.00     -0.00
                                0.00      6.94     -0.00
                               -0.00     -0.00      9.87

     TS-vdW  stress (kbar)      0.00      0.00      0.00
                                0.00      0.00      0.00
                                0.00      0.00      0.00

     MDB     stress (kbar)      0.00      0.00      0.00
                                0.00      0.00      0.00
                                0.00      0.00      0.00

     3D-RISM stress (kbar)      0.00      0.00      0.00
                                0.00      0.00      0.00
                                0.00      0.00      0.00


     Writing all to output data dir ./out/sc2c.save/ :
     XML data file, charge density, pseudopotentials, collected wavefunctions

     init_run     :     16.17s CPU     17.05s WALL (       1 calls)
     electrons    :    880.75s CPU    941.02s WALL (       1 calls)
     forces       :      5.89s CPU      6.61s WALL (       1 calls)
     stress       :     14.75s CPU     15.98s WALL (       1 calls)

     Called by init_run:
     wfcinit      :      4.22s CPU      4.40s WALL (       1 calls)
     wfcinit:atom :      0.04s CPU      0.04s WALL (       8 calls)
     wfcinit:wfcr :      4.04s CPU      4.21s WALL (       8 calls)
     potinit      :     10.09s CPU     10.58s WALL (       1 calls)
     hinit0       :      0.78s CPU      0.82s WALL (       1 calls)

     Called by electrons:
     c_bands      :    534.59s CPU    548.82s WALL (      52 calls)
     sum_band     :    111.62s CPU    121.95s WALL (      52 calls)
     v_of_rho     :    209.50s CPU    238.58s WALL (      53 calls)
     v_h          :      1.68s CPU      1.78s WALL (      53 calls)
     v_xc         :    215.27s CPU    245.25s WALL (      55 calls)
     newd         :     21.06s CPU     27.76s WALL (      53 calls)
     PAW_pot      :      6.14s CPU      6.24s WALL (      53 calls)
     mix_rho      :      3.03s CPU      3.15s WALL (      52 calls)
     vdW_kernel   :      5.93s CPU      5.94s WALL (       1 calls)

     Called by c_bands:
     init_us_2    :      9.96s CPU     10.06s WALL (     856 calls)
     cegterg      :    492.47s CPU    506.35s WALL (     416 calls)

     Called by sum_band:
     sum_band:wei :      0.02s CPU      0.02s WALL (      52 calls)
     sum_band:loo :     77.65s CPU     80.60s WALL (      52 calls)
     sum_band:buf :      0.86s CPU      0.88s WALL (     416 calls)
     sum_band:ini :      4.61s CPU      4.66s WALL (     416 calls)
     sum_band:cal :     14.13s CPU     14.25s WALL (     416 calls)
     sum_band:bec :      0.02s CPU      0.02s WALL (     416 calls)
     addusdens    :     28.55s CPU     35.10s WALL (      52 calls)
                                        0.00s GPU  (      52 calls)
     addusd:skk   :      0.05s CPU      0.05s WALL (     104 calls)
                                        0.00s GPU  (     104 calls)

     Called by *egterg:
     cdiaghg      :      1.41s CPU      1.42s WALL (    2665 calls)
     cegterg:over :     27.27s CPU     27.54s WALL (    2249 calls)
     cegterg:upda :     21.02s CPU     21.11s WALL (    2249 calls)
     cegterg:last :     51.48s CPU     51.93s WALL (    1086 calls)
     h_psi        :    343.23s CPU    356.09s WALL (    2673 calls)
     s_psi        :     37.67s CPU     37.89s WALL (    2673 calls)
     g_psi        :      0.77s CPU      0.78s WALL (    2249 calls)

     Called by h_psi:
     h_psi:calbec :     39.34s CPU     39.68s WALL (    2673 calls)
     vloc_psi     :    263.72s CPU    275.98s WALL (    2673 calls)
                                        0.00s GPU  (    2673 calls)
     add_vuspsi   :     37.99s CPU     38.23s WALL (    2673 calls)

     General routines
     calbec       :     57.91s CPU     58.42s WALL (    3225 calls)
     fft          :    131.53s CPU    144.07s WALL (    3506 calls)
     ffts         :      1.29s CPU      1.39s WALL (     105 calls)
     fftw         :    233.79s CPU    247.55s WALL (   49630 calls)
     interpolate  :      3.32s CPU      3.58s WALL (      53 calls)

     Parallel routines

     PAW routines
     PAW_pot      :      6.14s CPU      6.24s WALL (      53 calls)
     PAW_symme    :      0.02s CPU      0.02s WALL (     105 calls)

     PWSCF        :  15m18.05s CPU  16m21.31s WALL


   This run was terminated on:   2:36:48   3Oct2026            

=------------------------------------------------------------------------------=
   JOB DONE.
=------------------------------------------------------------------------------=
