    6    6    1    1
  0.8873998E+02  0.3950116E-09  0.3950116E-09  0.3940219E-08  0.5000000E-15
  1.000000000000000E-004
  CAR 
 SnS2                                    
     51     37     32
 
  0.0000000E+00  0.0000000E+00  0.0000000E+00  0.3086420E-02
    1      -36.426617   1.000000
    2      -36.282073   1.000000
    3      -23.319454   1.000000
    4      -23.319451   1.000000
    5      -23.305062   1.000000
    6      -23.289079   1.000000
    7      -23.289079   1.000000
    8      -18.955036   1.000000
    9      -18.319202   1.000000
   10      -18.299347   1.000000
   11      -18.299343   1.000000
   12      -18.184269   1.000000
   13      -18.184264   1.000000
   14      -15.513303   1.000000
   15      -14.534019   1.000000
   16      -13.028246   1.000000
   17       -8.281392   1.000000
   18       -4.446071   1.000000
   19       -3.506150   1.000000
   20       -3.187684   1.000000
   21       -3.187679   1.000000
   22       -2.942594   1.000000
   23       -2.942594   1.000000
   24       -2.631581   1.000000
   25       -2.631575   1.000000
   26       -2.047900   1.000000
   27       -1.455989   0.162304
   28        0.157341   0.000000
   29        0.689847   0.000000
   30        1.543157   0.000000
   31        1.639133   0.000000
   32        1.650531   0.000000
 
  0.5555556E-01 -0.6938894E-17 -0.6259272E-33  0.1851852E-01
    1      -36.425369   1.000000
    2      -36.281456   1.000000
    3      -23.320351   1.000000
    4      -23.318701   1.000000
    5      -23.304449   1.000000
    6      -23.289548   1.000000
    7      -23.288951   1.000000
    8      -18.950787   1.000000
    9      -18.349053   1.000000
   10      -18.304054   1.000000
   11      -18.284708   1.000000
   12      -18.196139   1.000000
   13      -18.185063   1.000000
   14      -15.488759   1.000000
   15      -14.517412   1.000000
   16      -13.019782   1.000000
   17       -8.284381   1.000000
   18       -4.433048   1.000000
   19       -3.540674   1.000000
   20       -3.391424   1.000000
   21       -3.263486   1.000000
   22       -3.048008   1.000000
   23       -2.931734   1.000000
   24       -2.757254   1.000000
   25       -2.624604   1.000000
   26       -1.925589   1.000000
   27       -1.324075   0.000001
   28        0.355617   0.000000
   29        0.720254   0.000000
   30        1.482337   0.000000
   31        1.608006   0.000000
   32        1.698551   0.000000
 
  0.1111111E+00 -0.1387779E-16 -0.1251854E-32  0.1851852E-01
    1      -36.421768   1.000000
    2      -36.279685   1.000000
    3      -23.323054   1.000000
    4      -23.316640   1.000000
    5      -23.302696   1.000000
    6      -23.290767   1.000000
    7      -23.288468   1.000000
    8      -18.938960   1.000000
    9      -18.402985   1.000000
   10      -18.317255   1.000000
   11      -18.280044   1.000000
   12      -18.223369   1.000000
   13      -18.187684   1.000000
   14      -15.416312   1.000000
   15      -14.469792   1.000000
   16      -12.996349   1.000000
   17       -8.298417   1.000000
   18       -4.442802   1.000000
   19       -3.901434   1.000000
   20       -3.587460   1.000000
   21       -3.445650   1.000000
   22       -3.310784   1.000000
   23       -2.917777   1.000000
   24       -2.855375   1.000000
   25       -2.617008   1.000000
   26       -1.738239   1.000000
   27       -1.091892   0.000000
   28        0.670232   0.000000
   29        0.854604   0.000000
   30        1.372183   0.000000
   31        1.501056   0.000000
   32        1.913593   0.000000
 
  0.1666667E+00  0.0000000E+00 -0.3851860E-33  0.1851852E-01
    1      -36.416223   1.000000
    2      -36.276990   1.000000
    3      -23.327425   1.000000
    4      -23.313846   1.000000
    5      -23.300336   1.000000
    6      -23.292067   1.000000
    7      -23.287354   1.000000
    8      -18.922376   1.000000
    9      -18.473294   1.000000
   10      -18.336648   1.000000
   11      -18.306128   1.000000
   12      -18.239693   1.000000
   13      -18.192443   1.000000
   14      -15.299587   1.000000
   15      -14.397536   1.000000
   16      -12.963049   1.000000
   17       -8.338338   1.000000
   18       -4.738696   1.000000
   19       -4.205652   1.000000
   20       -3.812965   1.000000
   21       -3.675311   1.000000
   22       -3.445536   1.000000
   23       -2.922096   1.000000
   24       -2.868632   1.000000
   25       -2.613479   1.000000
   26       -1.535015   0.894382
   27       -1.025966   0.000000
   28        0.698263   0.000000
   29        1.083091   0.000000
   30        1.170907   0.000000
   31        1.744680   0.000000
   32        2.076946   0.000000
 
  0.2222222E+00  0.0000000E+00 -0.1540744E-32  0.1851852E-01
    1      -36.409375   1.000000
    2      -36.273715   1.000000
    3      -23.333037   1.000000
    4      -23.311134   1.000000
    5      -23.299106   1.000000
    6      -23.291762   1.000000
    7      -23.285267   1.000000
    8      -18.905912   1.000000
    9      -18.553947   1.000000
   10      -18.359401   1.000000
   11      -18.351238   1.000000
   12      -18.243860   1.000000
   13      -18.199180   1.000000
   14      -15.145013   1.000000
   15      -14.310663   1.000000
   16      -12.926136   1.000000
   17       -8.425407   1.000000
   18       -5.246189   1.000000
   19       -4.482277   1.000000
   20       -3.913929   1.000000
   21       -3.903416   1.000000
   22       -3.414833   1.000000
   23       -2.958700   1.000000
   24       -2.867187   1.000000
   25       -2.600206   1.000000
   26       -1.315311   0.000000
   27       -1.184479   0.000000
   28        0.610476   0.000000
   29        0.980069   0.000000
   30        1.357076   0.000000
   31        1.989622   0.000000
   32        2.241929   0.000000
 
  0.2777778E+00  0.0000000E+00 -0.2118523E-32  0.1851852E-01
    1      -36.402028   1.000000
    2      -36.270270   1.000000
    3      -23.339199   1.000000
    4      -23.309164   1.000000
    5      -23.300097   1.000000
    6      -23.288936   1.000000
    7      -23.282120   1.000000
    8      -18.896420   1.000000
    9      -18.633641   1.000000
   10      -18.392860   1.000000
   11      -18.382667   1.000000
   12      -18.247850   1.000000
   13      -18.207130   1.000000
   14      -14.962578   1.000000
   15      -14.222258   1.000000
   16      -12.890917   1.000000
   17       -8.575132   1.000000
   18       -5.708731   1.000000
   19       -4.779171   1.000000
   20       -4.135604   1.000000
   21       -3.876831   1.000000
   22       -3.346432   1.000000
   23       -3.021859   1.000000
   24       -2.841618   1.000000
   25       -2.574627   1.000000
   26       -1.496650   0.565545
   27       -1.031310   0.000000
   28        0.413814   0.000000
   29        0.969334   0.000000
   30        1.500888   0.000000
   31        2.082133   0.000000
   32        2.368751   0.000000
 
  0.3333333E+00  0.0000000E+00 -0.1348151E-32  0.1851852E-01
    1      -36.395063   1.000000
    2      -36.267075   1.000000
    3      -23.345104   1.000000
    4      -23.308077   1.000000
    5      -23.301756   1.000000
    6      -23.285422   1.000000
    7      -23.278384   1.000000
    8      -18.900897   1.000000
    9      -18.698794   1.000000
   10      -18.422082   1.000000
   11      -18.403830   1.000000
   12      -18.253599   1.000000
   13      -18.215143   1.000000
   14      -14.767028   1.000000
   15      -14.147493   1.000000
   16      -12.860823   1.000000
   17       -8.776915   1.000000
   18       -6.081404   1.000000
   19       -4.973128   1.000000
   20       -4.322759   1.000000
   21       -3.849480   1.000000
   22       -3.313592   1.000000
   23       -3.092418   1.000000
   24       -2.764098   1.000000
   25       -2.546301   1.000000
   26       -1.789269   1.000000
   27       -0.747708   0.000000
   28        0.229272   0.000000
   29        0.948393   0.000000
   30        1.457779   0.000000
   31        2.238830   0.000000
   32        2.408691   0.000000
 
  0.3888889E+00 -0.2775558E-16 -0.1540744E-32  0.1851852E-01
    1      -36.389339   1.000000
    2      -36.264504   1.000000
    3      -23.349978   1.000000
    4      -23.307621   1.000000
    5      -23.303227   1.000000
    6      -23.282383   1.000000
    7      -23.274911   1.000000
    8      -18.919493   1.000000
    9      -18.740912   1.000000
   10      -18.437176   1.000000
   11      -18.420672   1.000000
   12      -18.260264   1.000000
   13      -18.221980   1.000000
   14      -14.579444   1.000000
   15      -14.100978   1.000000
   16      -12.837823   1.000000
   17       -8.986312   1.000000
   18       -6.358270   1.000000
   19       -5.051502   1.000000
   20       -4.463693   1.000000
   21       -3.855541   1.000000
   22       -3.315943   1.000000
   23       -3.153480   1.000000
   24       -2.657030   1.000000
   25       -2.523181   1.000000
   26       -2.029090   1.000000
   27       -0.447710   0.000000
   28        0.088751   0.000000
   29        0.920498   0.000000
   30        1.301297   0.000000
   31        2.188698   0.000000
   32        2.448899   0.000000
 
  0.4444444E+00  0.0000000E+00 -0.3081488E-32  0.1851852E-01
    1      -36.385579   1.000000
    2      -36.262844   1.000000
    3      -23.353177   1.000000
    4      -23.307477   1.000000
    5      -23.304198   1.000000
    6      -23.280365   1.000000
    7      -23.272480   1.000000
    8      -18.939984   1.000000
    9      -18.762457   1.000000
   10      -18.442089   1.000000
   11      -18.431486   1.000000
   12      -18.265864   1.000000
   13      -18.226564   1.000000
   14      -14.430331   1.000000
   15      -14.089378   1.000000
   16      -12.823244   1.000000
   17       -9.143960   1.000000
   18       -6.531727   1.000000
   19       -5.056499   1.000000
   20       -4.550981   1.000000
   21       -3.893767   1.000000
   22       -3.315385   1.000000
   23       -3.194077   1.000000
   24       -2.571007   1.000000
   25       -2.508754   1.000000
   26       -2.186495   1.000000
   27       -0.170440   0.000000
   28        0.001161   0.000000
   29        0.905113   0.000000
   30        1.100131   0.000000
   31        2.129594   0.000000
   32        2.455291   0.000000
 
  0.5000000E+00  0.0000000E+00 -0.3851860E-33  0.9259259E-02
    1      -36.384269   1.000000
    2      -36.262271   1.000000
    3      -23.354290   1.000000
    4      -23.307452   1.000000
    5      -23.304535   1.000000
    6      -23.279659   1.000000
    7      -23.271611   1.000000
    8      -18.948516   1.000000
    9      -18.769012   1.000000
   10      -18.442792   1.000000
   11      -18.435212   1.000000
   12      -18.268095   1.000000
   13      -18.228176   1.000000
   14      -14.367855   1.000000
   15      -14.094381   1.000000
   16      -12.818222   1.000000
   17       -9.202441   1.000000
   18       -6.591158   1.000000
   19       -5.048114   1.000000
   20       -4.580516   1.000000
   21       -3.917232   1.000000
   22       -3.311905   1.000000
   23       -3.208240   1.000000
   24       -2.537572   1.000000
   25       -2.503918   1.000000
   26       -2.243148   1.000000
   27       -0.051096   0.000000
   28       -0.014377   0.000000
   29        0.913908   0.000000
   30        0.974869   0.000000
   31        2.110572   0.000000
   32        2.476021   0.000000
 
  0.5555556E-01  0.5555556E-01 -0.3851860E-33  0.1851852E-01
    1      -36.422945   1.000000
    2      -36.280262   1.000000
    3      -23.322042   1.000000
    4      -23.317425   1.000000
    5      -23.303239   1.000000
    6      -23.290404   1.000000
    7      -23.288636   1.000000
    8      -18.942742   1.000000
    9      -18.385580   1.000000
   10      -18.316892   1.000000
   11      -18.276248   1.000000
   12      -18.214994   1.000000
   13      -18.187758   1.000000
   14      -15.440259   1.000000
   15      -14.485294   1.000000
   16      -13.003833   1.000000
   17       -8.292858   1.000000
   18       -4.426343   1.000000
   19       -3.712034   1.000000
   20       -3.629945   1.000000
   21       -3.469265   1.000000
   22       -3.079926   1.000000
   23       -2.967300   1.000000
   24       -2.842204   1.000000
   25       -2.641226   1.000000
   26       -1.787841   1.000000
   27       -1.144573   0.000000
   28        0.656986   0.000000
   29        0.773829   0.000000
   30        1.400792   0.000000
   31        1.478098   0.000000
   32        1.815637   0.000000
 
  0.1111111E+00  0.5555556E-01 -0.1540744E-32  0.3703704E-01
    1      -36.418371   1.000000
    2      -36.278029   1.000000
    3      -23.325369   1.000000
    4      -23.315290   1.000000
    5      -23.301029   1.000000
    6      -23.291776   1.000000
    7      -23.287788   1.000000
    8      -18.928482   1.000000
    9      -18.442720   1.000000
   10      -18.343845   1.000000
   11      -18.280368   1.000000
   12      -18.235667   1.000000
   13      -18.193486   1.000000
   14      -15.345631   1.000000
   15      -14.425322   1.000000
   16      -12.975500   1.000000
   17       -8.319601   1.000000
   18       -4.548449   1.000000
   19       -4.119426   1.000000
   20       -3.909090   1.000000
   21       -3.528806   1.000000
   22       -3.274851   1.000000
   23       -3.005852   1.000000
   24       -2.855028   1.000000
   25       -2.644341   1.000000
   26       -1.606617   0.999472
   27       -1.000416   0.000000
   28        0.810739   0.000000
   29        1.019506   0.000000
   30        1.245120   0.000000
   31        1.475784   0.000000
   32        2.023377   0.000000
 
  0.1666667E+00  0.5555556E-01 -0.7703720E-33  0.3703704E-01
    1      -36.412173   1.000000
    2      -36.275045   1.000000
    3      -23.330170   1.000000
    4      -23.312818   1.000000
    5      -23.298862   1.000000
    6      -23.292692   1.000000
    7      -23.286057   1.000000
    8      -18.911754   1.000000
    9      -18.515142   1.000000
   10      -18.378611   1.000000
   11      -18.307778   1.000000
   12      -18.241899   1.000000
   13      -18.200937   1.000000
   14      -15.209825   1.000000
   15      -14.345623   1.000000
   16      -12.940501   1.000000
   17       -8.382688   1.000000
   18       -4.983389   1.000000
   19       -4.450878   1.000000
   20       -4.003982   1.000000
   21       -3.647080   1.000000
   22       -3.428229   1.000000
   23       -3.037056   1.000000
   24       -2.852216   1.000000
   25       -2.629378   1.000000
   26       -1.394237   0.003151
   27       -1.048726   0.000000
   28        0.748411   0.000000
   29        1.047673   0.000000
   30        1.303726   0.000000
   31        1.814718   0.000000
   32        1.975533   0.000000
 
  0.2222222E+00  0.5555556E-01 -0.3081488E-32  0.3703704E-01
    1      -36.405073   1.000000
    2      -36.271687   1.000000
    3      -23.335898   1.000000
    4      -23.310673   1.000000
    5      -23.298830   1.000000
    6      -23.291194   1.000000
    7      -23.283260   1.000000
    8      -18.898255   1.000000
    9      -18.594180   1.000000
   10      -18.412750   1.000000
   11      -18.342087   1.000000
   12      -18.244586   1.000000
   13      -18.209176   1.000000
   14      -15.040915   1.000000
   15      -14.257655   1.000000
   16      -12.904618   1.000000
   17       -8.501356   1.000000
   18       -5.473424   1.000000
   19       -4.740510   1.000000
   20       -4.089616   1.000000
   21       -3.816751   1.000000
   22       -3.379030   1.000000
   23       -3.088258   1.000000
   24       -2.848353   1.000000
   25       -2.603049   1.000000
   26       -1.284628   0.000000
   27       -1.128736   0.000000
   28        0.540633   0.000000
   29        1.076328   0.000000
   30        1.478438   0.000000
   31        1.924934   0.000000
   32        2.140581   0.000000
 
  0.2777778E+00  0.5555556E-01  0.0000000E+00  0.3703704E-01
    1      -36.397913   1.000000
    2      -36.268369   1.000000
    3      -23.341793   1.000000
    4      -23.309281   1.000000
    5      -23.300325   1.000000
    6      -23.287899   1.000000
    7      -23.279777   1.000000
    8      -18.894912   1.000000
    9      -18.666636   1.000000
   10      -18.438867   1.000000
   11      -18.374486   1.000000
   12      -18.249013   1.000000
   13      -18.217455   1.000000
   14      -14.851068   1.000000
   15      -14.175526   1.000000
   16      -12.872158   1.000000
   17       -8.679303   1.000000
   18       -5.891339   1.000000
   19       -4.950171   1.000000
   20       -4.294341   1.000000
   21       -3.836260   1.000000
   22       -3.333185   1.000000
   23       -3.133599   1.000000
   24       -2.813425   1.000000
   25       -2.573775   1.000000
   26       -1.551308   0.956460
   27       -0.864036   0.000000
   28        0.339907   0.000000
   29        1.084676   0.000000
   30        1.487213   0.000000
   31        2.088980   0.000000
   32        2.234255   0.000000
 
  0.3333333E+00  0.5555556E-01 -0.1540744E-32  0.3703704E-01
    1      -36.391563   1.000000
    2      -36.265490   1.000000
    3      -23.347068   1.000000
    4      -23.308608   1.000000
    5      -23.301918   1.000000
    6      -23.284401   1.000000
    7      -23.276383   1.000000
    8      -18.906100   1.000000
    9      -18.720220   1.000000
   10      -18.453202   1.000000
   11      -18.401905   1.000000
   12      -18.254790   1.000000
   13      -18.225079   1.000000
   14      -14.657868   1.000000
   15      -14.114437   1.000000
   16      -12.845749   1.000000
   17       -8.888663   1.000000
   18       -6.215210   1.000000
   19       -5.057821   1.000000
   20       -4.484789   1.000000
   21       -3.836813   1.000000
   22       -3.332001   1.000000
   23       -3.182160   1.000000
   24       -2.722025   1.000000
   25       -2.549265   1.000000
   26       -1.807635   1.000000
   27       -0.570325   0.000000
   28        0.183955   0.000000
   29        1.059233   0.000000
   30        1.374659   0.000000
   31        2.155787   0.000000
   32        2.346020   0.000000
 
  0.3888889E+00  0.5555556E-01 -0.5392604E-32  0.3703704E-01
    1      -36.386816   1.000000
    2      -36.263378   1.000000
    3      -23.351022   1.000000
    4      -23.308369   1.000000
    5      -23.303143   1.000000
    6      -23.281571   1.000000
    7      -23.273759   1.000000
    8      -18.926098   1.000000
    9      -18.751377   1.000000
   10      -18.456865   1.000000
   11      -18.422575   1.000000
   12      -18.260268   1.000000
   13      -18.231159   1.000000
   14      -14.486213   1.000000
   15      -14.086346   1.000000
   16      -12.827003   1.000000
   17       -9.075846   1.000000
   18       -6.438937   1.000000
   19       -5.084236   1.000000
   20       -4.617197   1.000000
   21       -3.861881   1.000000
   22       -3.331467   1.000000
   23       -3.237665   1.000000
   24       -2.619835   1.000000
   25       -2.533343   1.000000
   26       -2.001341   1.000000
   27       -0.276476   0.000000
   28        0.077917   0.000000
   29        1.030898   0.000000
   30        1.209334   0.000000
   31        2.121580   0.000000
   32        2.365615   0.000000
 
  0.4444444E+00  0.5555556E-01  0.0000000E+00  0.3703704E-01
    1      -36.384277   1.000000
    2      -36.262264   1.000000
    3      -23.353135   1.000000
    4      -23.308313   1.000000
    5      -23.303801   1.000000
    6      -23.279996   1.000000
    7      -23.272345   1.000000
    8      -18.940922   1.000000
    9      -18.764975   1.000000
   10      -18.454852   1.000000
   11      -18.435011   1.000000
   12      -18.263640   1.000000
   13      -18.234603   1.000000
   14      -14.373841   1.000000
   15      -14.087985   1.000000
   16      -12.817197   1.000000
   17       -9.186111   1.000000
   18       -6.554301   1.000000
   19       -5.077253   1.000000
   20       -4.683028   1.000000
   21       -3.892853   1.000000
   22       -3.323665   1.000000
   23       -3.273545   1.000000
   24       -2.555843   1.000000
   25       -2.526735   1.000000
   26       -2.106694   1.000000
   27       -0.061512   0.000000
   28        0.032514   0.000000
   29        0.993553   0.000000
   30        1.070688   0.000000
   31        2.092807   0.000000
   32        2.442740   0.000000
 
  0.1111111E+00  0.1111111E+00 -0.7703720E-33  0.1851852E-01
    1      -36.413143   1.000000
    2      -36.275508   1.000000
    3      -23.328775   1.000000
    4      -23.313929   1.000000
    5      -23.298635   1.000000
    6      -23.293137   1.000000
    7      -23.286229   1.000000
    8      -18.913931   1.000000
    9      -18.495742   1.000000
   10      -18.392441   1.000000
   11      -18.287619   1.000000
   12      -18.240845   1.000000
   13      -18.205548   1.000000
   14      -15.231809   1.000000
   15      -14.357811   1.000000
   16      -12.945553   1.000000
   17       -8.369088   1.000000
   18       -4.793710   1.000000
   19       -4.559869   1.000000
   20       -4.035679   1.000000
   21       -3.516382   1.000000
   22       -3.310605   1.000000
   23       -3.217155   1.000000
   24       -2.844554   1.000000
   25       -2.651983   1.000000
   26       -1.421536   0.025028
   27       -0.973047   0.000000
   28        0.913599   0.000000
   29        1.054326   0.000000
   30        1.378993   0.000000
   31        1.517429   0.000000
   32        1.891823   0.000000
 
  0.1666667E+00  0.1111111E+00 -0.1540744E-32  0.3703704E-01
    1      -36.406691   1.000000
    2      -36.272442   1.000000
    3      -23.333234   1.000000
    4      -23.312569   1.000000
    5      -23.296978   1.000000
    6      -23.293667   1.000000
    7      -23.283589   1.000000
    8      -18.899608   1.000000
    9      -18.560411   1.000000
   10      -18.439167   1.000000
   11      -18.310084   1.000000
   12      -18.241831   1.000000
   13      -18.218418   1.000000
   14      -15.081239   1.000000
   15      -14.276653   1.000000
   16      -12.911809   1.000000
   17       -8.463511   1.000000
   18       -5.202842   1.000000
   19       -4.906113   1.000000
   20       -4.069830   1.000000
   21       -3.632369   1.000000
   22       -3.408172   1.000000
   23       -3.287642   1.000000
   24       -2.841337   1.000000
   25       -2.629651   1.000000
   26       -1.202375   0.000000
   27       -1.051129   0.000000
   28        0.688900   0.000000
   29        1.251922   0.000000
   30        1.552150   0.000000
   31        1.641076   0.000000
   32        1.870025   0.000000
 
  0.2222222E+00  0.1111111E+00 -0.3081488E-32  0.3703704E-01
    1      -36.399771   1.000000
    2      -36.269215   1.000000
    3      -23.338269   1.000000
    4      -23.311479   1.000000
    5      -23.297919   1.000000
    6      -23.291323   1.000000
    7      -23.280316   1.000000
    8      -18.890997   1.000000
    9      -18.629521   1.000000
   10      -18.472029   1.000000
   11      -18.341284   1.000000
   12      -18.246441   1.000000
   13      -18.227334   1.000000
   14      -14.903846   1.000000
   15      -14.194175   1.000000
   16      -12.879017   1.000000
   17       -8.612530   1.000000
   18       -5.652411   1.000000
   19       -5.086871   1.000000
   20       -4.235101   1.000000
   21       -3.799746   1.000000
   22       -3.397756   1.000000
   23       -3.267346   1.000000
   24       -2.840607   1.000000
   25       -2.600378   1.000000
   26       -1.249630   0.000000
   27       -0.923530   0.000000
   28        0.484809   0.000000
   29        1.367148   0.000000
   30        1.463254   0.000000
   31        1.785366   0.000000
   32        2.155157   0.000000
 
  0.2777778E+00  0.1111111E+00  0.0000000E+00  0.3703704E-01
    1      -36.393216   1.000000
    2      -36.266220   1.000000
    3      -23.343175   1.000000
    4      -23.310888   1.000000
    5      -23.299469   1.000000
    6      -23.287820   1.000000
    7      -23.277263   1.000000
    8      -18.892982   1.000000
    9      -18.689793   1.000000
   10      -18.489596   1.000000
   11      -18.374379   1.000000
   12      -18.253961   1.000000
   13      -18.233298   1.000000
   14      -14.714141   1.000000
   15      -14.124693   1.000000
   16      -12.850562   1.000000
   17       -8.803778   1.000000
   18       -6.020306   1.000000
   19       -5.179321   1.000000
   20       -4.495434   1.000000
   21       -3.845849   1.000000
   22       -3.429253   1.000000
   23       -3.221936   1.000000
   24       -2.801386   1.000000
   25       -2.574780   1.000000
   26       -1.466557   0.246317
   27       -0.640529   0.000000
   28        0.328595   0.000000
   29        1.322371   0.000000
   30        1.416372   0.000000
   31        1.937535   0.000000
   32        2.288858   0.000000
 
  0.3333333E+00  0.1111111E+00  0.0000000E+00  0.3703704E-01
    1      -36.387832   1.000000
    2      -36.263806   1.000000
    3      -23.347258   1.000000
    4      -23.310709   1.000000
    5      -23.300798   1.000000
    6      -23.284200   1.000000
    7      -23.275076   1.000000
    8      -18.905596   1.000000
    9      -18.731299   1.000000
   10      -18.495150   1.000000
   11      -18.403503   1.000000
   12      -18.260033   1.000000
   13      -18.239217   1.000000
   14      -14.532516   1.000000
   15      -14.082071   1.000000
   16      -12.828572   1.000000
   17       -8.998046   1.000000
   18       -6.287124   1.000000
   19       -5.209077   1.000000
   20       -4.714995   1.000000
   21       -3.860278   1.000000
   22       -3.450076   1.000000
   23       -3.245099   1.000000
   24       -2.710938   1.000000
   25       -2.556912   1.000000
   26       -1.667405   1.000000
   27       -0.347964   0.000000
   28        0.222916   0.000000
   29        1.204045   0.000000
   30        1.418006   0.000000
   31        1.961824   0.000000
   32        2.330255   0.000000
 
  0.3888889E+00  0.1111111E+00  0.0000000E+00  0.3703704E-01
    1      -36.384298   1.000000
    2      -36.262247   1.000000
    3      -23.349950   1.000000
    4      -23.310717   1.000000
    5      -23.301673   1.000000
    6      -23.281329   1.000000
    7      -23.273993   1.000000
    8      -18.920511   1.000000
    9      -18.753238   1.000000
   10      -18.494326   1.000000
   11      -18.423803   1.000000
   12      -18.263020   1.000000
   13      -18.244648   1.000000
   14      -14.387940   1.000000
   15      -14.072847   1.000000
   16      -12.814585   1.000000
   17       -9.143417   1.000000
   18       -6.448971   1.000000
   19       -5.210246   1.000000
   20       -4.848872   1.000000
   21       -3.858220   1.000000
   22       -3.483944   1.000000
   23       -3.273956   1.000000
   24       -2.628500   1.000000
   25       -2.546890   1.000000
   26       -1.806712   1.000000
   27       -0.094777   0.000000
   28        0.169737   0.000000
   29        1.079206   0.000000
   30        1.401171   0.000000
   31        1.978774   0.000000
   32        2.238418   0.000000
 
  0.4444444E+00  0.1111111E+00 -0.6162976E-32  0.1851852E-01
    1      -36.383066   1.000000
    2      -36.261708   1.000000
    3      -23.350890   1.000000
    4      -23.310740   1.000000
    5      -23.301979   1.000000
    6      -23.280182   1.000000
    7      -23.273745   1.000000
    8      -18.926960   1.000000
    9      -18.759856   1.000000
   10      -18.493078   1.000000
   11      -18.431243   1.000000
   12      -18.263655   1.000000
   13      -18.247058   1.000000
   14      -14.326877   1.000000
   15      -14.078947   1.000000
   16      -12.809774   1.000000
   17       -9.197304   1.000000
   18       -6.503343   1.000000
   19       -5.208803   1.000000
   20       -4.891564   1.000000
   21       -3.852318   1.000000
   22       -3.508487   1.000000
   23       -3.279940   1.000000
   24       -2.597137   1.000000
   25       -2.543443   1.000000
   26       -1.856574   1.000000
   27        0.006754   0.000000
   28        0.169333   0.000000
   29        1.006378   0.000000
   30        1.393257   0.000000
   31        1.991786   0.000000
   32        2.192535   0.000000
 
  0.1666667E+00  0.1666667E+00 -0.3081488E-32  0.1851852E-01
    1      -36.400416   1.000000
    2      -36.269509   1.000000
    3      -23.336610   1.000000
    4      -23.312704   1.000000
    5      -23.295220   1.000000
    6      -23.294425   1.000000
    7      -23.280444   1.000000
    8      -18.889724   1.000000
    9      -18.608841   1.000000
   10      -18.491654   1.000000
   11      -18.324896   1.000000
   12      -18.249532   1.000000
   13      -18.231394   1.000000
   14      -14.921822   1.000000
   15      -14.200702   1.000000
   16      -12.881300   1.000000
   17       -8.588803   1.000000
   18       -5.439147   1.000000
   19       -5.285560   1.000000
   20       -4.167318   1.000000
   21       -3.780424   1.000000
   22       -3.467426   1.000000
   23       -3.325392   1.000000
   24       -2.846443   1.000000
   25       -2.609032   1.000000
   26       -1.114923   0.000000
   27       -0.937658   0.000000
   28        0.575466   0.000000
   29        1.350059   0.000000
   30        1.548112   0.000000
   31        1.793523   0.000000
   32        1.991178   0.000000
 
  0.2222222E+00  0.1666667E+00  0.0000000E+00  0.3703704E-01
    1      -36.394097   1.000000
    2      -36.266607   1.000000
    3      -23.340089   1.000000
    4      -23.313058   1.000000
    5      -23.296308   1.000000
    6      -23.291702   1.000000
    7      -23.277592   1.000000
    8      -18.885408   1.000000
    9      -18.659664   1.000000
   10      -18.524517   1.000000
   11      -18.349879   1.000000
   12      -18.267498   1.000000
   13      -18.233159   1.000000
   14      -14.743457   1.000000
   15      -14.130227   1.000000
   16      -12.852709   1.000000
   17       -8.753930   1.000000
   18       -5.800801   1.000000
   19       -5.407777   1.000000
   20       -4.393451   1.000000
   21       -3.944343   1.000000
   22       -3.496807   1.000000
   23       -3.240262   1.000000
   24       -2.852392   1.000000
   25       -2.585406   1.000000
   26       -1.215911   0.000000
   27       -0.670122   0.000000
   28        0.473791   0.000000
   29        1.206021   0.000000
   30        1.674521   0.000000
   31        1.850979   0.000000
   32        2.281209   0.000000
 
  0.2777778E+00  0.1666667E+00 -0.1540744E-32  0.3703704E-01
    1      -36.388501   1.000000
    2      -36.264082   1.000000
    3      -23.343266   1.000000
    4      -23.313572   1.000000
    5      -23.297485   1.000000
    6      -23.288084   1.000000
    7      -23.275775   1.000000
    8      -18.887880   1.000000
    9      -18.704426   1.000000
   10      -18.539530   1.000000
   11      -18.379294   1.000000
   12      -18.280725   1.000000
   13      -18.235494   1.000000
   14      -14.562817   1.000000
   15      -14.078711   1.000000
   16      -12.828833   1.000000
   17       -8.934983   1.000000
   18       -6.095937   1.000000
   19       -5.453228   1.000000
   20       -4.679513   1.000000
   21       -3.986498   1.000000
   22       -3.512257   1.000000
   23       -3.209187   1.000000
   24       -2.813245   1.000000
   25       -2.567628   1.000000
   26       -1.365691   0.000201
   27       -0.384515   0.000000
   28        0.397226   0.000000
   29        1.144285   0.000000
   30        1.655170   0.000000
   31        1.888391   0.000000
   32        2.399171   0.000000
 
  0.3333333E+00  0.1666667E+00 -0.9244464E-32  0.3703704E-01
    1      -36.384321   1.000000
    2      -36.262227   1.000000
    3      -23.345683   1.000000
    4      -23.314079   1.000000
    5      -23.298375   1.000000
    6      -23.284292   1.000000
    7      -23.275323   1.000000
    8      -18.894922   1.000000
    9      -18.734733   1.000000
   10      -18.544491   1.000000
   11      -18.404934   1.000000
   12      -18.287704   1.000000
   13      -18.239052   1.000000
   14      -14.402521   1.000000
   15      -14.057090   1.000000
   16      -12.811649   1.000000
   17       -9.092291   1.000000
   18       -6.291146   1.000000
   19       -5.469649   1.000000
   20       -4.907627   1.000000
   21       -3.947461   1.000000
   22       -3.564119   1.000000
   23       -3.227131   1.000000
   24       -2.735062   1.000000
   25       -2.558834   1.000000
   26       -1.506589   0.672264
   27       -0.122236   0.000000
   28        0.358065   0.000000
   29        1.097495   0.000000
   30        1.658141   0.000000
   31        1.853207   0.000000
   32        2.372524   0.000000
 
  0.3888889E+00  0.1666667E+00 -0.3081488E-32  0.3703704E-01
    1      -36.382089   1.000000
    2      -36.261247   1.000000
    3      -23.346989   1.000000
    4      -23.314390   1.000000
    5      -23.298854   1.000000
    6      -23.281344   1.000000
    7      -23.275951   1.000000
    8      -18.900976   1.000000
    9      -18.748941   1.000000
   10      -18.545541   1.000000
   11      -18.419707   1.000000
   12      -18.290229   1.000000
   13      -18.241839   1.000000
   14      -14.296229   1.000000
   15      -14.062735   1.000000
   16      -12.802634   1.000000
   17       -9.184241   1.000000
   18       -6.386897   1.000000
   19       -5.474998   1.000000
   20       -5.030029   1.000000
   21       -3.862278   1.000000
   22       -3.658538   1.000000
   23       -3.238367   1.000000
   24       -2.677188   1.000000
   25       -2.557834   1.000000
   26       -1.590241   0.997540
   27        0.043354   0.000000
   28        0.358740   0.000000
   29        1.043853   0.000000
   30        1.705024   0.000000
   31        1.788584   0.000000
   32        2.302553   0.000000
 
  0.2222222E+00  0.2222222E+00 -0.1540744E-32  0.1851852E-01
    1      -36.388733   1.000000
    2      -36.264178   1.000000
    3      -23.341400   1.000000
    4      -23.315005   1.000000
    5      -23.294669   1.000000
    6      -23.291182   1.000000
    7      -23.275969   1.000000
    8      -18.881021   1.000000
    9      -18.687826   1.000000
   10      -18.563045   1.000000
   11      -18.364648   1.000000
   12      -18.295338   1.000000
   13      -18.233138   1.000000
   14      -14.573333   1.000000
   15      -14.077464   1.000000
   16      -12.828767   1.000000
   17       -8.910536   1.000000
   18       -5.958086   1.000000
   19       -5.622943   1.000000
   20       -4.623314   1.000000
   21       -4.091404   1.000000
   22       -3.512591   1.000000
   23       -3.184069   1.000000
   24       -2.864329   1.000000
   25       -2.570722   1.000000
   26       -1.243787   0.000000
   27       -0.395388   0.000000
   28        0.503986   0.000000
   29        1.048037   0.000000
   30        1.638131   0.000000
   31        2.011359   0.000000
   32        2.515939   0.000000
 
  0.2777778E+00  0.2222222E+00  0.0000000E+00  0.3703704E-01
    1      -36.384337   1.000000
    2      -36.262214   1.000000
    3      -23.342250   1.000000
    4      -23.316912   1.000000
    5      -23.294482   1.000000
    6      -23.288288   1.000000
    7      -23.275872   1.000000
    8      -18.876680   1.000000
    9      -18.714659   1.000000
   10      -18.585789   1.000000
   11      -18.384249   1.000000
   12      -18.314168   1.000000
   13      -18.234384   1.000000
   14      -14.411380   1.000000
   15      -14.047464   1.000000
   16      -12.809741   1.000000
   17       -9.057267   1.000000
   18       -6.119600   1.000000
   19       -5.714371   1.000000
   20       -4.908446   1.000000
   21       -4.087309   1.000000
   22       -3.547023   1.000000
   23       -3.157606   1.000000
   24       -2.838376   1.000000
   25       -2.564951   1.000000
   26       -1.323365   0.000001
   27       -0.135457   0.000000
   28        0.540082   0.000000
   29        1.015047   0.000000
   30        1.545698   0.000000
   31        2.045203   0.000000
   32        2.572878   0.000000
 
  0.3333333E+00  0.2222222E+00  0.0000000E+00  0.3703704E-01
    1      -36.381455   1.000000
    2      -36.260942   1.000000
    3      -23.342707   1.000000
    4      -23.318311   1.000000
    5      -23.294754   1.000000
    6      -23.284459   1.000000
    7      -23.277307   1.000000
    8      -18.872565   1.000000
    9      -18.735033   1.000000
   10      -18.596719   1.000000
   11      -18.402311   1.000000
   12      -18.322149   1.000000
   13      -18.236294   1.000000
   14      -14.281120   1.000000
   15      -14.046650   1.000000
   16      -12.797518   1.000000
   17       -9.163362   1.000000
   18       -6.230574   1.000000
   19       -5.731945   1.000000
   20       -5.140059   1.000000
   21       -3.994249   1.000000
   22       -3.629416   1.000000
   23       -3.159558   1.000000
   24       -2.783449   1.000000
   25       -2.569388   1.000000
   26       -1.402769   0.006382
   27        0.057325   0.000000
   28        0.565367   0.000000
   29        1.038437   0.000000
   30        1.542832   0.000000
   31        1.939245   0.000000
   32        2.609019   0.000000
 
  0.3888889E+00  0.2222222E+00 -0.3081488E-32  0.1851852E-01
    1      -36.380452   1.000000
    2      -36.260501   1.000000
    3      -23.342848   1.000000
    4      -23.318826   1.000000
    5      -23.294877   1.000000
    6      -23.281736   1.000000
    7      -23.279160   1.000000
    8      -18.870714   1.000000
    9      -18.742727   1.000000
   10      -18.599902   1.000000
   11      -18.409602   1.000000
   12      -18.324017   1.000000
   13      -18.237210   1.000000
   14      -14.223418   1.000000
   15      -14.057640   1.000000
   16      -12.793304   1.000000
   17       -9.202274   1.000000
   18       -6.268443   1.000000
   19       -5.726294   1.000000
   20       -5.232947   1.000000
   21       -3.918434   1.000000
   22       -3.699025   1.000000
   23       -3.162402   1.000000
   24       -2.755176   1.000000
   25       -2.574491   1.000000
   26       -1.435092   0.057503
   27        0.129199   0.000000
   28        0.574722   0.000000
   29        1.053684   0.000000
   30        1.580886   0.000000
   31        1.853232   0.000000
   32        2.613234   0.000000
 
  0.2777778E+00  0.2777778E+00 -0.6162976E-32  0.1851852E-01
    1      -36.381236   1.000000
    2      -36.260835   1.000000
    3      -23.340584   1.000000
    4      -23.320270   1.000000
    5      -23.291394   1.000000
    6      -23.287660   1.000000
    7      -23.277628   1.000000
    8      -18.859263   1.000000
    9      -18.726360   1.000000
   10      -18.621420   1.000000
   11      -18.389633   1.000000
   12      -18.340497   1.000000
   13      -18.234320   1.000000
   14      -14.276844   1.000000
   15      -14.039976   1.000000
   16      -12.795663   1.000000
   17       -9.153516   1.000000
   18       -6.121729   1.000000
   19       -5.868189   1.000000
   20       -5.191122   1.000000
   21       -4.050805   1.000000
   22       -3.607587   1.000000
   23       -3.096568   1.000000
   24       -2.854743   1.000000
   25       -2.573633   1.000000
   26       -1.336408   0.000006
   27        0.060535   0.000000
   28        0.683265   0.000000
   29        0.995671   0.000000
   30        1.468926   0.000000
   31        2.031553   0.000000
   32        2.588674   0.000000
 
  0.3333333E+00  0.2777778E+00  0.0000000E+00  0.3703704E-01
    1      -36.379582   1.000000
    2      -36.260104   1.000000
    3      -23.339161   1.000000
    4      -23.322595   1.000000
    5      -23.290295   1.000000
    6      -23.284621   1.000000
    7      -23.280741   1.000000
    8      -18.842456   1.000000
    9      -18.740152   1.000000
   10      -18.638935   1.000000
   11      -18.395784   1.000000
   12      -18.352281   1.000000
   13      -18.234733   1.000000
   14      -14.181737   1.000000
   15      -14.057000   1.000000
   16      -12.788238   1.000000
   17       -9.207113   1.000000
   18       -6.156921   1.000000
   19       -5.851212   1.000000
   20       -5.421410   1.000000
   21       -3.963392   1.000000
   22       -3.684112   1.000000
   23       -3.064264   1.000000
   24       -2.850424   1.000000
   25       -2.586465   1.000000
   26       -1.360538   0.000114
   27        0.168798   0.000000
   28        0.721125   0.000000
   29        1.072066   0.000000
   30        1.493270   0.000000
   31        1.924394   0.000000
   32        2.639368   0.000000
 
  0.3333333E+00  0.3333333E+00 -0.1232595E-31  0.6172840E-02
    1      -36.378931   1.000000
    2      -36.259813   1.000000
    3      -23.337186   1.000000
    4      -23.324814   1.000000
    5      -23.286053   1.000000
    6      -23.285455   1.000000
    7      -23.283869   1.000000
    8      -18.823657   1.000000
    9      -18.748795   1.000000
   10      -18.654487   1.000000
   11      -18.389613   1.000000
   12      -18.367255   1.000000
   13      -18.234283   1.000000
   14      -14.128400   1.000000
   15      -14.078820   1.000000
   16      -12.785022   1.000000
   17       -9.221838   1.000000
   18       -6.151164   1.000000
   19       -5.774695   1.000000
   20       -5.624667   1.000000
   21       -3.933105   1.000000
   22       -3.713134   1.000000
   23       -2.992853   1.000000
   24       -2.908709   1.000000
   25       -2.595093   1.000000
   26       -1.351552   0.000041
   27        0.206621   0.000000
   28        0.754730   0.000000
   29        1.124083   0.000000
   30        1.505287   0.000000
   31        1.908088   0.000000
   32        2.618743   0.000000
