11                                      
   1.00000000000000     
     3.9501156207146009    0.0000000001522404   -0.0000000000000000
    -1.9750578097205296    3.4209004743098745    0.0000000000000000
    -0.0000000000000001    0.0000000000000002   39.4021877938467284
   Sn   Se   N    Sr
     1     2     1     2
Direct
  0.0000000000000000  0.0000000000000000  0.5940212009837095
  0.6666666670000012  0.3333333329999988  0.6325735570448590
  0.3333333329999988  0.6666666670000012  0.5481899174149424
  0.6666666670000012  0.3333333329999988  0.4539734079959168
  0.0000000000000000 -0.0000000000000000  0.4934254572360981
  0.3333333329999988  0.6666666670000012  0.4248064611244732
 
