 running on    4 total cores
 distrk:  each k-point on    4 cores,    1 groups
 distr:  one band on    1 cores,    4 groups
 using from now: INCAR     
 vasp.5.4.4.18Apr17-6-g9f103f2a35 (build Feb 26 2024 21:30:50) complex          
  
 POSCAR found type information on POSCAR  H 
 POSCAR found :  1 types and       1 ions
 scaLAPACK will be used
 LDA part: xc-table for Pade appr. of Perdew
 POSCAR, INCAR and KPOINTS ok, starting setup
 FFT: planning ...
 WAVECAR not read
 entering main loop
       N       E                     dE             d eps       ncg     rms          rms(c)
DAV:   1     0.846329292897E+00    0.84633E+00   -0.16418E+02    32   0.461E+01
DAV:   2    -0.111441978549E+01   -0.19607E+01   -0.19607E+01    56   0.916E+00
DAV:   3    -0.112073111433E+01   -0.63113E-02   -0.63113E-02    32   0.693E-01
DAV:   4    -0.112074062411E+01   -0.95098E-05   -0.95098E-05    48   0.395E-02
DAV:   5    -0.112074067348E+01   -0.49369E-07   -0.49370E-07    32   0.243E-03    0.644E-01
DAV:   6     0.443632016691E-02    0.11252E+01   -0.98223E-04    40   0.102E-01    0.359E-01
DAV:   7    -0.720497838042E+00   -0.72493E+00   -0.58244E-04    40   0.601E-02    0.181E-01
DAV:   8    -0.106323767144E+01   -0.34274E+00   -0.11467E-03    32   0.627E-02    0.286E-02
DAV:   9    -0.106365350805E+01   -0.41584E-03   -0.16744E-04    32   0.284E-02    0.163E-02
DAV:  10    -0.109818113796E+01   -0.34528E-01   -0.16773E-05    32   0.119E-02    0.741E-03
DAV:  11    -0.111213431392E+01   -0.13953E-01   -0.29105E-05    32   0.145E-02    0.403E-03
DAV:  12    -0.111128413852E+01    0.85018E-03   -0.97066E-06    32   0.119E-02    0.272E-03
DAV:  13    -0.111364285186E+01   -0.23587E-02   -0.13040E-05    32   0.746E-03    0.154E-03
DAV:  14    -0.111383284120E+01   -0.18999E-03   -0.11041E-06    32   0.253E-03    0.940E-04
DAV:  15    -0.111467510696E+01   -0.84227E-03   -0.15374E-06    32   0.260E-03    0.656E-04
DAV:  16    -0.111529133978E+01   -0.61623E-03   -0.18021E-06    32   0.231E-03    0.351E-04
DAV:  17    -0.111526224270E+01    0.29097E-04   -0.37153E-07    32   0.993E-04    0.176E-04
DAV:  18    -0.111535507400E+01   -0.92831E-04   -0.16713E-07    32   0.690E-04    0.172E-04
DAV:  19    -0.111546132456E+01   -0.10625E-03   -0.18565E-07    32   0.682E-04    0.568E-05
DAV:  20    -0.111550350683E+01   -0.42182E-04   -0.48758E-08    40   0.352E-04    0.534E-05
DAV:  21    -0.111550747802E+01   -0.39712E-05   -0.20560E-09    40   0.852E-05    0.182E-05
DAV:  22    -0.111552298037E+01   -0.15502E-04   -0.26971E-09    32   0.922E-05    0.100E-05
DAV:  23    -0.111553005020E+01   -0.70698E-05   -0.43107E-10    40   0.377E-05    0.429E-06
DAV:  24    -0.111553079588E+01   -0.74568E-06   -0.51656E-11    32   0.152E-05    0.206E-06
DAV:  25    -0.111553304835E+01   -0.22525E-05   -0.87441E-11    40   0.179E-05    0.174E-06
DAV:  26    -0.111553377471E+01   -0.72637E-06   -0.16875E-12    32   0.534E-06    0.508E-07
DAV:  27    -0.111553341081E+01    0.36390E-06    0.44498E-12    32   0.301E-06    0.239E-07
DAV:  28    -0.111553416832E+01   -0.75751E-06    0.56666E-12    32   0.277E-06    0.214E-07
DAV:  29    -0.111553409711E+01    0.71207E-07    0.55778E-12    32   0.946E-07    0.259E-07
DAV:  30    -0.111553423683E+01   -0.13972E-06   -0.46185E-13    32   0.121E-06    0.151E-07
DAV:  31    -0.111553427410E+01   -0.37271E-07   -0.13145E-12    40   0.691E-07    0.107E-07
DAV:  32    -0.111553427740E+01   -0.33026E-08    0.13545E-11    32   0.472E-07
   1 F= -.11155343E+01 E0= -.11155343E+01  d E =-.379625E-12  mag=    -1.0000
