
     Program PWSCF v.7.5 starts on 22Sep2026 at 21:33:37 

     This program is part of the open-source Quantum ESPRESSO suite
     for quantum simulation of materials; please cite
         "P. Giannozzi et al., J. Phys.:Condens. Matter 21 395502 (2009);
         "P. Giannozzi et al., J. Phys.:Condens. Matter 29 465901 (2017);
         "P. Giannozzi et al., J. Chem. Phys. 152 154105 (2020);
          URL http://www.quantum-espresso.org", 
     in publications or presentations arising from this work. More details at
     http://www.quantum-espresso.org/quote

     Parallel version (MPI), running on     4 processors

     MPI processes distributed on     1 nodes
     7768 MiB available memory on the printing compute node when the environment starts

     Reading input from scf.in

     Current dimensions of program PWSCF are:
     Max number of different atomic species (ntypx) = 10
     Max number of k-points (npk) =  40000
     Max angular momentum in pseudopotentials (lmaxx) =  4

     R & G space division:  proc/nbgrp/npool/nimage =       4
     Subspace diagonalization in iterative solution of the eigenvalue problem:
     a serial algorithm will be used


     Parallelization info
     --------------------
     sticks:   dense  smooth     PW     G-vecs:    dense   smooth      PW
     Min         571     214     63                18093     4156     682
     Max         572     217     64                18095     4157     686
     Sum        2287     859    253                72377    16625    2733

     Using Slab Decomposition



     bravais-lattice index     =            2
     lattice parameter (alat)  =      10.2000  a.u.
     unit-cell volume          =     265.3020 (a.u.)^3
     number of atoms/cell      =            2
     number of atomic types    =            1
     number of electrons       =         8.00
     number of Kohn-Sham states=            4
     kinetic-energy cutoff     =      60.0000  Ry
     charge density cutoff     =     640.0000  Ry
     scf convergence threshold =      1.0E-10
     mixing beta               =       0.7000
     number of iterations used =            8  plain     mixing
     Exchange-correlation= PBE
                           (   1   4   3   4   0   0   0)

     celldm(1)=  10.200000  celldm(2)=   0.000000  celldm(3)=   0.000000
     celldm(4)=   0.000000  celldm(5)=   0.000000  celldm(6)=   0.000000

     crystal axes: (cart. coord. in units of alat)
               a(1) = (  -0.500000   0.000000   0.500000 )  
               a(2) = (   0.000000   0.500000   0.500000 )  
               a(3) = (  -0.500000   0.500000   0.000000 )  

     reciprocal axes: (cart. coord. in units 2 pi/alat)
               b(1) = ( -1.000000 -1.000000  1.000000 )  
               b(2) = (  1.000000  1.000000  1.000000 )  
               b(3) = ( -1.000000  1.000000 -1.000000 )  


     PseudoPot. # 1 for Si read from file:
     ../pseudo/Si.pbe-n-rrkjus_psl.1.0.0.UPF
     MD5 check sum: fa25574f73a70a4139f2adfbefec430c
     Pseudo is Ultrasoft + core correction, Zval =  4.0
     Generated using &quot;atomic&quot; code by A. Dal Corso  v.6.3
     Using radial grid of 1141 points,  6 beta functions with: 
                l(1) =   0
                l(2) =   0
                l(3) =   1
                l(4) =   1
                l(5) =   2
                l(6) =   2
     Q(r) pseudized with 0 coefficients 


     atomic species   valence    mass     pseudopotential
     Si                4.00    28.08500     Si( 1.00)

     48 Sym. Ops., with inversion, found (24 have fractional translation)



   Cartesian axes

     site n.     atom                  positions (alat units)
         1        Si     tau(   1) = (   0.0000000   0.0000000   0.0000000  )
         2        Si     tau(   2) = (   0.2500000   0.2500000   0.2500000  )

     number of k points=     8
                       cart. coord. in units 2pi/alat
        k(    1) = (   0.0000000   0.0000000   0.0000000), wk =   0.0312500
        k(    2) = (  -0.2500000   0.2500000  -0.2500000), wk =   0.2500000
        k(    3) = (   0.5000000  -0.5000000   0.5000000), wk =   0.1250000
        k(    4) = (   0.0000000   0.5000000   0.0000000), wk =   0.1875000
        k(    5) = (   0.7500000  -0.2500000   0.7500000), wk =   0.7500000
        k(    6) = (   0.5000000   0.0000000   0.5000000), wk =   0.3750000
        k(    7) = (   0.0000000  -1.0000000   0.0000000), wk =   0.0937500
        k(    8) = (  -0.5000000  -1.0000000   0.0000000), wk =   0.1875000

     Dense  grid:    72377 G-vectors     FFT dimensions: (  60,  60,  60)

     Smooth grid:    16625 G-vectors     FFT dimensions: (  36,  36,  36)

     Estimated max dynamical RAM per process >      69.22 MB

     Estimated total dynamical RAM >     276.89 MB

     Initial potential from superposition of free atoms

     starting charge       7.9989, renormalised to       8.0000
     Starting wfcs are    8 randomized atomic wfcs

     total cpu time spent up to now is        5.3 secs

     per-process dynamical memory:    25.4 Mb

     Self-consistent Calculation

     iteration #  1     ecut=    60.00 Ry     beta= 0.70
     Davidson diagonalization with overlap
     ethr =  1.00E-02,  avg # of iterations =  2.0

     Threshold (ethr) on eigenvalues was too large:
     Diagonalizing with lowered threshold

     Davidson diagonalization with overlap
     ethr =  7.05E-04,  avg # of iterations =  1.6

     total cpu time spent up to now is       13.5 secs

     total energy              =     -22.82201449 Ry
     estimated scf accuracy    <       0.06110180 Ry

     iteration #  2     ecut=    60.00 Ry     beta= 0.70
     Davidson diagonalization with overlap
     ethr =  7.64E-04,  avg # of iterations =  1.0

     total cpu time spent up to now is       17.6 secs

     total energy              =     -22.82394250 Ry
     estimated scf accuracy    <       0.00326274 Ry

     iteration #  3     ecut=    60.00 Ry     beta= 0.70
     Davidson diagonalization with overlap
     ethr =  4.08E-05,  avg # of iterations =  2.9

     total cpu time spent up to now is       22.7 secs

     total energy              =     -22.82476380 Ry
     estimated scf accuracy    <       0.00012322 Ry

     iteration #  4     ecut=    60.00 Ry     beta= 0.70
     Davidson diagonalization with overlap
     ethr =  1.54E-06,  avg # of iterations =  3.6

     total cpu time spent up to now is       28.3 secs

     total energy              =     -22.82482739 Ry
     estimated scf accuracy    <       0.00002311 Ry

     iteration #  5     ecut=    60.00 Ry     beta= 0.70
     Davidson diagonalization with overlap
     ethr =  2.89E-07,  avg # of iterations =  2.8

     total cpu time spent up to now is       33.3 secs

     total energy              =     -22.82483495 Ry
     estimated scf accuracy    <       0.00000069 Ry

     iteration #  6     ecut=    60.00 Ry     beta= 0.70
     Davidson diagonalization with overlap
     ethr =  8.59E-09,  avg # of iterations =  4.8

     total cpu time spent up to now is       40.1 secs

     total energy              =     -22.82483567 Ry
     estimated scf accuracy    <       0.00000030 Ry

     iteration #  7     ecut=    60.00 Ry     beta= 0.70
     Davidson diagonalization with overlap
     ethr =  3.77E-09,  avg # of iterations =  2.0

     total cpu time spent up to now is       44.1 secs

     total energy              =     -22.82483571 Ry
     estimated scf accuracy    <          8.0E-09 Ry

     iteration #  8     ecut=    60.00 Ry     beta= 0.70
     Davidson diagonalization with overlap
     ethr =  9.97E-11,  avg # of iterations =  4.5

     total cpu time spent up to now is       50.3 secs

     total energy              =     -22.82483572 Ry
     estimated scf accuracy    <          1.1E-09 Ry

     iteration #  9     ecut=    60.00 Ry     beta= 0.70
     Davidson diagonalization with overlap
     ethr =  1.42E-11,  avg # of iterations =  3.0

     total cpu time spent up to now is       55.3 secs

     total energy              =     -22.82483572 Ry
     estimated scf accuracy    <          1.2E-10 Ry

     iteration # 10     ecut=    60.00 Ry     beta= 0.70
     Davidson diagonalization with overlap
     ethr =  1.54E-12,  avg # of iterations =  3.9

     total cpu time spent up to now is       60.6 secs

     End of self-consistent calculation

          k = 0.0000 0.0000 0.0000 (  2085 PWs)   bands (ev):

    -5.6588   6.4394   6.4394   6.4394

          k =-0.2500 0.2500-0.2500 (  2067 PWs)   bands (ev):

    -4.8455   2.4692   5.6632   5.6632

          k = 0.5000-0.5000 0.5000 (  2060 PWs)   bands (ev):

    -3.2780  -0.6302   5.2190   5.2190

          k = 0.0000 0.5000 0.0000 (  2045 PWs)   bands (ev):

    -4.5591   2.9223   4.5054   4.5054

          k = 0.7500-0.2500 0.7500 (  2081 PWs)   bands (ev):

    -2.8908  -0.0017   2.8324   4.1868

          k = 0.5000 0.0000 0.5000 (  2085 PWs)   bands (ev):

    -3.5785   0.9183   2.6019   5.0840

          k = 0.0000-1.0000 0.0000 (  2100 PWs)   bands (ev):

    -1.4448  -1.4448   3.5270   3.5270

          k =-0.5000-1.0000 0.0000 (  2120 PWs)   bands (ev):

    -1.2714  -1.2714   2.4935   2.4935

     highest occupied level (ev):     6.4394

!    total energy              =     -22.82483572 Ry
     estimated scf accuracy    <          2.6E-13 Ry

     The total energy is the sum of the following terms:
     one-electron contribution =       5.30982161 Ry
     hartree contribution      =       1.10853462 Ry
     xc contribution           =     -12.34343338 Ry
     ewald contribution        =     -16.89975857 Ry

     convergence has been achieved in  10 iterations

     Forces acting on atoms (cartesian axes, Ry/au):

     atom    1 type  1   force =     0.00000000   -0.00000000    0.00000000
     atom    2 type  1   force =    -0.00000000    0.00000000   -0.00000000

     Total force =     0.000000     Total SCF correction =     0.000000


     Computing stress (Cartesian axis) and pressure

          total   stress  (Ry/bohr**3)                   (kbar)     P=       45.29
   0.00030788   0.00000000   0.00000000           45.29        0.00        0.00
   0.00000000   0.00030788  -0.00000000            0.00       45.29       -0.00
   0.00000000  -0.00000000   0.00030788            0.00       -0.00       45.29


     Writing all to output data dir ./tmp/si.save/ :
     XML data file, charge density, pseudopotentials, collected wavefunctions

     init_run     :      1.64s CPU      4.50s WALL (       1 calls)
     electrons    :     15.42s CPU     55.68s WALL (       1 calls)
     forces       :      0.32s CPU      1.20s WALL (       1 calls)
     stress       :      1.32s CPU      4.91s WALL (       1 calls)

     Called by init_run:
     wfcinit      :      0.61s CPU      1.85s WALL (       1 calls)
     potinit      :      0.24s CPU      0.63s WALL (       1 calls)
     hinit0       :      0.42s CPU      1.03s WALL (       1 calls)

     Called by electrons:
     c_bands      :     11.15s CPU     39.00s WALL (      11 calls)
     sum_band     :      2.32s CPU      8.96s WALL (      11 calls)
     v_of_rho     :      0.73s CPU      2.55s WALL (      11 calls)
     newd         :      0.79s CPU      3.62s WALL (      11 calls)
     mix_rho      :      0.25s CPU      0.94s WALL (      11 calls)

     Called by c_bands:
     init_us_2    :      0.04s CPU      0.08s WALL (     200 calls)
     cegterg      :     10.64s CPU     37.28s WALL (      88 calls)

     Called by *egterg:
     cdiaghg      :      0.52s CPU      1.81s WALL (     336 calls)
     h_psi        :      6.76s CPU     23.41s WALL (     352 calls)
     s_psi        :      0.07s CPU      0.09s WALL (     352 calls)
     g_psi        :      0.00s CPU      0.00s WALL (     256 calls)

     Called by h_psi:
     h_psi:calbec :      1.60s CPU      5.55s WALL (     352 calls)
     vloc_psi     :      5.09s CPU     17.66s WALL (     352 calls)
                                        0.00s GPU  (     352 calls)
     add_vuspsi   :      0.07s CPU      0.19s WALL (     352 calls)

     General routines
     calbec       :      2.72s CPU      9.61s WALL (     576 calls)
     fft          :      0.70s CPU      2.45s WALL (     167 calls)
     ffts         :      0.19s CPU      0.52s WALL (      22 calls)
     fftw         :      5.86s CPU     20.46s WALL (    2676 calls)
     interpolate  :      0.19s CPU      0.55s WALL (      11 calls)

     Parallel routines

     PWSCF        :     19.17s CPU   1m 7.65s WALL


   This run was terminated on:  21:34:45  22Sep2026            

=------------------------------------------------------------------------------=
   JOB DONE.
=------------------------------------------------------------------------------=
