
     Program PWSCF v.7.5 starts on 22Sep2026 at 23:26:48 

     This program is part of the open-source Quantum ESPRESSO suite
     for quantum simulation of materials; please cite
         "P. Giannozzi et al., J. Phys.:Condens. Matter 21 395502 (2009);
         "P. Giannozzi et al., J. Phys.:Condens. Matter 29 465901 (2017);
         "P. Giannozzi et al., J. Chem. Phys. 152 154105 (2020);
          URL http://www.quantum-espresso.org", 
     in publications or presentations arising from this work. More details at
     http://www.quantum-espresso.org/quote

     Parallel version (MPI), running on     8 processors

     MPI processes distributed on     1 nodes
     2388 MiB available memory on the printing compute node when the environment starts
 
     Reading input from si.bands.in

     Current dimensions of program PWSCF are:
     Max number of different atomic species (ntypx) = 10
     Max number of k-points (npk) =  40000
     Max angular momentum in pseudopotentials (lmaxx) =  4

     Atomic positions and unit cell read from directory:
     ./tmp/si.save/
 
     Found identity + ( -0.5000  0.0000  0.0000) symmetry
     This is a supercell, fractional translations are disabled
 
     R & G space division:  proc/nbgrp/npool/nimage =       8
     Subspace diagonalization in iterative solution of the eigenvalue problem:
     a serial algorithm will be used

 
     Parallelization info
     --------------------
     sticks:   dense  smooth     PW     G-vecs:    dense   smooth      PW
     Min         143     143     43                 2276     2276     376
     Max         144     144     44                 2277     2277     377
     Sum        1151    1151    347                18215    18215    3009
 
     Using Slab Decomposition
 


     bravais-lattice index     =            0
     lattice parameter (alat)  =      10.2000  a.u.
     unit-cell volume          =     530.6040 (a.u.)^3
     number of atoms/cell      =            4
     number of atomic types    =            1
     number of electrons       =        16.00
     number of Kohn-Sham states=           24
     kinetic-energy cutoff     =      40.0000  Ry
     charge density cutoff     =     160.0000  Ry
     Exchange-correlation= SLA  PZ   NOGX NOGC
                           (   1   1   0   0   0   0   0)

     celldm(1)=  10.200000  celldm(2)=   0.000000  celldm(3)=   0.000000
     celldm(4)=   0.000000  celldm(5)=   0.000000  celldm(6)=   0.000000

     crystal axes: (cart. coord. in units of alat)
               a(1) = (  -1.000000   0.000000   1.000000 )  
               a(2) = (   0.000000   0.500000   0.500000 )  
               a(3) = (  -0.500000   0.500000   0.000000 )  

     reciprocal axes: (cart. coord. in units 2 pi/alat)
               b(1) = ( -0.500000 -0.500000  0.500000 )  
               b(2) = (  1.000000  1.000000  1.000000 )  
               b(3) = ( -1.000000  1.000000 -1.000000 )  


     PseudoPot. # 1 for Si read from file:
     ../pseudo/Si.pz-vbc.UPF
     MD5 check sum: 9f25e6ff280f3123e9b3a84715b2e9c9
     Pseudo is Norm-conserving, Zval =  4.0
     Generated by new atomic code, or converted to UPF format
     Using radial grid of  431 points,  2 beta functions with: 
                l(1) =   0
                l(2) =   1

     atomic species   valence    mass     pseudopotential
     Si                4.00    28.08550     Si( 1.00)

     No symmetry found


                                    s                        frac. trans.

      isym =  1     identity                                     

 cryst.   s( 1) = (     1          0          0      )
                  (     0          1          0      )
                  (     0          0          1      )

 cart.    s( 1) = (  1.0000000  0.0000000  0.0000000 )
                  (  0.0000000  1.0000000  0.0000000 )
                  (  0.0000000  0.0000000  1.0000000 )


   Cartesian axes

     site n.     atom                  positions (alat units)
         1        Si     tau(   1) = (   0.0000000   0.0000000   0.0000000  )
         2        Si     tau(   2) = (  -0.7500000   0.7500000   0.7500000  )
         3        Si     tau(   3) = (  -0.5000000   0.0000000   0.5000000  )
         4        Si     tau(   4) = (  -1.2500000   0.7500000   1.2500000  )

   Crystallographic axes

     site n.     atom                  positions (cryst. coord.)
         1        Si     tau(   1) = (  0.0000000  0.0000000  0.0000000  )
         2        Si     tau(   2) = (  0.3750000  0.7500000  0.7500000  )
         3        Si     tau(   3) = (  0.5000000  0.0000000  0.0000000  )
         4        Si     tau(   4) = (  0.8750000  0.7500000  0.7500000  )

     number of k points=    40
                       cart. coord. in units 2pi/alat
        k(    1) = (   0.0000000   0.0000000   0.0000000), wk =   0.0500000
        k(    2) = (  -0.0833333   0.0000000  -0.0000000), wk =   0.0500000
        k(    3) = (  -0.1666667  -0.0000000   0.0000000), wk =   0.0500000
        k(    4) = (  -0.2500000   0.0000000   0.0000000), wk =   0.0500000
        k(    5) = (  -0.3333333   0.0000000  -0.0000000), wk =   0.0500000
        k(    6) = (  -0.4166667  -0.0000000   0.0000000), wk =   0.0500000
        k(    7) = (  -0.5000000   0.0000000   0.0000000), wk =   0.0500000
        k(    8) = (  -0.5833333   0.0000000  -0.0000000), wk =   0.0500000
        k(    9) = (  -0.6666667  -0.0000000   0.0000000), wk =   0.0500000
        k(   10) = (  -0.7500000   0.0000000   0.0000000), wk =   0.0500000
        k(   11) = (  -0.8333333   0.0000000  -0.0000000), wk =   0.0500000
        k(   12) = (  -0.9166667  -0.0000000   0.0000000), wk =   0.0500000
        k(   13) = (  -1.0000000   0.0000000   0.0000000), wk =   0.0500000
        k(   14) = (  -1.0000000   0.0833333   0.0000000), wk =   0.0500000
        k(   15) = (  -1.0000000   0.1666667   0.0000000), wk =   0.0500000
        k(   16) = (  -1.0000000   0.2500000   0.0000000), wk =   0.0500000
        k(   17) = (  -1.0000000   0.3333333   0.0000000), wk =   0.0500000
        k(   18) = (  -1.0000000   0.4166667   0.0000000), wk =   0.0500000
        k(   19) = (  -1.0000000   0.5000000   0.0000000), wk =   0.0500000
        k(   20) = (  -0.9444444   0.5000000   0.0555556), wk =   0.0500000
        k(   21) = (  -0.8888889   0.5000000   0.1111111), wk =   0.0500000
        k(   22) = (  -0.8333333   0.5000000   0.1666667), wk =   0.0500000
        k(   23) = (  -0.7777778   0.5000000   0.2222222), wk =   0.0500000
        k(   24) = (  -0.7222222   0.5000000   0.2777778), wk =   0.0500000
        k(   25) = (  -0.6666667   0.5000000   0.3333333), wk =   0.0500000
        k(   26) = (  -0.6111111   0.5000000   0.3888889), wk =   0.0500000
        k(   27) = (  -0.5555556   0.5000000   0.4444444), wk =   0.0500000
        k(   28) = (  -0.5000000   0.5000000   0.5000000), wk =   0.0500000
        k(   29) = (  -0.4583333   0.4583333   0.4583333), wk =   0.0500000
        k(   30) = (  -0.4166667   0.4166667   0.4166667), wk =   0.0500000
        k(   31) = (  -0.3750000   0.3750000   0.3750000), wk =   0.0500000
        k(   32) = (  -0.3333333   0.3333333   0.3333333), wk =   0.0500000
        k(   33) = (  -0.2916667   0.2916667   0.2916667), wk =   0.0500000
        k(   34) = (  -0.2500000   0.2500000   0.2500000), wk =   0.0500000
        k(   35) = (  -0.2083333   0.2083333   0.2083333), wk =   0.0500000
        k(   36) = (  -0.1666667   0.1666667   0.1666667), wk =   0.0500000
        k(   37) = (  -0.1250000   0.1250000   0.1250000), wk =   0.0500000
        k(   38) = (  -0.0833333   0.0833333   0.0833333), wk =   0.0500000
        k(   39) = (  -0.0416667   0.0416667   0.0416667), wk =   0.0500000
        k(   40) = (   0.0000000   0.0000000   0.0000000), wk =   0.0500000

                       cryst. coord.
        k(    1) = (   0.0000000   0.0000000   0.0000000), wk =   0.0500000
        k(    2) = (   0.0833333   0.0000000   0.0416667), wk =   0.0500000
        k(    3) = (   0.1666667   0.0000000   0.0833333), wk =   0.0500000
        k(    4) = (   0.2500000   0.0000000   0.1250000), wk =   0.0500000
        k(    5) = (   0.3333333   0.0000000   0.1666667), wk =   0.0500000
        k(    6) = (   0.4166667   0.0000000   0.2083333), wk =   0.0500000
        k(    7) = (   0.5000000   0.0000000   0.2500000), wk =   0.0500000
        k(    8) = (   0.5833333   0.0000000   0.2916667), wk =   0.0500000
        k(    9) = (   0.6666667   0.0000000   0.3333333), wk =   0.0500000
        k(   10) = (   0.7500000   0.0000000   0.3750000), wk =   0.0500000
        k(   11) = (   0.8333333   0.0000000   0.4166667), wk =   0.0500000
        k(   12) = (   0.9166667   0.0000000   0.4583333), wk =   0.0500000
        k(   13) = (   1.0000000   0.0000000   0.5000000), wk =   0.0500000
        k(   14) = (   1.0000000   0.0416667   0.5416667), wk =   0.0500000
        k(   15) = (   1.0000000   0.0833333   0.5833333), wk =   0.0500000
        k(   16) = (   1.0000000   0.1250000   0.6250000), wk =   0.0500000
        k(   17) = (   1.0000000   0.1666667   0.6666667), wk =   0.0500000
        k(   18) = (   1.0000000   0.2083333   0.7083333), wk =   0.0500000
        k(   19) = (   1.0000000   0.2500000   0.7500000), wk =   0.0500000
        k(   20) = (   1.0000000   0.2777778   0.7222222), wk =   0.0500000
        k(   21) = (   1.0000000   0.3055556   0.6944444), wk =   0.0500000
        k(   22) = (   1.0000000   0.3333333   0.6666667), wk =   0.0500000
        k(   23) = (   1.0000000   0.3611111   0.6388889), wk =   0.0500000
        k(   24) = (   1.0000000   0.3888889   0.6111111), wk =   0.0500000
        k(   25) = (   1.0000000   0.4166667   0.5833333), wk =   0.0500000
        k(   26) = (   1.0000000   0.4444444   0.5555556), wk =   0.0500000
        k(   27) = (   1.0000000   0.4722222   0.5277778), wk =   0.0500000
        k(   28) = (   1.0000000   0.5000000   0.5000000), wk =   0.0500000
        k(   29) = (   0.9166667   0.4583333   0.4583333), wk =   0.0500000
        k(   30) = (   0.8333333   0.4166667   0.4166667), wk =   0.0500000
        k(   31) = (   0.7500000   0.3750000   0.3750000), wk =   0.0500000
        k(   32) = (   0.6666667   0.3333333   0.3333333), wk =   0.0500000
        k(   33) = (   0.5833333   0.2916667   0.2916667), wk =   0.0500000
        k(   34) = (   0.5000000   0.2500000   0.2500000), wk =   0.0500000
        k(   35) = (   0.4166667   0.2083333   0.2083333), wk =   0.0500000
        k(   36) = (   0.3333333   0.1666667   0.1666667), wk =   0.0500000
        k(   37) = (   0.2500000   0.1250000   0.1250000), wk =   0.0500000
        k(   38) = (   0.1666667   0.0833333   0.0833333), wk =   0.0500000
        k(   39) = (   0.0833333   0.0416667   0.0416667), wk =   0.0500000
        k(   40) = (   0.0000000   0.0000000   0.0000000), wk =   0.0500000

     Dense  grid:    18215 G-vectors     FFT dimensions: (  60,  30,  30)

     Dynamical RAM for                 wfc:       0.10 MB

     Dynamical RAM for     wfc (w. buffer):       0.10 MB

     Dynamical RAM for           str. fact:       0.03 MB

     Dynamical RAM for           local pot:       0.00 MB

     Dynamical RAM for          nlocal pot:       0.07 MB

     Dynamical RAM for                qrad:       0.09 MB

     Dynamical RAM for          rho,v,vnew:       0.27 MB

     Dynamical RAM for           G-vectors:       0.15 MB

     Dynamical RAM for          h,s,v(r/c):       0.03 MB

     Dynamical RAM for          <psi|beta>:       0.01 MB

     Dynamical RAM for      wfcinit/wfcrot:       0.22 MB

     Estimated static dynamical RAM per process >       1.06 MB

     Estimated max dynamical RAM per process >       1.28 MB

     Estimated total dynamical RAM >      10.21 MB

     The potential is recalculated from file :
     ./tmp/si.save/charge-density

     Starting wfcs are   16 randomized atomic wfcs +    8 random wfcs

     Band Structure Calculation
     CG style diagonalization

     Computing kpt #:     1  of    40
     total cpu time spent up to now is        0.2 secs

     Computing kpt #:     2  of    40
     total cpu time spent up to now is        0.4 secs

     Computing kpt #:     3  of    40
     total cpu time spent up to now is        0.6 secs

     Computing kpt #:     4  of    40
     total cpu time spent up to now is        0.8 secs

     Computing kpt #:     5  of    40
     total cpu time spent up to now is        1.0 secs

     Computing kpt #:     6  of    40
     total cpu time spent up to now is        1.2 secs

     Computing kpt #:     7  of    40
     total cpu time spent up to now is        1.3 secs

     Computing kpt #:     8  of    40
     total cpu time spent up to now is        1.5 secs

     Computing kpt #:     9  of    40
     total cpu time spent up to now is        1.7 secs

     Computing kpt #:    10  of    40
     total cpu time spent up to now is        1.9 secs

     Computing kpt #:    11  of    40
     total cpu time spent up to now is        2.1 secs

     Computing kpt #:    12  of    40
     total cpu time spent up to now is        2.3 secs

     Computing kpt #:    13  of    40
     total cpu time spent up to now is        2.5 secs

     Computing kpt #:    14  of    40
     total cpu time spent up to now is        2.6 secs

     Computing kpt #:    15  of    40
     total cpu time spent up to now is        2.8 secs

     Computing kpt #:    16  of    40
     total cpu time spent up to now is        3.0 secs

     Computing kpt #:    17  of    40
     total cpu time spent up to now is        3.1 secs

     Computing kpt #:    18  of    40
     total cpu time spent up to now is        3.2 secs

     Computing kpt #:    19  of    40
     total cpu time spent up to now is        3.4 secs

     Computing kpt #:    20  of    40
     total cpu time spent up to now is        3.6 secs

     Computing kpt #:    21  of    40
     total cpu time spent up to now is        3.8 secs

     Computing kpt #:    22  of    40
     total cpu time spent up to now is        4.0 secs

     Computing kpt #:    23  of    40
     total cpu time spent up to now is        4.2 secs

     Computing kpt #:    24  of    40
     total cpu time spent up to now is        4.4 secs

     Computing kpt #:    25  of    40
     total cpu time spent up to now is        4.7 secs

     Computing kpt #:    26  of    40
     total cpu time spent up to now is        4.9 secs

     Computing kpt #:    27  of    40
     total cpu time spent up to now is        5.1 secs

     Computing kpt #:    28  of    40
     total cpu time spent up to now is        5.3 secs

     Computing kpt #:    29  of    40
     total cpu time spent up to now is        5.5 secs

     Computing kpt #:    30  of    40
     total cpu time spent up to now is        5.7 secs

     Computing kpt #:    31  of    40
     total cpu time spent up to now is        5.9 secs

     Computing kpt #:    32  of    40
     total cpu time spent up to now is        6.0 secs

     Computing kpt #:    33  of    40
     total cpu time spent up to now is        6.2 secs

     Computing kpt #:    34  of    40
     total cpu time spent up to now is        6.4 secs

     Computing kpt #:    35  of    40
     total cpu time spent up to now is        6.5 secs

     Computing kpt #:    36  of    40
     total cpu time spent up to now is        6.7 secs

     Computing kpt #:    37  of    40
     total cpu time spent up to now is        6.9 secs

     Computing kpt #:    38  of    40
     total cpu time spent up to now is        7.1 secs

     Computing kpt #:    39  of    40
     total cpu time spent up to now is        7.3 secs

     Computing kpt #:    40  of    40
     total cpu time spent up to now is        7.4 secs

     ethr =  1.00E-10,  avg # of iterations = 32.0

     total cpu time spent up to now is        7.4 secs

     End of band structure calculation

          k = 0.0000 0.0000 0.0000 (  2297 PWs)   bands (ev):

    -5.8212  -3.4304  -0.8291   5.0166   5.0166   6.2300   6.2300   6.2300
     7.7891   8.8001   8.8001   8.8001   9.5610   9.5610   9.7035  13.8232
    13.9973  13.9973  14.0087  16.7871  16.7871  17.4542  17.4542  17.4542

          k =-0.0833 0.0000-0.0000 (  2276 PWs)   bands (ev):

    -5.7903  -3.4558  -0.7522   4.8143   5.0070   6.0369   6.1020   6.1020
     7.9616   8.7216   8.9652   8.9652   9.5549   9.6242   9.8896  13.7514
    13.9310  14.0311  14.1472  16.1148  16.3455  17.5076  17.5076  17.5354

          k =-0.1667-0.0000 0.0000 (  2283 PWs)   bands (ev):

    -5.6978  -3.5207  -0.5348   4.3291   4.9812   5.5528   5.7911   5.7911
     8.3238   8.5107   9.3868   9.3868   9.5927   9.8087  10.3201  13.2022
    14.1325  14.1656  14.5373  15.2048  15.6846  17.4108  17.6672  17.6672

          k =-0.2500 0.0000 0.0000 (  2282 PWs)   bands (ev):

    -5.5440  -3.6007  -0.2097   3.7327   4.9205   4.9471   5.4075   5.4075
     8.2205   8.5966   9.8335   9.9534   9.9534  10.0996  10.6859  12.7438
    14.1075  14.3016  14.3416  15.1234  15.3895  17.4068  17.9311  17.9311

          k =-0.3333 0.0000-0.0000 (  2272 PWs)   bands (ev):

    -5.3294  -3.6728   0.1793   3.1306   4.2204   4.9144   5.0146   5.0146
     7.9014   8.6730  10.3360  10.4685  10.5413  10.5994  10.5994  12.8650
    13.5077  13.5669  14.5382  15.6073  15.8504  17.6541  18.2935  18.2935

          k =-0.4167-0.0000 0.0000 (  2266 PWs)   bands (ev):

    -5.0550  -3.7216   0.5568   2.6201   3.4881   4.6424   4.6424   4.8911
     7.5892   8.6677   9.9722  10.8489  10.9454  11.2926  11.2926  12.8035
    12.9448  13.4988  14.8421  15.8085  16.6731  18.2280  18.7393  18.7393

          k =-0.5000 0.0000 0.0000 (  2243 PWs)   bands (ev):

    -4.7219  -3.7387   0.7415   2.3904   2.7406   4.3058   4.3058   4.8827
     7.3072   8.6595   9.3170  11.0460  11.3356  12.0163  12.0163  12.3808
    12.6677  14.3137  15.2131  15.8693  17.5511  18.7836  19.2270  19.2270

          k =-0.5833 0.0000-0.0000 (  2258 PWs)   bands (ev):

    -4.3316  -3.7216   0.5568   1.9870   2.6201   4.0131   4.0131   4.8911
     7.0708   8.6677   8.6976  10.8489  10.9454  12.7614  12.7614  12.8035
    12.9448  15.1839  15.6508  15.8085  18.2280  18.4345  19.3019  19.6359

          k =-0.6667-0.0000 0.0000 (  2252 PWs)   bands (ev):

    -3.8861  -3.6728   0.1793   1.2354   3.1306   3.7691   3.7691   4.9144
     6.8904   8.1521   8.6730  10.3360  10.4685  13.5077  13.5233  13.5233
    13.5669  15.6073  16.0646  16.1549  17.6541  19.0260  19.2417  19.6862

          k =-0.7500 0.0000 0.0000 (  2257 PWs)   bands (ev):

    -3.6007  -3.3877  -0.2097   0.4926   3.5769   3.5769   3.7327   4.9471
     6.7734   7.6938   8.5966   9.8335  10.0996  14.1075  14.2990  14.2990
    14.3416  15.3895  16.7247  16.9289  17.4068  18.6593  19.2254  19.2254

          k =-0.8333 0.0000-0.0000 (  2274 PWs)   bands (ev):

    -3.5207  -2.8397  -0.5348  -0.2338   3.4384   3.4384   4.3291   4.9812
     6.7259   7.3263   8.3238   9.5927   9.8087  14.1656  15.0845  15.0845
    15.2048  15.6846  17.3594  17.4108  17.7590  18.2509  18.4985  18.4985

          k =-0.9167-0.0000 0.0000 (  2279 PWs)   bands (ev):

    -3.4558  -2.2453  -0.9367  -0.7522   3.3548   3.3548   4.8143   5.0070
     6.7529   7.0491   7.9616   9.5549   9.6242  13.9310  15.8597  15.8597
    16.1148  16.3455  17.5354  17.7156  17.7156  17.8187  18.0590  18.3484

          k =-1.0000 0.0000 0.0000 (  2296 PWs)   bands (ev):

    -3.4304  -1.6092  -1.6092  -0.8291   3.3269   3.3269   5.0166   5.0166
     6.8592   6.8592   7.7891   9.5610   9.5610  13.8232  16.3844  16.3844
    16.7871  16.7871  17.1832  17.1832  17.5012  17.6253  17.6253  18.8221

          k =-1.0000 0.0833 0.0000 (  2275 PWs)   bands (ev):

    -3.4558  -1.5984  -1.5984  -0.7522   3.2336   3.2336   4.8143   5.0070
     7.0291   7.0291   7.9616   9.5549   9.6242  13.9310  16.0676  16.0676
    16.1148  16.3455  16.9483  16.9483  17.5354  17.8187  18.3484  18.9717

          k =-1.0000 0.1667 0.0000 (  2270 PWs)   bands (ev):

    -3.5207  -1.5680  -1.5680  -0.5348   3.0050   3.0050   4.3291   4.9812
     7.4886   7.4886   8.3238   9.5927   9.8087  14.1656  15.1665  15.1665
    15.2048  15.6846  16.8321  16.8321  17.4108  18.2509  19.0536  19.0536

          k =-1.0000 0.2500 0.0000 (  2265 PWs)   bands (ev):

    -3.6007  -1.5247  -1.5247  -0.2097   2.7352   2.7352   3.7327   4.9471
     8.1472   8.1472   8.5966   9.8335  10.0996  14.0924  14.0924  14.1075
    14.3416  15.3895  16.8128  16.8128  17.4068  18.6593  19.1288  19.1288

          k =-1.0000 0.3333 0.0000 (  2272 PWs)   bands (ev):

    -3.6728  -1.4791  -1.4791   0.1793   2.4970   2.4970   3.1306   4.9144
     8.6730   8.9357   8.9357  10.3360  10.4685  13.0051  13.0051  13.5077
    13.5669  15.6073  16.8137  16.8137  17.6541  19.0260  19.2054  19.2054

          k =-1.0000 0.4167 0.0000 (  2266 PWs)   bands (ev):

    -3.7216  -1.4441  -1.4441   0.5568   2.3363   2.3363   2.6201   4.8911
     8.6677   9.7975   9.7975  10.8489  10.9454  11.9659  11.9659  12.8035
    12.9448  15.8085  16.8180  16.8180  18.2280  19.2657  19.2657  19.3019

          k =-1.0000 0.5000 0.0000 (  2269 PWs)   bands (ev):

    -3.7387  -1.4309  -1.4309   0.7415   2.2798   2.2798   2.3904   4.8827
     8.6595  10.4450  10.4450  11.0460  11.2595  11.2595  11.3356  12.3808
    12.6677  15.8693  16.8199  16.8199  18.7836  19.2888  19.2888  19.4318

          k =-0.9444 0.5000 0.0556 (  2263 PWs)   bands (ev):

    -3.3128  -1.7976  -1.0833   0.2538   2.0589   2.0595   2.6027   4.6021
     8.3446  10.1115  10.4681  11.2606  11.5640  11.6804  11.8411  12.7491
    12.9949  14.7414  15.9885  17.2811  18.7555  19.3417  19.9817  20.1268

          k =-0.8889 0.5000 0.1111 (  2265 PWs)   bands (ev):

    -2.8868  -2.1522  -0.8036  -0.1792   1.8227   1.9934   2.9880   4.3321
     8.0319   9.7888  10.1417  11.7197  12.1312  12.2031  12.3085  13.1882
    13.4083  13.6130  14.9329  17.4195  18.4355  19.9315  20.5107  20.5520

          k =-0.8333 0.5000 0.1667 (  2279 PWs)   bands (ev):

    -2.4881  -2.4766  -0.6405  -0.5564   1.7063   2.1336   3.4047   4.0825
     7.7402   9.5335   9.7884  11.9863  12.3099  12.7448  12.7698  13.3233
    13.6809  13.8080  13.8960  17.3301  18.2081  19.6645  20.5508  21.1278

          k =-0.7778 0.5000 0.2222 (  2269 PWs)   bands (ev):

    -2.7606  -2.1499  -0.8769  -0.5993   1.7391   2.4832   3.8246   3.8611
     7.4810   9.3632   9.4582  10.8908  12.6916  12.9773  13.3541  13.4003
    13.8922  14.2120  14.4465  17.0213  18.0247  18.8730  21.0184  21.3993

          k =-0.7222 0.5000 0.2778 (  2266 PWs)   bands (ev):

    -2.9982  -1.8995  -1.1399  -0.6369   1.9390   2.9925   3.6734   4.2179
     7.2619   9.1470   9.2877   9.7722  11.6481  13.6991  13.9066  14.0905
    14.5900  14.7648  15.0470  16.5205  17.8725  18.3681  20.7345  20.8421

          k =-0.6667 0.5000 0.3333 (  2264 PWs)   bands (ev):

    -3.1859  -1.7417  -1.3450  -0.7043   2.2910   3.5238   3.5971   4.5545
     7.0877   8.7272   8.8245   9.3072  10.7332  14.2796  14.4778  14.8014
    15.3165  15.3388  15.6815  16.0982  17.7506  18.0823  20.2023  20.2405

          k =-0.6111 0.5000 0.3889 (  2268 PWs)   bands (ev):

    -3.3213  -1.6573  -1.4917  -0.7691   2.7337   3.4150   4.2280   4.8085
     6.9613   7.8126   8.4362   9.4000  10.0497  14.2256  15.3038  15.5020
    15.8282  16.1073  16.1524  16.3221  17.6609  17.8953  19.1830  19.6518

          k =-0.5556 0.5000 0.4444 (  2274 PWs)   bands (ev):

    -3.4030  -1.6196  -1.5798  -0.8135   3.1453   3.3490   4.7750   4.9644
     6.8849   7.1294   8.0055   9.5106   9.6726  13.9519  16.1075  16.1571
    16.2253  16.5417  16.8194  16.8993  17.6042  17.7329  18.2118  19.0982

          k =-0.5000 0.5000 0.5000 (  2296 PWs)   bands (ev):

    -3.4304  -1.6092  -1.6092  -0.8291   3.3269   3.3269   5.0166   5.0166
     6.8592   6.8592   7.7891   9.5610   9.5610  13.8232  16.3844  16.3844
    16.7871  16.7871  17.1832  17.1832  17.5012  17.6253  17.6253  18.8221

          k =-0.4583 0.4583 0.4583 (  2275 PWs)   bands (ev):

    -3.5304  -1.9254  -1.2733  -0.6856   3.2284   3.3463   5.0291   5.0291
     6.8541   7.0551   7.8033   9.5760   9.5760  13.8467  16.0459  16.0963
    16.2631  16.2631  17.1594  17.1759  17.1923  18.2001  18.2001  18.5939

          k =-0.4167 0.4167 0.4167 (  2283 PWs)   bands (ev):

    -3.7793  -2.2147  -0.9309  -0.3066   2.9887   3.4042   5.0668   5.0668
     6.9258   7.5048   7.8457   9.6181   9.6181  13.9123  15.3365  15.4238
    15.5239  15.5239  16.5352  17.0914  17.1443  18.5694  19.0326  19.0876

          k =-0.3750 0.3750 0.3750 (  2278 PWs)   bands (ev):

    -4.0931  -2.4730  -0.6057   0.2229   2.7160   3.4997   5.1294   5.1294
     7.0502   7.9160   8.1413   9.6779   9.6779  13.9971  14.5274  14.5999
    14.8336  14.8336  15.8520  16.9868  17.0504  18.5941  19.0635  20.0089

          k =-0.3333 0.3333 0.3333 (  2276 PWs)   bands (ev):

    -4.4182  -2.6985  -0.3392   0.8477   2.5127   3.6308   5.2166   5.2166
     7.2228   8.0130   8.9015   9.7380   9.7380  13.7094  13.7272  14.0156
    14.2338  14.2338  15.2679  16.8489  16.9476  18.5955  19.0882  19.7797

          k =-0.2917 0.2917 0.2917 (  2263 PWs)   bands (ev):

    -4.7276  -2.8906  -0.1869   1.5382   2.4669   3.7948   5.3273   5.3273
     7.4392   8.1350   9.7462   9.7717   9.7717  12.8491  12.9170  13.7391
    13.7577  13.7577  15.0188  16.6682  16.8557  18.5439  18.8949  19.0712

          k =-0.2500 0.2500 0.2500 (  2259 PWs)   bands (ev):

    -5.0076  -3.0496  -0.1789   2.2764   2.6251   3.9870   5.4598   5.4598
     7.6925   8.2783   9.7462   9.7462  10.6425  11.9993  12.1686  13.1498
    13.4391  13.4391  15.0999  16.4166  16.7848  17.9802  18.4356  18.9038

          k =-0.2083 0.2083 0.2083 (  2267 PWs)   bands (ev):

    -5.2512  -3.1771  -0.2829   2.9613   3.0487   4.2006   5.6104   5.6104
     7.9692   8.4374   9.6385   9.6385  11.0597  11.4780  11.7106  12.4512
    13.3006  13.3006  15.2387  16.0554  16.7395  17.2091  18.2831  18.3732

          k =-0.1667 0.1667 0.1667 (  2270 PWs)   bands (ev):

    -5.4541  -3.2751  -0.4368   3.4130   3.8402   4.4248   5.7728   5.7728
     8.2389   8.6015   9.4542   9.4542  10.3462  10.8598  11.7224  12.6446
    13.3331  13.3331  15.1797  15.5899  16.7208  16.8001  17.9725  18.1074

          k =-0.1250 0.1250 0.1250 (  2270 PWs)   bands (ev):

    -5.6138  -3.3464  -0.5920   3.9213   4.6289   4.6439   5.9364   5.9364
     8.4142   8.7521   9.2296   9.2296   9.7371  10.3324  10.9992  13.4934
    13.4934  13.5833  14.8207  15.1489  16.7264  16.8513  17.7460  17.9308

          k =-0.0833 0.0833 0.0833 (  2276 PWs)   bands (ev):

    -5.7287  -3.3943  -0.7189   4.4278   4.8347   5.3727   6.0839   6.0839
     8.2935   8.8540   9.0143   9.0143   9.4775   9.9204  10.3367  13.7153
    13.7153  14.0683  14.4062  15.2364  16.7490  17.1070  17.6298  17.7756

          k =-0.0417 0.0417 0.0417 (  2286 PWs)   bands (ev):

    -5.7981  -3.4216  -0.8009   4.8432   4.9681   5.9750   6.1904   6.1904
     7.9575   8.8527   8.8578   8.8578   9.5167   9.6539   9.8612  13.9147
    13.9147  13.9209  14.1128  16.0862  16.7752  17.3527  17.5747  17.6101

          k = 0.0000 0.0000 0.0000 (  2297 PWs)   bands (ev):

    -5.8212  -3.4304  -0.8291   5.0166   5.0166   6.2300   6.2300   6.2300
     7.7891   8.8001   8.8001   8.8001   9.5610   9.5610   9.7035  13.8232
    13.9973  13.9973  14.0087  16.7871  16.7871  17.4542  17.4542  17.4542

     Writing all to output data dir ./tmp/si.save/ :
     XML data file, pseudopotentials, collected wavefunctions
 
     init_run     :      0.01s CPU      0.01s WALL (       1 calls)
     electrons    :      6.74s CPU      7.41s WALL (       1 calls)

     Called by init_run:
     wfcinit      :      0.00s CPU      0.00s WALL (       1 calls)
     wfcinit:atom :      0.00s CPU      0.00s WALL (      40 calls)
     wfcinit:wfcr :      0.15s CPU      0.17s WALL (      40 calls)
     potinit      :      0.00s CPU      0.00s WALL (       1 calls)
     hinit0       :      0.00s CPU      0.00s WALL (       1 calls)

     Called by electrons:
     c_bands      :      6.74s CPU      7.41s WALL (       1 calls)
     v_of_rho     :      0.00s CPU      0.00s WALL (       1 calls)
     v_h          :      0.00s CPU      0.00s WALL (       1 calls)
     v_xc         :      0.00s CPU      0.00s WALL (       1 calls)

     Called by c_bands:
     init_us_2    :      0.00s CPU      0.00s WALL (      40 calls)
     ccgdiagg     :      6.57s CPU      7.21s WALL (      42 calls)
     wfcrot       :      0.16s CPU      0.17s WALL (      42 calls)

     Called by sum_band:

     Called by *cgdiagg:
     h_psi        :      5.29s CPU      5.80s WALL (   30672 calls)

     Called by h_psi:
     h_psi:calbec :      0.34s CPU      0.37s WALL (   30672 calls)
     vloc_psi     :      4.51s CPU      4.95s WALL (   30672 calls)
                                        0.00s GPU  (   30672 calls)
     add_vuspsi   :      0.22s CPU      0.25s WALL (   30672 calls)
     hs_1psi      :      5.36s CPU      5.88s WALL (   30630 calls)
     s_1psi       :      0.37s CPU      0.40s WALL (   30630 calls)

     General routines
     calbec       :      0.49s CPU      0.54s WALL (   61302 calls)
     fft          :      0.00s CPU      0.00s WALL (       3 calls)
     fftw         :      4.02s CPU      4.40s WALL (   63276 calls)
     davcio       :      0.00s CPU      0.00s WALL (      80 calls)
 
     Parallel routines
 
     PWSCF        :      6.79s CPU      7.49s WALL

 
   This run was terminated on:  23:26:55  22Sep2026            

=------------------------------------------------------------------------------=
   JOB DONE.
=------------------------------------------------------------------------------=
