
     Program PWSCF v.7.5 starts on 22Sep2026 at 23:26:44 

     This program is part of the open-source Quantum ESPRESSO suite
     for quantum simulation of materials; please cite
         "P. Giannozzi et al., J. Phys.:Condens. Matter 21 395502 (2009);
         "P. Giannozzi et al., J. Phys.:Condens. Matter 29 465901 (2017);
         "P. Giannozzi et al., J. Chem. Phys. 152 154105 (2020);
          URL http://www.quantum-espresso.org", 
     in publications or presentations arising from this work. More details at
     http://www.quantum-espresso.org/quote

     Parallel version (MPI), running on     8 processors

     MPI processes distributed on     1 nodes
     2447 MiB available memory on the printing compute node when the environment starts
 
     Reading input from si.scf.in

     Current dimensions of program PWSCF are:
     Max number of different atomic species (ntypx) = 10
     Max number of k-points (npk) =  40000
     Max angular momentum in pseudopotentials (lmaxx) =  4
     Found identity + ( -0.5000  0.0000  0.0000) symmetry
     This is a supercell, fractional translations are disabled
     Message from routine setup:
     using ibrav=0 with symmetry is DISCOURAGED, use correct ibrav instead
 
     R & G space division:  proc/nbgrp/npool/nimage =       8
     Subspace diagonalization in iterative solution of the eigenvalue problem:
     a serial algorithm will be used

 
     Parallelization info
     --------------------
     sticks:   dense  smooth     PW     G-vecs:    dense   smooth      PW
     Min         143     143     46                 2276     2276     407
     Max         144     144     47                 2277     2277     408
     Sum        1151    1151    369                18215    18215    3261
 
     Using Slab Decomposition
 


     bravais-lattice index     =            0
     lattice parameter (alat)  =      10.2000  a.u.
     unit-cell volume          =     530.6040 (a.u.)^3
     number of atoms/cell      =            4
     number of atomic types    =            1
     number of electrons       =        16.00
     number of Kohn-Sham states=            8
     kinetic-energy cutoff     =      40.0000  Ry
     charge density cutoff     =     160.0000  Ry
     scf convergence threshold =      1.0E-12
     mixing beta               =       0.7000
     number of iterations used =            8  plain     mixing
     Exchange-correlation= SLA  PZ   NOGX NOGC
                           (   1   1   0   0   0   0   0)

     celldm(1)=  10.200000  celldm(2)=   0.000000  celldm(3)=   0.000000
     celldm(4)=   0.000000  celldm(5)=   0.000000  celldm(6)=   0.000000

     crystal axes: (cart. coord. in units of alat)
               a(1) = (  -1.000000   0.000000   1.000000 )  
               a(2) = (   0.000000   0.500000   0.500000 )  
               a(3) = (  -0.500000   0.500000   0.000000 )  

     reciprocal axes: (cart. coord. in units 2 pi/alat)
               b(1) = ( -0.500000 -0.500000  0.500000 )  
               b(2) = (  1.000000  1.000000  1.000000 )  
               b(3) = ( -1.000000  1.000000 -1.000000 )  


     PseudoPot. # 1 for Si read from file:
     ../pseudo/Si.pz-vbc.UPF
     MD5 check sum: 9f25e6ff280f3123e9b3a84715b2e9c9
     Pseudo is Norm-conserving, Zval =  4.0
     Generated by new atomic code, or converted to UPF format
     Using radial grid of  431 points,  2 beta functions with: 
                l(1) =   0
                l(2) =   1

     atomic species   valence    mass     pseudopotential
     Si                4.00    28.08550     Si( 1.00)

      6 Sym. Ops. (no inversion) found


                                    s                        frac. trans.

      isym =  1     identity                                     

 cryst.   s( 1) = (     1          0          0      )
                  (     0          1          0      )
                  (     0          0          1      )

 cart.    s( 1) = (  1.0000000  0.0000000  0.0000000 )
                  (  0.0000000  1.0000000  0.0000000 )
                  (  0.0000000  0.0000000  1.0000000 )


      isym =  2     120 deg rotation - cart. axis [1,1,-1]       

 cryst.   s( 2) = (     1          0         -2      )
                  (     0          0         -1      )
                  (     0          1         -1      )

 cart.    s( 2) = (  0.0000000  1.0000000  0.0000000 )
                  (  0.0000000  0.0000000 -1.0000000 )
                  ( -1.0000000  0.0000000  0.0000000 )


      isym =  3     120 deg rotation - cart. axis [-1,-1,1]      

 cryst.   s( 3) = (     1         -2          0      )
                  (     0         -1          1      )
                  (     0         -1          0      )

 cart.    s( 3) = (  0.0000000  0.0000000 -1.0000000 )
                  (  1.0000000  0.0000000  0.0000000 )
                  (  0.0000000 -1.0000000  0.0000000 )


      isym =  4     inv. 180 deg rotation - cart. axis [1,-1,0]  

 cryst.   s( 4) = (     1          0         -2      )
                  (     0          1         -1      )
                  (     0          0         -1      )

 cart.    s( 4) = (  0.0000000  1.0000000  0.0000000 )
                  (  1.0000000  0.0000000  0.0000000 )
                  (  0.0000000  0.0000000  1.0000000 )


      isym =  5     inv. 180 deg rotation - cart. axis [1,0,1]   

 cryst.   s( 5) = (     1          0          0      )
                  (     0          0          1      )
                  (     0          1          0      )

 cart.    s( 5) = (  0.0000000  0.0000000 -1.0000000 )
                  (  0.0000000  1.0000000  0.0000000 )
                  ( -1.0000000  0.0000000  0.0000000 )


      isym =  6     inv. 180 deg rotation - cart. axis [0,1,1]   

 cryst.   s( 6) = (     1         -2          0      )
                  (     0         -1          0      )
                  (     0         -1          1      )

 cart.    s( 6) = (  1.0000000  0.0000000  0.0000000 )
                  (  0.0000000  0.0000000 -1.0000000 )
                  (  0.0000000 -1.0000000  0.0000000 )


   Cartesian axes

     site n.     atom                  positions (alat units)
         1        Si     tau(   1) = (   0.0000000   0.0000000   0.0000000  )
         2        Si     tau(   2) = (  -0.7500000   0.7500000   0.7500000  )
         3        Si     tau(   3) = (  -0.5000000   0.0000000   0.5000000  )
         4        Si     tau(   4) = (  -1.2500000   0.7500000   1.2500000  )

   Crystallographic axes

     site n.     atom                  positions (cryst. coord.)
         1        Si     tau(   1) = (  0.0000000  0.0000000  0.0000000  )
         2        Si     tau(   2) = (  0.3750000  0.7500000  0.7500000  )
         3        Si     tau(   3) = (  0.5000000  0.0000000  0.0000000  )
         4        Si     tau(   4) = (  0.8750000  0.7500000  0.7500000  )

     number of k points=    35
                       cart. coord. in units 2pi/alat
        k(    1) = (   0.0000000   0.0000000   0.0000000), wk =   0.0078125
        k(    2) = (  -0.1250000   0.1250000  -0.1250000), wk =   0.0468750
        k(    3) = (  -0.2500000   0.2500000  -0.2500000), wk =   0.0468750
        k(    4) = (  -0.3750000   0.3750000  -0.3750000), wk =   0.0468750
        k(    5) = (   0.5000000  -0.5000000   0.5000000), wk =   0.0234375
        k(    6) = (   0.0000000   0.2500000   0.0000000), wk =   0.0468750
        k(    7) = (  -0.1250000   0.3750000  -0.1250000), wk =   0.0937500
        k(    8) = (  -0.2500000   0.5000000  -0.2500000), wk =   0.0937500
        k(    9) = (   0.6250000  -0.3750000   0.6250000), wk =   0.0937500
        k(   10) = (   0.5000000  -0.2500000   0.5000000), wk =   0.0937500
        k(   11) = (   0.3750000  -0.1250000   0.3750000), wk =   0.0937500
        k(   12) = (   0.2500000   0.0000000   0.2500000), wk =   0.0468750
        k(   13) = (   0.0000000   0.5000000   0.0000000), wk =   0.0468750
        k(   14) = (  -0.1250000   0.6250000  -0.1250000), wk =   0.0937500
        k(   15) = (   0.7500000  -0.2500000   0.7500000), wk =   0.0468750
        k(   16) = (   0.6250000  -0.1250000   0.6250000), wk =   0.0937500
        k(   17) = (   0.5000000   0.0000000   0.5000000), wk =   0.0468750
        k(   18) = (   0.0000000   0.7500000   0.0000000), wk =   0.0468750
        k(   19) = (   0.7500000   0.0000000   0.7500000), wk =   0.0468750
        k(   20) = (  -0.1250000  -0.1250000   0.1250000), wk =   0.0156250
        k(   21) = (  -0.3750000   0.1250000  -0.1250000), wk =   0.0468750
        k(   22) = (  -0.5000000   0.2500000  -0.2500000), wk =   0.0468750
        k(   23) = (   0.3750000  -0.6250000   0.6250000), wk =   0.0468750
        k(   24) = (   0.1250000  -0.3750000   0.3750000), wk =   0.0468750
        k(   25) = (   0.0000000  -0.2500000   0.2500000), wk =   0.0468750
        k(   26) = (  -0.2500000   0.5000000   0.0000000), wk =   0.0937500
        k(   27) = (   0.6250000  -0.3750000   0.8750000), wk =   0.0937500
        k(   28) = (  -0.1250000   0.6250000   0.1250000), wk =   0.0468750
        k(   29) = (   0.7500000  -0.2500000   1.0000000), wk =   0.0937500
        k(   30) = (   0.5000000   0.0000000   0.7500000), wk =   0.0468750
        k(   31) = (   0.3750000   0.1250000   0.6250000), wk =   0.0937500
        k(   32) = (  -0.2500000  -0.5000000   0.0000000), wk =   0.0468750
        k(   33) = (  -0.1250000  -0.3750000   0.1250000), wk =   0.0468750
        k(   34) = (   0.2500000   0.2500000  -0.2500000), wk =   0.0078125
        k(   35) = (   0.7500000  -0.2500000   0.2500000), wk =   0.0234375

                       cryst. coord.
        k(    1) = (   0.0000000   0.0000000   0.0000000), wk =   0.0078125
        k(    2) = (   0.0000000   0.0000000   0.1250000), wk =   0.0468750
        k(    3) = (   0.0000000   0.0000000   0.2500000), wk =   0.0468750
        k(    4) = (   0.0000000   0.0000000   0.3750000), wk =   0.0468750
        k(    5) = (   0.0000000   0.0000000  -0.5000000), wk =   0.0234375
        k(    6) = (   0.0000000   0.1250000   0.1250000), wk =   0.0468750
        k(    7) = (   0.0000000   0.1250000   0.2500000), wk =   0.0937500
        k(    8) = (   0.0000000   0.1250000   0.3750000), wk =   0.0937500
        k(    9) = (   0.0000000   0.1250000  -0.5000000), wk =   0.0937500
        k(   10) = (   0.0000000   0.1250000  -0.3750000), wk =   0.0937500
        k(   11) = (   0.0000000   0.1250000  -0.2500000), wk =   0.0937500
        k(   12) = (   0.0000000   0.1250000  -0.1250000), wk =   0.0468750
        k(   13) = (   0.0000000   0.2500000   0.2500000), wk =   0.0468750
        k(   14) = (   0.0000000   0.2500000   0.3750000), wk =   0.0937500
        k(   15) = (   0.0000000   0.2500000  -0.5000000), wk =   0.0468750
        k(   16) = (   0.0000000   0.2500000  -0.3750000), wk =   0.0937500
        k(   17) = (   0.0000000   0.2500000  -0.2500000), wk =   0.0468750
        k(   18) = (   0.0000000   0.3750000   0.3750000), wk =   0.0468750
        k(   19) = (   0.0000000   0.3750000  -0.3750000), wk =   0.0468750
        k(   20) = (   0.2500000   0.0000000   0.0000000), wk =   0.0156250
        k(   21) = (   0.2500000   0.0000000   0.2500000), wk =   0.0468750
        k(   22) = (   0.2500000   0.0000000   0.3750000), wk =   0.0468750
        k(   23) = (   0.2500000   0.0000000  -0.5000000), wk =   0.0468750
        k(   24) = (   0.2500000   0.0000000  -0.2500000), wk =   0.0468750
        k(   25) = (   0.2500000   0.0000000  -0.1250000), wk =   0.0468750
        k(   26) = (   0.2500000   0.2500000   0.3750000), wk =   0.0937500
        k(   27) = (   0.2500000   0.2500000  -0.5000000), wk =   0.0937500
        k(   28) = (   0.2500000   0.3750000   0.3750000), wk =   0.0468750
        k(   29) = (   0.2500000   0.3750000  -0.5000000), wk =   0.0937500
        k(   30) = (   0.2500000   0.3750000  -0.2500000), wk =   0.0468750
        k(   31) = (   0.2500000   0.3750000  -0.1250000), wk =   0.0937500
        k(   32) = (   0.2500000  -0.2500000  -0.1250000), wk =   0.0468750
        k(   33) = (   0.2500000  -0.1250000  -0.1250000), wk =   0.0468750
        k(   34) = (  -0.5000000   0.0000000   0.0000000), wk =   0.0078125
        k(   35) = (  -0.5000000   0.0000000  -0.5000000), wk =   0.0234375

     Dense  grid:    18215 G-vectors     FFT dimensions: (  60,  30,  30)

     Dynamical RAM for                 wfc:       0.03 MB

     Dynamical RAM for     wfc (w. buffer):       1.24 MB

     Dynamical RAM for           str. fact:       0.03 MB

     Dynamical RAM for           local pot:       0.00 MB

     Dynamical RAM for          nlocal pot:       0.07 MB

     Dynamical RAM for                qrad:       0.09 MB

     Dynamical RAM for          rho,v,vnew:       0.27 MB

     Dynamical RAM for               rhoin:       0.09 MB

     Dynamical RAM for            rho*nmix:       0.56 MB

     Dynamical RAM for           G-vectors:       0.15 MB

     Dynamical RAM for          h,s,v(r/c):       0.00 MB

     Dynamical RAM for          <psi|beta>:       0.00 MB

     Dynamical RAM for      wfcinit/wfcrot:       0.07 MB

     Estimated static dynamical RAM per process >       2.29 MB

     Estimated max dynamical RAM per process >       2.91 MB

     Estimated total dynamical RAM >      23.29 MB

     Initial potential from superposition of free atoms

     starting charge      15.9980, renormalised to      16.0000
     Starting wfcs are   16 randomized atomic wfcs

     total cpu time spent up to now is        0.1 secs

     Self-consistent Calculation

     iteration #  1     ecut=    40.00 Ry     beta= 0.70
     CG style diagonalization

---- Real-time Memory Report at c_bands before calling an iterative solver
            56 MiB given to the printing process from OS
             0 MiB allocation reported by mallinfo(arena+hblkhd)
          2351 MiB available memory on the node where the printing process lives
------------------
     ethr =  1.00E-10,  avg # of iterations = 15.0

     total cpu time spent up to now is        1.2 secs

     total energy              =     -31.69813106 Ry
     estimated scf accuracy    <       0.12668880 Ry

     iteration #  2     ecut=    40.00 Ry     beta= 0.70
     CG style diagonalization

---- Real-time Memory Report at c_bands before calling an iterative solver
            57 MiB given to the printing process from OS
             0 MiB allocation reported by mallinfo(arena+hblkhd)
          2341 MiB available memory on the node where the printing process lives
------------------
     ethr =  7.92E-04,  avg # of iterations =  3.0

     total cpu time spent up to now is        1.4 secs

     total energy              =     -31.70482838 Ry
     estimated scf accuracy    <       0.00424409 Ry

     iteration #  3     ecut=    40.00 Ry     beta= 0.70
     CG style diagonalization

---- Real-time Memory Report at c_bands before calling an iterative solver
            57 MiB given to the printing process from OS
             0 MiB allocation reported by mallinfo(arena+hblkhd)
          2333 MiB available memory on the node where the printing process lives
------------------
     ethr =  2.65E-05,  avg # of iterations =  3.9

     total cpu time spent up to now is        1.7 secs

     total energy              =     -31.70589579 Ry
     estimated scf accuracy    <       0.00013941 Ry

     iteration #  4     ecut=    40.00 Ry     beta= 0.70
     CG style diagonalization

---- Real-time Memory Report at c_bands before calling an iterative solver
            57 MiB given to the printing process from OS
             0 MiB allocation reported by mallinfo(arena+hblkhd)
          2332 MiB available memory on the node where the printing process lives
------------------
     ethr =  8.71E-07,  avg # of iterations =  4.0

     total cpu time spent up to now is        1.9 secs

     total energy              =     -31.70592865 Ry
     estimated scf accuracy    <       0.00001238 Ry

     iteration #  5     ecut=    40.00 Ry     beta= 0.70
     CG style diagonalization

---- Real-time Memory Report at c_bands before calling an iterative solver
            57 MiB given to the printing process from OS
             0 MiB allocation reported by mallinfo(arena+hblkhd)
          2331 MiB available memory on the node where the printing process lives
------------------
     ethr =  7.74E-08,  avg # of iterations =  3.7

     total cpu time spent up to now is        2.2 secs

     total energy              =     -31.70593043 Ry
     estimated scf accuracy    <       0.00000015 Ry

     iteration #  6     ecut=    40.00 Ry     beta= 0.70
     CG style diagonalization

---- Real-time Memory Report at c_bands before calling an iterative solver
            57 MiB given to the printing process from OS
             0 MiB allocation reported by mallinfo(arena+hblkhd)
          2332 MiB available memory on the node where the printing process lives
------------------
     ethr =  9.33E-10,  avg # of iterations =  4.2

     total cpu time spent up to now is        2.5 secs

     total energy              =     -31.70593049 Ry
     estimated scf accuracy    <          4.7E-09 Ry

     iteration #  7     ecut=    40.00 Ry     beta= 0.70
     CG style diagonalization

---- Real-time Memory Report at c_bands before calling an iterative solver
            57 MiB given to the printing process from OS
             0 MiB allocation reported by mallinfo(arena+hblkhd)
          2332 MiB available memory on the node where the printing process lives
------------------
     ethr =  2.95E-11,  avg # of iterations =  3.7

     total cpu time spent up to now is        2.7 secs

     total energy              =     -31.70593049 Ry
     estimated scf accuracy    <          3.0E-11 Ry

     iteration #  8     ecut=    40.00 Ry     beta= 0.70
     CG style diagonalization

---- Real-time Memory Report at c_bands before calling an iterative solver
            57 MiB given to the printing process from OS
             0 MiB allocation reported by mallinfo(arena+hblkhd)
          2330 MiB available memory on the node where the printing process lives
------------------
     ethr =  1.90E-13,  avg # of iterations =  4.5

     total cpu time spent up to now is        3.0 secs

     total energy              =     -31.70593049 Ry
     estimated scf accuracy    <          1.3E-12 Ry

     iteration #  9     ecut=    40.00 Ry     beta= 0.70
     CG style diagonalization

---- Real-time Memory Report at c_bands before calling an iterative solver
            57 MiB given to the printing process from OS
             0 MiB allocation reported by mallinfo(arena+hblkhd)
          2328 MiB available memory on the node where the printing process lives
------------------
     ethr =  1.00E-13,  avg # of iterations =  3.0

     total cpu time spent up to now is        3.2 secs

     End of self-consistent calculation

          k = 0.0000 0.0000 0.0000 (  2297 PWs)   bands (ev):

    -5.8212  -3.4304  -0.8291   5.0166   5.0166   6.2300   6.2300   6.2300

     occupation numbers 
     1.0000   1.0000   1.0000   1.0000   1.0000   1.0000   1.0000   1.0000

          k =-0.1250 0.1250-0.1250 (  2270 PWs)   bands (ev):

    -5.6138  -3.3465  -0.5920   3.9213   4.6289   4.6439   5.9364   5.9364

     occupation numbers 
     1.0000   1.0000   1.0000   1.0000   1.0000   1.0000   1.0000   1.0000

          k =-0.2500 0.2500-0.2500 (  2259 PWs)   bands (ev):

    -5.0076  -3.0496  -0.1789   2.2764   2.6251   3.9870   5.4598   5.4598

     occupation numbers 
     1.0000   1.0000   1.0000   1.0000   1.0000   1.0000   1.0000   1.0000

          k =-0.3750 0.3750-0.3750 (  2278 PWs)   bands (ev):

    -4.0931  -2.4730  -0.6057   0.2229   2.7160   3.4997   5.1294   5.1294

     occupation numbers 
     1.0000   1.0000   1.0000   1.0000   1.0000   1.0000   1.0000   1.0000

          k = 0.5000-0.5000 0.5000 (  2296 PWs)   bands (ev):

    -3.4304  -1.6092  -1.6092  -0.8291   3.3269   3.3269   5.0166   5.0166

     occupation numbers 
     1.0000   1.0000   1.0000   1.0000   1.0000   1.0000   1.0000   1.0000

          k = 0.0000 0.2500 0.0000 (  2282 PWs)   bands (ev):

    -5.5440  -3.6007  -0.2097   3.7327   4.9205   4.9471   5.4075   5.4075

     occupation numbers 
     1.0000   1.0000   1.0000   1.0000   1.0000   1.0000   1.0000   1.0000

          k =-0.1250 0.3750-0.1250 (  2266 PWs)   bands (ev):

    -5.0674  -3.5610   0.3639   2.8466   3.0031   4.2636   4.8878   4.9745

     occupation numbers 
     1.0000   1.0000   1.0000   1.0000   1.0000   1.0000   1.0000   1.0000

          k =-0.2500 0.5000-0.2500 (  2270 PWs)   bands (ev):

    -4.2358  -3.1827   0.2715   0.9082   2.7933   3.4096   4.3751   4.6169

     occupation numbers 
     1.0000   1.0000   1.0000   1.0000   1.0000   1.0000   1.0000   1.0000

          k = 0.6250-0.3750 0.6250 (  2268 PWs)   bands (ev):

    -3.3465  -2.4730  -0.6057  -0.5920   2.7160   3.4997   3.9213   4.6439

     occupation numbers 
     1.0000   1.0000   1.0000   1.0000   1.0000   1.0000   1.0000   1.0000

          k = 0.5000-0.2500 0.5000 (  2265 PWs)   bands (ev):

    -3.6007  -1.5247  -1.5247  -0.2097   2.7352   2.7352   3.7327   4.9471

     occupation numbers 
     1.0000   1.0000   1.0000   1.0000   1.0000   1.0000   1.0000   1.0000

          k = 0.3750-0.1250 0.3750 (  2263 PWs)   bands (ev):

    -4.5487  -2.2838  -0.7141   1.5800   2.0719   3.2028   3.8789   5.4478

     occupation numbers 
     1.0000   1.0000   1.0000   1.0000   1.0000   1.0000   1.0000   1.0000

          k = 0.2500 0.0000 0.2500 (  2279 PWs)   bands (ev):

    -5.2720  -2.8855  -0.6116   2.7220   3.5506   4.0265   4.5644   5.9362

     occupation numbers 
     1.0000   1.0000   1.0000   1.0000   1.0000   1.0000   1.0000   1.0000

          k = 0.0000 0.5000 0.0000 (  2243 PWs)   bands (ev):

    -4.7219  -3.7387   0.7415   2.3904   2.7406   4.3058   4.3058   4.8827

     occupation numbers 
     1.0000   1.0000   1.0000   1.0000   1.0000   1.0000   1.0000   1.0000

          k =-0.1250 0.6250-0.1250 (  2264 PWs)   bands (ev):

    -3.9991  -3.5610   0.3639   1.2970   2.8466   3.5064   3.9827   4.2636

     occupation numbers 
     1.0000   1.0000   1.0000   1.0000   1.0000   1.0000   1.0000   1.0000

          k = 0.7500-0.2500 0.7500 (  2256 PWs)   bands (ev):

    -3.0496  -3.0496  -0.1789  -0.1789   2.6251   2.6251   3.9870   3.9870

     occupation numbers 
     1.0000   1.0000   1.0000   1.0000   1.0000   1.0000   1.0000   1.0000

          k = 0.6250-0.1250 0.6250 (  2270 PWs)   bands (ev):

    -2.8354  -2.2838  -0.7141  -0.4482   2.0719   2.1532   3.2028   4.3125

     occupation numbers 
     1.0000   1.0000   1.0000   1.0000   1.0000   1.0000   1.0000   1.0000

          k = 0.5000 0.0000 0.5000 (  2269 PWs)   bands (ev):

    -3.7387  -1.4309  -1.4309   0.7415   2.2798   2.2798   2.3904   4.8827

     occupation numbers 
     1.0000   1.0000   1.0000   1.0000   1.0000   1.0000   1.0000   1.0000

          k = 0.0000 0.7500 0.0000 (  2257 PWs)   bands (ev):

    -3.6007  -3.3878  -0.2097   0.4926   3.5769   3.5769   3.7327   4.9471

     occupation numbers 
     1.0000   1.0000   1.0000   1.0000   1.0000   1.0000   1.0000   1.0000

          k = 0.7500 0.0000 0.7500 (  2264 PWs)   bands (ev):

    -2.8855  -2.0128  -1.0156  -0.6116   1.8181   2.7220   3.7627   4.0265

     occupation numbers 
     1.0000   1.0000   1.0000   1.0000   1.0000   1.0000   1.0000   1.0000

          k =-0.1250-0.1250 0.1250 (  2280 PWs)   bands (ev):

    -5.6138  -4.0931   0.2229   4.6289   5.1294   5.1294   5.9364   5.9364

     occupation numbers 
     1.0000   1.0000   1.0000   1.0000   1.0000   1.0000   1.0000   1.0000

          k =-0.3750 0.1250-0.1250 (  2267 PWs)   bands (ev):

    -5.0674  -2.8354  -0.4482   2.1532   3.0031   4.3125   4.8878   4.9745

     occupation numbers 
     1.0000   1.0000   1.0000   1.0000   1.0000   1.0000   1.0000   1.0000

          k =-0.5000 0.2500-0.2500 (  2277 PWs)   bands (ev):

    -4.2358  -2.0128  -1.0156   0.9082   1.8181   3.7627   4.3751   4.6169

     occupation numbers 
     1.0000   1.0000   1.0000   1.0000   1.0000   1.0000   1.0000   1.0000

          k = 0.3750-0.6250 0.6250 (  2268 PWs)   bands (ev):

    -3.3465  -2.4730  -0.6057  -0.5920   2.7160   3.4997   3.9213   4.6439

     occupation numbers 
     1.0000   1.0000   1.0000   1.0000   1.0000   1.0000   1.0000   1.0000

          k = 0.1250-0.3750 0.3750 (  2258 PWs)   bands (ev):

    -4.5487  -3.9991   1.2970   1.5800   3.5064   3.8789   3.9827   5.4478

     occupation numbers 
     1.0000   1.0000   1.0000   1.0000   1.0000   1.0000   1.0000   1.0000

          k = 0.0000-0.2500 0.2500 (  2292 PWs)   bands (ev):

    -5.2720  -4.2358   0.9082   3.5506   4.3751   4.5644   4.6169   5.9362

     occupation numbers 
     1.0000   1.0000   1.0000   1.0000   1.0000   1.0000   1.0000   1.0000

          k =-0.2500 0.5000 0.0000 (  2269 PWs)   bands (ev):

    -4.4691  -2.6409  -0.3473   1.8990   1.9463   3.4571   3.5896   4.7805

     occupation numbers 
     1.0000   1.0000   1.0000   1.0000   1.0000   1.0000   1.0000   1.0000

          k = 0.6250-0.3750 0.8750 (  2269 PWs)   bands (ev):

    -3.5610  -2.2838  -0.7141   0.3639   2.0719   2.8466   3.2028   4.2636

     occupation numbers 
     1.0000   1.0000   1.0000   1.0000   1.0000   1.0000   1.0000   1.0000

          k =-0.1250 0.6250 0.1250 (  2265 PWs)   bands (ev):

    -3.9991  -2.8354  -0.4482   1.2970   2.1532   3.5064   3.9827   4.3125

     occupation numbers 
     1.0000   1.0000   1.0000   1.0000   1.0000   1.0000   1.0000   1.0000

          k = 0.7500-0.2500 1.0000 (  2257 PWs)   bands (ev):

    -3.1827  -2.8855  -0.6116   0.2715   2.7220   2.7933   3.4096   4.0265

     occupation numbers 
     1.0000   1.0000   1.0000   1.0000   1.0000   1.0000   1.0000   1.0000

          k = 0.5000 0.0000 0.7500 (  2276 PWs)   bands (ev):

    -2.6409  -2.6409  -0.3473  -0.3473   1.8990   1.8990   3.5896   3.5896

     occupation numbers 
     1.0000   1.0000   1.0000   1.0000   1.0000   1.0000   1.0000   1.0000

          k = 0.3750 0.1250 0.6250 (  2269 PWs)   bands (ev):

    -3.5610  -2.2838  -0.7141   0.3639   2.0719   2.8466   3.2028   4.2636

     occupation numbers 
     1.0000   1.0000   1.0000   1.0000   1.0000   1.0000   1.0000   1.0000

          k =-0.2500-0.5000 0.0000 (  2262 PWs)   bands (ev):

    -4.4691  -4.4691   1.9463   1.9463   3.4571   3.4571   4.7805   4.7805

     occupation numbers 
     1.0000   1.0000   1.0000   1.0000   1.0000   1.0000   1.0000   1.0000

          k =-0.1250-0.3750 0.1250 (  2260 PWs)   bands (ev):

    -5.0674  -4.5487   1.5800   3.0031   3.8789   4.8878   4.9745   5.4478

     occupation numbers 
     1.0000   1.0000   1.0000   1.0000   1.0000   1.0000   1.0000   1.0000

          k = 0.2500 0.2500-0.2500 (  2262 PWs)   bands (ev):

    -5.0076  -5.0076   2.2764   2.2764   5.4598   5.4598   5.4598   5.4598

     occupation numbers 
     1.0000   1.0000   1.0000   1.0000   1.0000   1.0000   1.0000   1.0000

          k = 0.7500-0.2500 0.2500 (  2256 PWs)   bands (ev):

    -3.0496  -3.0496  -0.1789  -0.1789   2.6251   2.6251   3.9870   3.9870

     occupation numbers 
     1.0000   1.0000   1.0000   1.0000   1.0000   1.0000   1.0000   1.0000

     highest occupied level (ev):     6.2300

!    total energy              =     -31.70593049 Ry
     estimated scf accuracy    <          8.4E-13 Ry

     The total energy is the sum of the following terms:
     one-electron contribution =       9.56922011 Ry
     hartree contribution      =       2.15898127 Ry
     xc contribution           =      -9.63461472 Ry
     ewald contribution        =     -33.79951715 Ry

     convergence has been achieved in   9 iterations

     Forces acting on atoms (cartesian axes, Ry/au):

     atom    1 type  1   force =     0.00000002    0.00000002   -0.00000002
     atom    2 type  1   force =    -0.00000002   -0.00000002    0.00000002
     atom    3 type  1   force =    -0.00000002   -0.00000002    0.00000002
     atom    4 type  1   force =     0.00000002    0.00000002   -0.00000002
     The non-local contrib.  to forces
     atom    1 type  1   force =    -0.00000004   -0.00000004    0.00000004
     atom    2 type  1   force =     0.00000004    0.00000004   -0.00000004
     atom    3 type  1   force =     0.00000004    0.00000004   -0.00000004
     atom    4 type  1   force =    -0.00000004   -0.00000004    0.00000004
     The ionic contribution  to forces
     atom    1 type  1   force =     0.00000000   -0.00000000    0.00000000
     atom    2 type  1   force =    -0.00000000   -0.00000000   -0.00000000
     atom    3 type  1   force =     0.00000000    0.00000000   -0.00000000
     atom    4 type  1   force =    -0.00000000    0.00000000   -0.00000000
     The local contribution  to forces
     atom    1 type  1   force =     0.00000005    0.00000005   -0.00000005
     atom    2 type  1   force =    -0.00000005   -0.00000005    0.00000005
     atom    3 type  1   force =    -0.00000005   -0.00000005    0.00000005
     atom    4 type  1   force =     0.00000005    0.00000005   -0.00000005
     The core correction contribution to forces
     atom    1 type  1   force =     0.00000000    0.00000000    0.00000000
     atom    2 type  1   force =     0.00000000    0.00000000    0.00000000
     atom    3 type  1   force =     0.00000000    0.00000000    0.00000000
     atom    4 type  1   force =     0.00000000    0.00000000    0.00000000
     The Hubbard contrib.    to forces
     atom    1 type  1   force =     0.00000000    0.00000000    0.00000000
     atom    2 type  1   force =     0.00000000    0.00000000    0.00000000
     atom    3 type  1   force =     0.00000000    0.00000000    0.00000000
     atom    4 type  1   force =     0.00000000    0.00000000    0.00000000
     The SCF correction term to forces
     atom    1 type  1   force =     0.00000001    0.00000001   -0.00000001
     atom    2 type  1   force =    -0.00000001   -0.00000001    0.00000001
     atom    3 type  1   force =    -0.00000001   -0.00000001    0.00000001
     atom    4 type  1   force =     0.00000001    0.00000001   -0.00000001

     Total force =     0.000000     Total SCF correction =     0.000000
     SCF correction compared to forces is large: reduce conv_thr to get better values


     Computing stress (Cartesian axis) and pressure

          total   stress  (Ry/bohr**3)                   (kbar)     P=        1.37
   0.00000929   0.00000000  -0.00000000            1.37        0.00       -0.00
   0.00000000   0.00000929  -0.00000000            0.00        1.37       -0.00
  -0.00000000  -0.00000000   0.00000929           -0.00       -0.00        1.37

     kinetic stress (kbar)   2311.74      0.00     -0.00
                                0.00   2311.74     -0.00
                               -0.00     -0.00   2311.74

     local   stress (kbar)  -1436.00      0.00     -0.00
                                0.00  -1436.00     -0.00
                               -0.00     -0.00  -1436.00

     nonloc. stress (kbar)   2861.58      0.00     -0.00
                                0.00   2861.58     -0.00
                               -0.00     -0.00   2861.58

     hartree stress (kbar)    199.52     -0.00      0.00
                               -0.00    199.52      0.00
                                0.00      0.00    199.52

     exc-cor stress (kbar)   -811.94      0.00      0.00
                                0.00   -811.94      0.00
                                0.00      0.00   -811.94

     corecor stress (kbar)      0.00      0.00      0.00
                                0.00      0.00      0.00
                                0.00      0.00      0.00

     ewald   stress (kbar)  -3123.54      0.00     -0.00
                                0.00  -3123.54      0.00
                               -0.00      0.00  -3123.54

     hubbard stress (kbar)      0.00      0.00      0.00
                                0.00      0.00      0.00
                                0.00      0.00      0.00

     DFT-D   stress (kbar)      0.00      0.00      0.00
                                0.00      0.00      0.00
                                0.00      0.00      0.00

     XDM     stress (kbar)      0.00      0.00      0.00
                                0.00      0.00      0.00
                                0.00      0.00      0.00

     dft-nl  stress (kbar)      0.00      0.00      0.00
                                0.00      0.00      0.00
                                0.00      0.00      0.00

     TS-vdW  stress (kbar)      0.00      0.00      0.00
                                0.00      0.00      0.00
                                0.00      0.00      0.00

     MDB     stress (kbar)      0.00      0.00      0.00
                                0.00      0.00      0.00
                                0.00      0.00      0.00

     3D-RISM stress (kbar)      0.00      0.00      0.00
                                0.00      0.00      0.00
                                0.00      0.00      0.00


     Writing all to output data dir ./tmp/si.save/ :
     XML data file, charge density, pseudopotentials, collected wavefunctions
 
     init_run     :      0.11s CPU      0.12s WALL (       1 calls)
     electrons    :      2.79s CPU      3.08s WALL (       1 calls)
     forces       :      0.01s CPU      0.01s WALL (       1 calls)
     stress       :      0.03s CPU      0.03s WALL (       1 calls)

     Called by init_run:
     wfcinit      :      0.10s CPU      0.11s WALL (       1 calls)
     wfcinit:atom :      0.00s CPU      0.00s WALL (      35 calls)
     wfcinit:wfcr :      0.09s CPU      0.10s WALL (      35 calls)
     potinit      :      0.00s CPU      0.00s WALL (       1 calls)
     hinit0       :      0.00s CPU      0.00s WALL (       1 calls)

     Called by electrons:
     c_bands      :      2.55s CPU      2.83s WALL (       9 calls)
     sum_band     :      0.22s CPU      0.23s WALL (       9 calls)
     v_of_rho     :      0.00s CPU      0.00s WALL (      10 calls)
     v_h          :      0.00s CPU      0.00s WALL (      10 calls)
     v_xc         :      0.00s CPU      0.00s WALL (      10 calls)
     mix_rho      :      0.00s CPU      0.00s WALL (       9 calls)

     Called by c_bands:
     init_us_2    :      0.02s CPU      0.02s WALL (     735 calls)
     ccgdiagg     :      2.17s CPU      2.42s WALL (     315 calls)
     wfcrot       :      0.46s CPU      0.49s WALL (     315 calls)

     Called by sum_band:
     sum_band:wei :      0.00s CPU      0.00s WALL (       9 calls)
     sum_band:loo :      0.22s CPU      0.23s WALL (       9 calls)
     sum_band:buf :      0.00s CPU      0.00s WALL (     315 calls)
     sum_band:ini :      0.01s CPU      0.01s WALL (     315 calls)

     Called by *cgdiagg:
     h_psi        :      2.24s CPU      2.47s WALL (   10691 calls)

     Called by h_psi:
     h_psi:calbec :      0.13s CPU      0.14s WALL (   10691 calls)
     vloc_psi     :      1.95s CPU      2.16s WALL (   10691 calls)
                                        0.00s GPU  (   10691 calls)
     add_vuspsi   :      0.08s CPU      0.09s WALL (   10691 calls)
     hs_1psi      :      1.88s CPU      2.10s WALL (   10376 calls)
     s_1psi       :      0.12s CPU      0.14s WALL (   10376 calls)

     General routines
     calbec       :      0.19s CPU      0.21s WALL (   21662 calls)
     fft          :      0.00s CPU      0.01s WALL (      34 calls)
     ffts         :      0.00s CPU      0.00s WALL (       9 calls)
     fftw         :      1.91s CPU      2.09s WALL (   28872 calls)
 
     Parallel routines
 
     PWSCF        :      2.95s CPU      3.28s WALL

 
   This run was terminated on:  23:26:47  22Sep2026            

=------------------------------------------------------------------------------=
   JOB DONE.
=------------------------------------------------------------------------------=
