
     Program PWSCF v.7.5 starts on 22Sep2026 at 23: 3:49 

     This program is part of the open-source Quantum ESPRESSO suite
     for quantum simulation of materials; please cite
         "P. Giannozzi et al., J. Phys.:Condens. Matter 21 395502 (2009);
         "P. Giannozzi et al., J. Phys.:Condens. Matter 29 465901 (2017);
         "P. Giannozzi et al., J. Chem. Phys. 152 154105 (2020);
          URL http://www.quantum-espresso.org", 
     in publications or presentations arising from this work. More details at
     http://www.quantum-espresso.org/quote

     Parallel version (MPI), running on     4 processors

     MPI processes distributed on     1 nodes
     2239 MiB available memory on the printing compute node when the environment starts

     Reading input from scf.in

     Current dimensions of program PWSCF are:
     Max number of different atomic species (ntypx) = 10
     Max number of k-points (npk) =  40000
     Max angular momentum in pseudopotentials (lmaxx) =  4
     Message from routine setup:
     using ibrav=0 with symmetry is DISCOURAGED, use correct ibrav instead

     R & G space division:  proc/nbgrp/npool/nimage =       4
     Subspace diagonalization in iterative solution of the eigenvalue problem:
     a serial algorithm will be used


     Parallelization info
     --------------------
     sticks:   dense  smooth     PW     G-vecs:    dense   smooth      PW
     Min         689     260     76                27281     6316    1034
     Max         690     261     77                27284     6319    1036
     Sum        2757    1041    305               109127    25269    4139

     Using Slab Decomposition



     bravais-lattice index     =            0
     lattice parameter (alat)  =       7.3715  a.u.
     unit-cell volume          =     400.5661 (a.u.)^3
     number of atoms/cell      =            4
     number of atomic types    =            2
     number of electrons       =        15.00
     number of Kohn-Sham states=           14
     kinetic-energy cutoff     =      60.0000  Ry
     charge density cutoff     =     640.0000  Ry
     scf convergence threshold =      1.0E-10
     mixing beta               =       0.7000
     number of iterations used =            8  plain     mixing
     Exchange-correlation= PBE
                           (   1   4   3   4   0   0   0)

     celldm(1)=   7.371537  celldm(2)=   0.000000  celldm(3)=   0.000000
     celldm(4)=   0.000000  celldm(5)=   0.000000  celldm(6)=   0.000000

     crystal axes: (cart. coord. in units of alat)
               a(1) = (   1.000000   0.000000   0.000000 )  
               a(2) = (   0.000000   1.000000   0.000000 )  
               a(3) = (   0.000000   0.000000   1.000000 )  

     reciprocal axes: (cart. coord. in units 2 pi/alat)
               b(1) = (  1.000000  0.000000  0.000000 )  
               b(2) = (  0.000000  1.000000  0.000000 )  
               b(3) = (  0.000000  0.000000  1.000000 )  


     PseudoPot. # 1 for Al read from file:
     ../../pseudo/Al.pbe-n-rrkjus_psl.1.0.0.UPF
     MD5 check sum: bbe9f3f15d9b3b5ab9a58e4859ebdbfe
     Pseudo is Ultrasoft + core correction, Zval =  3.0
     Generated using &quot;atomic&quot; code by A. Dal Corso  v.6.3
     Using radial grid of 1135 points,  6 beta functions with: 
                l(1) =   0
                l(2) =   0
                l(3) =   1
                l(4) =   1
                l(5) =   2
                l(6) =   2
     Q(r) pseudized with 0 coefficients 


     PseudoPot. # 2 for Si read from file:
     ../../pseudo/Si.pbe-n-rrkjus_psl.1.0.0.UPF
     MD5 check sum: fa25574f73a70a4139f2adfbefec430c
     Pseudo is Ultrasoft + core correction, Zval =  4.0
     Generated using &quot;atomic&quot; code by A. Dal Corso  v.6.3
     Using radial grid of 1141 points,  6 beta functions with: 
                l(1) =   0
                l(2) =   0
                l(3) =   1
                l(4) =   1
                l(5) =   2
                l(6) =   2
     Q(r) pseudized with 0 coefficients 


     atomic species   valence    mass     pseudopotential
     Al                3.00    26.98154     Al( 1.00)
     Si                4.00    28.08500     Si( 1.00)

     48 Sym. Ops., with inversion, found



   Cartesian axes

     site n.     atom                  positions (alat units)
         1        Al     tau(   1) = (   0.0000000   0.0000000   0.0000000  )
         2        Si     tau(   2) = (   0.0000000   0.5000000   0.5000000  )
         3        Si     tau(   3) = (   0.5000000   0.0000000   0.5000000  )
         4        Si     tau(   4) = (   0.5000000   0.5000000   0.0000000  )

     number of k points=   286  Marzari-Vanderbilt smearing, width (Ry)=  0.0050

     Number of k-points >= 100: set verbosity='high' to print them.

     Dense  grid:   109127 G-vectors     FFT dimensions: (  60,  60,  60)

     Smooth grid:    25269 G-vectors     FFT dimensions: (  40,  40,  40)

     Estimated max dynamical RAM per process >     152.52 MB

     Estimated total dynamical RAM >     610.07 MB

     The initial density is read from file :
     ./tmp/alsi3-l12.save/charge-density

     Starting wfcs are   16 randomized atomic wfcs

     total cpu time spent up to now is        7.6 secs

     per-process dynamical memory:    79.6 Mb

     Self-consistent Calculation

     iteration #  1     ecut=    60.00 Ry     beta= 0.70
     CG style diagonalization
     ethr =  1.00E-06,  avg # of iterations = 21.1

     total cpu time spent up to now is      188.7 secs

     total energy              =     -39.19237553 Ry
     estimated scf accuracy    <       0.00001529 Ry

     iteration #  2     ecut=    60.00 Ry     beta= 0.70
     CG style diagonalization
     ethr =  1.02E-07,  avg # of iterations =  3.7

     total cpu time spent up to now is      219.3 secs

     total energy              =     -39.19238631 Ry
     estimated scf accuracy    <       0.00000432 Ry

     iteration #  3     ecut=    60.00 Ry     beta= 0.70
     CG style diagonalization
     ethr =  2.88E-08,  avg # of iterations =  3.1

     total cpu time spent up to now is      244.8 secs

     total energy              =     -39.19238728 Ry
     estimated scf accuracy    <       0.00000003 Ry

     iteration #  4     ecut=    60.00 Ry     beta= 0.70
     CG style diagonalization
     ethr =  1.68E-10,  avg # of iterations =  4.4

     total cpu time spent up to now is      280.8 secs

     total energy              =     -39.19238735 Ry
     estimated scf accuracy    <       0.00000002 Ry

     iteration #  5     ecut=    60.00 Ry     beta= 0.70
     CG style diagonalization
     ethr =  1.57E-10,  avg # of iterations =  3.5

     total cpu time spent up to now is      309.3 secs

     total energy              =     -39.19238736 Ry
     estimated scf accuracy    <       0.00000002 Ry

     iteration #  6     ecut=    60.00 Ry     beta= 0.70
     CG style diagonalization
     ethr =  1.37E-10,  avg # of iterations =  3.0

     total cpu time spent up to now is      333.9 secs

     total energy              =     -39.19238736 Ry
     estimated scf accuracy    <          1.2E-09 Ry

     iteration #  7     ecut=    60.00 Ry     beta= 0.70
     CG style diagonalization
     ethr =  8.28E-12,  avg # of iterations =  3.7

     total cpu time spent up to now is      364.1 secs

     End of self-consistent calculation

     Number of k-points >= 100: set verbosity='high' to print the bands.

     the Fermi energy is    10.0753 ev

!    total energy              =     -39.19238736 Ry
     estimated scf accuracy    <          1.6E-11 Ry
     smearing contrib. (-TS)   =       0.00001248 Ry
     internal energy E=F+TS    =     -39.19239984 Ry

     The total energy is F=E-TS. E is the sum of the following terms:
     one-electron contribution =      16.87499867 Ry
     hartree contribution      =       0.28590550 Ry
     xc contribution           =     -21.13818271 Ry
     ewald contribution        =     -35.21512132 Ry

     convergence has been achieved in   7 iterations

     Forces acting on atoms (cartesian axes, Ry/au):

     atom    1 type  1   force =     0.00000000    0.00000000    0.00000000
     atom    2 type  2   force =     0.00000000    0.00000000    0.00000000
     atom    3 type  2   force =     0.00000000    0.00000000    0.00000000
     atom    4 type  2   force =     0.00000000    0.00000000    0.00000000

     Total force =     0.000000     Total SCF correction =     0.000000


     Computing stress (Cartesian axis) and pressure

          total   stress  (Ry/bohr**3)                   (kbar)     P=       -1.19
  -0.00000811   0.00000000   0.00000000           -1.19        0.00        0.00
   0.00000000  -0.00000811   0.00000000            0.00       -1.19        0.00
   0.00000000   0.00000000  -0.00000811            0.00        0.00       -1.19


     Writing all to output data dir ./tmp/alsi3-l12.save/ :
     XML data file, charge density, pseudopotentials, collected wavefunctions

     init_run     :      6.95s CPU      7.30s WALL (       1 calls)
     electrons    :    343.30s CPU    356.48s WALL (       1 calls)
     forces       :      3.93s CPU      4.06s WALL (       1 calls)
     stress       :     15.23s CPU     15.63s WALL (       1 calls)

     Called by init_run:
     wfcinit      :      5.93s CPU      6.16s WALL (       1 calls)
     potinit      :      0.20s CPU      0.21s WALL (       1 calls)
     hinit0       :      0.50s CPU      0.50s WALL (       1 calls)

     Called by electrons:
     c_bands      :    325.35s CPU    336.79s WALL (       7 calls)
     sum_band     :     15.73s CPU     16.88s WALL (       7 calls)
     v_of_rho     :      0.35s CPU      0.37s WALL (       8 calls)
     newd         :      2.09s CPU      2.76s WALL (       8 calls)
     mix_rho      :      0.04s CPU      0.04s WALL (       7 calls)

     Called by c_bands:
     init_us_2    :      2.90s CPU      2.95s WALL (    4862 calls)
     ccgdiagg     :    295.68s CPU    306.09s WALL (    2002 calls)
     wfcrot       :     33.39s CPU     34.61s WALL (    2002 calls)

     Called by *cgdiagg:
     h_psi        :    190.05s CPU    198.83s WALL (  148749 calls)
     s_psi        :     66.30s CPU     67.94s WALL (  295496 calls)

     Called by h_psi:
     h_psi:calbec :     50.92s CPU     53.78s WALL (  148749 calls)
     vloc_psi     :     97.26s CPU    101.58s WALL (  148749 calls)
                                        0.00s GPU  (  148749 calls)
     add_vuspsi   :     40.07s CPU     41.71s WALL (  148749 calls)
     hs_1psi      :    199.37s CPU    208.08s WALL (  146747 calls)
     s_1psi       :     70.96s CPU     72.04s WALL (  146747 calls)

     General routines
     calbec       :    109.41s CPU    113.28s WALL (  302360 calls)
     fft          :      0.41s CPU      0.44s WALL (     127 calls)
     ffts         :      0.15s CPU      0.15s WALL (      15 calls)
     fftw         :     84.35s CPU     88.43s WALL (  378722 calls)
     interpolate  :      0.17s CPU      0.17s WALL (       8 calls)

     Parallel routines

     PWSCF        :   6m 9.94s CPU   6m24.20s WALL


   This run was terminated on:  23:10:13  22Sep2026            

=------------------------------------------------------------------------------=
   JOB DONE.
=------------------------------------------------------------------------------=
