
     Program PWSCF v.7.5 starts on 22Sep2026 at 23:58:13 

     This program is part of the open-source Quantum ESPRESSO suite
     for quantum simulation of materials; please cite
         "P. Giannozzi et al., J. Phys.:Condens. Matter 21 395502 (2009);
         "P. Giannozzi et al., J. Phys.:Condens. Matter 29 465901 (2017);
         "P. Giannozzi et al., J. Chem. Phys. 152 154105 (2020);
          URL http://www.quantum-espresso.org", 
     in publications or presentations arising from this work. More details at
     http://www.quantum-espresso.org/quote

     Parallel version (MPI), running on     8 processors

     MPI processes distributed on     1 nodes
     2614 MiB available memory on the printing compute node when the environment starts
 
     Reading input from mos2.bands.in

     Current dimensions of program PWSCF are:
     Max number of different atomic species (ntypx) = 10
     Max number of k-points (npk) =  40000
     Max angular momentum in pseudopotentials (lmaxx) =  4
     file Mo.pbe-spn-rrkjus_psl.1.0.0.UPF: wavefunction(s)  4S renormalized

     Atomic positions and unit cell read from directory:
     ./tmp/mos2.save/
 
 
     R & G space division:  proc/nbgrp/npool/nimage =       8
     Subspace diagonalization in iterative solution of the eigenvalue problem:
     a serial algorithm will be used

 
     Parallelization info
     --------------------
     sticks:   dense  smooth     PW     G-vecs:    dense   smooth      PW
     Min         148      74     22                30434    10762    1744
     Max         149      75     25                30463    10785    1753
     Sum        1189     595    187               243605    86143   13985
 
     Using Slab Decomposition
 


     bravais-lattice index     =            0
     lattice parameter (alat)  =       6.0145  a.u.
     unit-cell volume          =    1372.8624 (a.u.)^3
     number of atoms/cell      =            3
     number of atomic types    =            2
     number of electrons       =        26.00
     number of Kohn-Sham states=           16
     kinetic-energy cutoff     =      60.0000  Ry
     charge density cutoff     =     480.0000  Ry
     Exchange-correlation= PBE
                           (   1   4   3   4   0   0   0)

     celldm(1)=   6.014484  celldm(2)=   0.000000  celldm(3)=   0.000000
     celldm(4)=   0.000000  celldm(5)=   0.000000  celldm(6)=   0.000000

     crystal axes: (cart. coord. in units of alat)
               a(1) = (   1.000000   0.000000   0.000000 )  
               a(2) = (  -0.500000   0.866025   0.000000 )  
               a(3) = (   0.000000   0.000000   7.286202 )  

     reciprocal axes: (cart. coord. in units 2 pi/alat)
               b(1) = (  1.000000  0.577350  0.000000 )  
               b(2) = (  0.000000  1.154701  0.000000 )  
               b(3) = (  0.000000  0.000000  0.137246 )  


     PseudoPot. # 1 for Mo read from file:
     ../pseudo/Mo.pbe-spn-rrkjus_psl.1.0.0.UPF
     MD5 check sum: 03f09b12e49601d1a456a78ce8b2d514
     Pseudo is Ultrasoft + core correction, Zval = 14.0
     Generated using &quot;atomic&quot; code by A. Dal Corso  v.6.3
     Using radial grid of 1229 points,  6 beta functions with: 
                l(1) =   0
                l(2) =   0
                l(3) =   1
                l(4) =   1
                l(5) =   2
                l(6) =   2
     Q(r) pseudized with 0 coefficients 


     PseudoPot. # 2 for S  read from file:
     ../pseudo/S.pbe-n-rrkjus_psl.1.0.0.UPF
     MD5 check sum: 9d0fe39aa2a799ea84730884c9b010f4
     Pseudo is Ultrasoft + core correction, Zval =  6.0
     Generated using &quot;atomic&quot; code by A. Dal Corso  v.6.3
     Using radial grid of 1151 points,  6 beta functions with: 
                l(1) =   0
                l(2) =   0
                l(3) =   1
                l(4) =   1
                l(5) =   2
                l(6) =   2
     Q(r) pseudized with 0 coefficients 


     atomic species   valence    mass     pseudopotential
     Mo               14.00    95.95000     Mo( 1.00)
     S                 6.00    32.06000     S ( 1.00)

     No symmetry found


                                    s                        frac. trans.

      isym =  1     identity                                     

 cryst.   s( 1) = (     1          0          0      )
                  (     0          1          0      )
                  (     0          0          1      )

 cart.    s( 1) = (  1.0000000 -0.0000000  0.0000000 )
                  (  0.0000000  1.0000000  0.0000000 )
                  (  0.0000000  0.0000000  1.0000000 )


   Cartesian axes

     site n.     atom                  positions (alat units)
         1        Mo     tau(   1) = (   0.0000000   0.0000000   3.6431012  )
         2        S      tau(   2) = (   0.5000000   0.2886751   4.1347880  )
         3        S      tau(   3) = (   0.5000000   0.2886751   3.1514144  )

   Crystallographic axes

     site n.     atom                  positions (cryst. coord.)
         1        Mo     tau(   1) = (  0.0000000  0.0000000  0.5000000  )
         2        S      tau(   2) = (  0.6666667  0.3333333  0.5674819  )
         3        S      tau(   3) = (  0.6666667  0.3333333  0.4325181  )

     number of k points=    97
                       cart. coord. in units 2pi/alat
        k(    1) = (   0.3181369   0.5621539   0.0000000), wk =   0.0206186
        k(    2) = (   0.3181369   0.5672193   0.0000000), wk =   0.0206186
        k(    3) = (   0.3181369   0.5722848   0.0000000), wk =   0.0206186
        k(    4) = (   0.3181369   0.5773503   0.0000000), wk =   0.0206186
        k(    5) = (   0.3181369   0.5824157   0.0000000), wk =   0.0206186
        k(    6) = (   0.3181369   0.5874812   0.0000000), wk =   0.0206186
        k(    7) = (   0.3181369   0.5925467   0.0000000), wk =   0.0206186
        k(    8) = (   0.3232024   0.5621539   0.0000000), wk =   0.0206186
        k(    9) = (   0.3232024   0.5672193   0.0000000), wk =   0.0206186
        k(   10) = (   0.3232024   0.5722848   0.0000000), wk =   0.0206186
        k(   11) = (   0.3232024   0.5773503   0.0000000), wk =   0.0206186
        k(   12) = (   0.3232024   0.5824157   0.0000000), wk =   0.0206186
        k(   13) = (   0.3232024   0.5874812   0.0000000), wk =   0.0206186
        k(   14) = (   0.3232024   0.5925467   0.0000000), wk =   0.0206186
        k(   15) = (   0.3282679   0.5621539   0.0000000), wk =   0.0206186
        k(   16) = (   0.3282679   0.5672193   0.0000000), wk =   0.0206186
        k(   17) = (   0.3282679   0.5722848   0.0000000), wk =   0.0206186
        k(   18) = (   0.3282679   0.5773503   0.0000000), wk =   0.0206186
        k(   19) = (   0.3282679   0.5824157   0.0000000), wk =   0.0206186
        k(   20) = (   0.3282679   0.5874812   0.0000000), wk =   0.0206186
        k(   21) = (   0.3282679   0.5925467   0.0000000), wk =   0.0206186
        k(   22) = (   0.3333333   0.5621539   0.0000000), wk =   0.0206186
        k(   23) = (   0.3333333   0.5672193   0.0000000), wk =   0.0206186
        k(   24) = (   0.3333333   0.5722848   0.0000000), wk =   0.0206186
        k(   25) = (   0.3333333   0.5773503   0.0000000), wk =   0.0206186
        k(   26) = (   0.3333333   0.5824157   0.0000000), wk =   0.0206186
        k(   27) = (   0.3333333   0.5874812   0.0000000), wk =   0.0206186
        k(   28) = (   0.3333333   0.5925467   0.0000000), wk =   0.0206186
        k(   29) = (   0.3383988   0.5621539   0.0000000), wk =   0.0206186
        k(   30) = (   0.3383988   0.5672193   0.0000000), wk =   0.0206186
        k(   31) = (   0.3383988   0.5722848   0.0000000), wk =   0.0206186
        k(   32) = (   0.3383988   0.5773503   0.0000000), wk =   0.0206186
        k(   33) = (   0.3383988   0.5824157   0.0000000), wk =   0.0206186
        k(   34) = (   0.3383988   0.5874812   0.0000000), wk =   0.0206186
        k(   35) = (   0.3383988   0.5925467   0.0000000), wk =   0.0206186
        k(   36) = (   0.3434643   0.5621539   0.0000000), wk =   0.0206186
        k(   37) = (   0.3434643   0.5672193   0.0000000), wk =   0.0206186
        k(   38) = (   0.3434643   0.5722848   0.0000000), wk =   0.0206186
        k(   39) = (   0.3434643   0.5773503   0.0000000), wk =   0.0206186
        k(   40) = (   0.3434643   0.5824157   0.0000000), wk =   0.0206186
        k(   41) = (   0.3434643   0.5874812   0.0000000), wk =   0.0206186
        k(   42) = (   0.3434643   0.5925467   0.0000000), wk =   0.0206186
        k(   43) = (   0.3485297   0.5621539   0.0000000), wk =   0.0206186
        k(   44) = (   0.3485297   0.5672193   0.0000000), wk =   0.0206186
        k(   45) = (   0.3485297   0.5722848   0.0000000), wk =   0.0206186
        k(   46) = (   0.3485297   0.5773503   0.0000000), wk =   0.0206186
        k(   47) = (   0.3485297   0.5824157   0.0000000), wk =   0.0206186
        k(   48) = (   0.3485297   0.5874812   0.0000000), wk =   0.0206186
        k(   49) = (   0.3485297   0.5925467   0.0000000), wk =   0.0206186
        k(   50) = (   0.0000000   0.0000000   0.0000000), wk =   0.0206186
        k(   51) = (   0.5000000   0.2886751   0.0000000), wk =   0.0206186
        k(   52) = (  -0.3333333  -0.5773503   0.0000000), wk =   0.0206186
        k(   53) = (   0.0833333   0.1443376   0.0000000), wk =   0.0206186
        k(   54) = (   0.1000000   0.1732051   0.0000000), wk =   0.0206186
        k(   55) = (   0.1166667   0.2020726   0.0000000), wk =   0.0206186
        k(   56) = (   0.1333333   0.2309401   0.0000000), wk =   0.0206186
        k(   57) = (   0.1500000   0.2598076   0.0000000), wk =   0.0206186
        k(   58) = (   0.1666667   0.2886751   0.0000000), wk =   0.0206186
        k(   59) = (   0.1833333   0.3175426   0.0000000), wk =   0.0206186
        k(   60) = (   0.2000000   0.3464102   0.0000000), wk =   0.0206186
        k(   61) = (   0.2166667   0.3752777   0.0000000), wk =   0.0206186
        k(   62) = (   0.2333333   0.4041452   0.0000000), wk =   0.0206186
        k(   63) = (   0.2500000   0.4330127   0.0000000), wk =   0.0206186
        k(   64) = (   0.2666667   0.4618802   0.0000000), wk =   0.0206186
        k(   65) = (   0.2833333   0.4907477   0.0000000), wk =   0.0206186
        k(   66) = (   0.3000000   0.5196152   0.0000000), wk =   0.0206186
        k(   67) = (   0.3166667   0.5484828   0.0000000), wk =   0.0206186
        k(   68) = (  -0.1666667  -0.0000000   0.0000000), wk =   0.0206186
        k(   69) = (  -0.2000000  -0.0000000   0.0000000), wk =   0.0206186
        k(   70) = (  -0.2333333   0.0000000   0.0000000), wk =   0.0206186
        k(   71) = (  -0.2666667  -0.0000000   0.0000000), wk =   0.0206186
        k(   72) = (  -0.3000000  -0.0000000   0.0000000), wk =   0.0206186
        k(   73) = (  -0.3333333   0.0000000   0.0000000), wk =   0.0206186
        k(   74) = (  -0.3666667  -0.0000000   0.0000000), wk =   0.0206186
        k(   75) = (  -0.4000000  -0.0000000   0.0000000), wk =   0.0206186
        k(   76) = (  -0.4333333   0.0000000   0.0000000), wk =   0.0206186
        k(   77) = (  -0.4666667  -0.0000000   0.0000000), wk =   0.0206186
        k(   78) = (  -0.5000000  -0.0000000   0.0000000), wk =   0.0206186
        k(   79) = (  -0.5333333   0.0000000   0.0000000), wk =   0.0206186
        k(   80) = (  -0.5666667  -0.0000000   0.0000000), wk =   0.0206186
        k(   81) = (  -0.6000000  -0.0000000   0.0000000), wk =   0.0206186
        k(   82) = (  -0.6333333   0.0000000   0.0000000), wk =   0.0206186
        k(   83) = (   0.0833333  -0.1443376   0.0000000), wk =   0.0206186
        k(   84) = (   0.1000000  -0.1732051   0.0000000), wk =   0.0206186
        k(   85) = (   0.1166667  -0.2020726   0.0000000), wk =   0.0206186
        k(   86) = (   0.1333333  -0.2309401   0.0000000), wk =   0.0206186
        k(   87) = (   0.1500000  -0.2598076   0.0000000), wk =   0.0206186
        k(   88) = (   0.1666667  -0.2886751   0.0000000), wk =   0.0206186
        k(   89) = (   0.1833333  -0.3175426   0.0000000), wk =   0.0206186
        k(   90) = (   0.2000000  -0.3464102   0.0000000), wk =   0.0206186
        k(   91) = (   0.2166667  -0.3752777   0.0000000), wk =   0.0206186
        k(   92) = (   0.2333333  -0.4041452   0.0000000), wk =   0.0206186
        k(   93) = (   0.2500000  -0.4330127   0.0000000), wk =   0.0206186
        k(   94) = (   0.2666667  -0.4618802   0.0000000), wk =   0.0206186
        k(   95) = (   0.2833333  -0.4907477   0.0000000), wk =   0.0206186
        k(   96) = (   0.3000000  -0.5196152   0.0000000), wk =   0.0206186
        k(   97) = (   0.3166667  -0.5484828   0.0000000), wk =   0.0206186

                       cryst. coord.
        k(    1) = (   0.3181369   0.3277711   0.0000000), wk =   0.0206186
        k(    2) = (   0.3181369   0.3321579   0.0000000), wk =   0.0206186
        k(    3) = (   0.3181369   0.3365447   0.0000000), wk =   0.0206186
        k(    4) = (   0.3181369   0.3409315   0.0000000), wk =   0.0206186
        k(    5) = (   0.3181369   0.3453184   0.0000000), wk =   0.0206186
        k(    6) = (   0.3181369   0.3497052   0.0000000), wk =   0.0206186
        k(    7) = (   0.3181369   0.3540920   0.0000000), wk =   0.0206186
        k(    8) = (   0.3232024   0.3252383   0.0000000), wk =   0.0206186
        k(    9) = (   0.3232024   0.3296252   0.0000000), wk =   0.0206186
        k(   10) = (   0.3232024   0.3340120   0.0000000), wk =   0.0206186
        k(   11) = (   0.3232024   0.3383988   0.0000000), wk =   0.0206186
        k(   12) = (   0.3232024   0.3427856   0.0000000), wk =   0.0206186
        k(   13) = (   0.3232024   0.3471725   0.0000000), wk =   0.0206186
        k(   14) = (   0.3232024   0.3515593   0.0000000), wk =   0.0206186
        k(   15) = (   0.3282679   0.3227056   0.0000000), wk =   0.0206186
        k(   16) = (   0.3282679   0.3270924   0.0000000), wk =   0.0206186
        k(   17) = (   0.3282679   0.3314792   0.0000000), wk =   0.0206186
        k(   18) = (   0.3282679   0.3358661   0.0000000), wk =   0.0206186
        k(   19) = (   0.3282679   0.3402529   0.0000000), wk =   0.0206186
        k(   20) = (   0.3282679   0.3446397   0.0000000), wk =   0.0206186
        k(   21) = (   0.3282679   0.3490265   0.0000000), wk =   0.0206186
        k(   22) = (   0.3333333   0.3201729   0.0000000), wk =   0.0206186
        k(   23) = (   0.3333333   0.3245597   0.0000000), wk =   0.0206186
        k(   24) = (   0.3333333   0.3289465   0.0000000), wk =   0.0206186
        k(   25) = (   0.3333333   0.3333333   0.0000000), wk =   0.0206186
        k(   26) = (   0.3333333   0.3377202   0.0000000), wk =   0.0206186
        k(   27) = (   0.3333333   0.3421070   0.0000000), wk =   0.0206186
        k(   28) = (   0.3333333   0.3464938   0.0000000), wk =   0.0206186
        k(   29) = (   0.3383988   0.3176401   0.0000000), wk =   0.0206186
        k(   30) = (   0.3383988   0.3220269   0.0000000), wk =   0.0206186
        k(   31) = (   0.3383988   0.3264138   0.0000000), wk =   0.0206186
        k(   32) = (   0.3383988   0.3308006   0.0000000), wk =   0.0206186
        k(   33) = (   0.3383988   0.3351874   0.0000000), wk =   0.0206186
        k(   34) = (   0.3383988   0.3395742   0.0000000), wk =   0.0206186
        k(   35) = (   0.3383988   0.3439611   0.0000000), wk =   0.0206186
        k(   36) = (   0.3434643   0.3151074   0.0000000), wk =   0.0206186
        k(   37) = (   0.3434643   0.3194942   0.0000000), wk =   0.0206186
        k(   38) = (   0.3434643   0.3238810   0.0000000), wk =   0.0206186
        k(   39) = (   0.3434643   0.3282679   0.0000000), wk =   0.0206186
        k(   40) = (   0.3434643   0.3326547   0.0000000), wk =   0.0206186
        k(   41) = (   0.3434643   0.3370415   0.0000000), wk =   0.0206186
        k(   42) = (   0.3434643   0.3414283   0.0000000), wk =   0.0206186
        k(   43) = (   0.3485297   0.3125747   0.0000000), wk =   0.0206186
        k(   44) = (   0.3485297   0.3169615   0.0000000), wk =   0.0206186
        k(   45) = (   0.3485297   0.3213483   0.0000000), wk =   0.0206186
        k(   46) = (   0.3485297   0.3257351   0.0000000), wk =   0.0206186
        k(   47) = (   0.3485297   0.3301220   0.0000000), wk =   0.0206186
        k(   48) = (   0.3485297   0.3345088   0.0000000), wk =   0.0206186
        k(   49) = (   0.3485297   0.3388956   0.0000000), wk =   0.0206186
        k(   50) = (   0.0000000   0.0000000   0.0000000), wk =   0.0206186
        k(   51) = (   0.5000000   0.0000000   0.0000000), wk =   0.0206186
        k(   52) = (  -0.3333333  -0.3333333   0.0000000), wk =   0.0206186
        k(   53) = (   0.0833333   0.0833333   0.0000000), wk =   0.0206186
        k(   54) = (   0.1000000   0.1000000   0.0000000), wk =   0.0206186
        k(   55) = (   0.1166667   0.1166667   0.0000000), wk =   0.0206186
        k(   56) = (   0.1333333   0.1333333   0.0000000), wk =   0.0206186
        k(   57) = (   0.1500000   0.1500000   0.0000000), wk =   0.0206186
        k(   58) = (   0.1666667   0.1666667   0.0000000), wk =   0.0206186
        k(   59) = (   0.1833333   0.1833333   0.0000000), wk =   0.0206186
        k(   60) = (   0.2000000   0.2000000   0.0000000), wk =   0.0206186
        k(   61) = (   0.2166667   0.2166667   0.0000000), wk =   0.0206186
        k(   62) = (   0.2333333   0.2333333   0.0000000), wk =   0.0206186
        k(   63) = (   0.2500000   0.2500000   0.0000000), wk =   0.0206186
        k(   64) = (   0.2666667   0.2666667   0.0000000), wk =   0.0206186
        k(   65) = (   0.2833333   0.2833333   0.0000000), wk =   0.0206186
        k(   66) = (   0.3000000   0.3000000   0.0000000), wk =   0.0206186
        k(   67) = (   0.3166667   0.3166667   0.0000000), wk =   0.0206186
        k(   68) = (  -0.1666667   0.0833333   0.0000000), wk =   0.0206186
        k(   69) = (  -0.2000000   0.1000000   0.0000000), wk =   0.0206186
        k(   70) = (  -0.2333333   0.1166667   0.0000000), wk =   0.0206186
        k(   71) = (  -0.2666667   0.1333333   0.0000000), wk =   0.0206186
        k(   72) = (  -0.3000000   0.1500000   0.0000000), wk =   0.0206186
        k(   73) = (  -0.3333333   0.1666667   0.0000000), wk =   0.0206186
        k(   74) = (  -0.3666667   0.1833333   0.0000000), wk =   0.0206186
        k(   75) = (  -0.4000000   0.2000000   0.0000000), wk =   0.0206186
        k(   76) = (  -0.4333333   0.2166667   0.0000000), wk =   0.0206186
        k(   77) = (  -0.4666667   0.2333333   0.0000000), wk =   0.0206186
        k(   78) = (  -0.5000000   0.2500000   0.0000000), wk =   0.0206186
        k(   79) = (  -0.5333333   0.2666667   0.0000000), wk =   0.0206186
        k(   80) = (  -0.5666667   0.2833333   0.0000000), wk =   0.0206186
        k(   81) = (  -0.6000000   0.3000000   0.0000000), wk =   0.0206186
        k(   82) = (  -0.6333333   0.3166667   0.0000000), wk =   0.0206186
        k(   83) = (   0.0833333  -0.1666667   0.0000000), wk =   0.0206186
        k(   84) = (   0.1000000  -0.2000000   0.0000000), wk =   0.0206186
        k(   85) = (   0.1166667  -0.2333333   0.0000000), wk =   0.0206186
        k(   86) = (   0.1333333  -0.2666667   0.0000000), wk =   0.0206186
        k(   87) = (   0.1500000  -0.3000000   0.0000000), wk =   0.0206186
        k(   88) = (   0.1666667  -0.3333333   0.0000000), wk =   0.0206186
        k(   89) = (   0.1833333  -0.3666667   0.0000000), wk =   0.0206186
        k(   90) = (   0.2000000  -0.4000000   0.0000000), wk =   0.0206186
        k(   91) = (   0.2166667  -0.4333333   0.0000000), wk =   0.0206186
        k(   92) = (   0.2333333  -0.4666667   0.0000000), wk =   0.0206186
        k(   93) = (   0.2500000  -0.5000000   0.0000000), wk =   0.0206186
        k(   94) = (   0.2666667  -0.5333333   0.0000000), wk =   0.0206186
        k(   95) = (   0.2833333  -0.5666667   0.0000000), wk =   0.0206186
        k(   96) = (   0.3000000  -0.6000000   0.0000000), wk =   0.0206186
        k(   97) = (   0.3166667  -0.6333333   0.0000000), wk =   0.0206186

     Dense  grid:   243605 G-vectors     FFT dimensions: (  45,  45, 320)

     Smooth grid:    86143 G-vectors     FFT dimensions: (  30,  30, 225)

     Dynamical RAM for                 wfc:       0.33 MB

     Dynamical RAM for     wfc (w. buffer):       0.33 MB

     Dynamical RAM for           str. fact:       0.93 MB

     Dynamical RAM for           local pot:       0.00 MB

     Dynamical RAM for          nlocal pot:       1.11 MB

     Dynamical RAM for                qrad:       3.52 MB

     Dynamical RAM for          rho,v,vnew:       3.25 MB

     Dynamical RAM for           G-vectors:       1.83 MB

     Dynamical RAM for          h,s,v(r/c):       0.01 MB

     Dynamical RAM for          <psi|beta>:       0.01 MB

     Dynamical RAM for      wfcinit/wfcrot:       0.66 MB

     Dynamical RAM for           addusdens:      87.38 MB

     Estimated static dynamical RAM per process >      15.44 MB

     Estimated max dynamical RAM per process >     102.82 MB

     Estimated total dynamical RAM >     822.58 MB

     The potential is recalculated from file :
     ./tmp/mos2.save/charge-density


     negative rho (up, down):  3.851E-04 0.000E+00
     Starting wfcs are   18 randomized atomic wfcs

     Band Structure Calculation
     CG style diagonalization

     Computing kpt #:     1  of    97
     total cpu time spent up to now is        2.6 secs

     Computing kpt #:     2  of    97
     total cpu time spent up to now is        3.8 secs

     Computing kpt #:     3  of    97
     total cpu time spent up to now is        5.3 secs

     Computing kpt #:     4  of    97
     total cpu time spent up to now is        6.6 secs

     Computing kpt #:     5  of    97
     total cpu time spent up to now is        8.0 secs

     Computing kpt #:     6  of    97
     total cpu time spent up to now is        9.4 secs

     Computing kpt #:     7  of    97
     total cpu time spent up to now is       10.8 secs

     Computing kpt #:     8  of    97
     total cpu time spent up to now is       12.0 secs

     Computing kpt #:     9  of    97
     total cpu time spent up to now is       13.4 secs

     Computing kpt #:    10  of    97
     total cpu time spent up to now is       14.6 secs

     Computing kpt #:    11  of    97
     total cpu time spent up to now is       15.9 secs

     Computing kpt #:    12  of    97
     total cpu time spent up to now is       17.2 secs

     Computing kpt #:    13  of    97
     total cpu time spent up to now is       18.4 secs

     Computing kpt #:    14  of    97
     total cpu time spent up to now is       19.7 secs

     Computing kpt #:    15  of    97
     total cpu time spent up to now is       21.1 secs

     Computing kpt #:    16  of    97
     total cpu time spent up to now is       22.3 secs

     Computing kpt #:    17  of    97
     total cpu time spent up to now is       23.5 secs

     Computing kpt #:    18  of    97
     total cpu time spent up to now is       24.9 secs

     Computing kpt #:    19  of    97
     total cpu time spent up to now is       26.1 secs

     Computing kpt #:    20  of    97
     total cpu time spent up to now is       27.2 secs

     Computing kpt #:    21  of    97
     total cpu time spent up to now is       28.5 secs

     Computing kpt #:    22  of    97
     total cpu time spent up to now is       29.9 secs

     Computing kpt #:    23  of    97
     total cpu time spent up to now is       31.2 secs

     Computing kpt #:    24  of    97
     total cpu time spent up to now is       32.4 secs

     Computing kpt #:    25  of    97
     total cpu time spent up to now is       33.5 secs

     Computing kpt #:    26  of    97
     total cpu time spent up to now is       34.7 secs

     Computing kpt #:    27  of    97
     total cpu time spent up to now is       36.0 secs

     Computing kpt #:    28  of    97
     total cpu time spent up to now is       37.3 secs

     Computing kpt #:    29  of    97
     total cpu time spent up to now is       38.6 secs

     Computing kpt #:    30  of    97
     total cpu time spent up to now is       40.0 secs

     Computing kpt #:    31  of    97
     total cpu time spent up to now is       41.3 secs

     Computing kpt #:    32  of    97
     total cpu time spent up to now is       42.6 secs

     Computing kpt #:    33  of    97
     total cpu time spent up to now is       44.1 secs

     Computing kpt #:    34  of    97
     total cpu time spent up to now is       45.4 secs

     Computing kpt #:    35  of    97
     total cpu time spent up to now is       47.0 secs

     Computing kpt #:    36  of    97
     total cpu time spent up to now is       48.2 secs

     Computing kpt #:    37  of    97
     total cpu time spent up to now is       49.4 secs

     Computing kpt #:    38  of    97
     total cpu time spent up to now is       50.6 secs

     Computing kpt #:    39  of    97
     total cpu time spent up to now is       51.9 secs

     Computing kpt #:    40  of    97
     total cpu time spent up to now is       53.1 secs

     Computing kpt #:    41  of    97
     total cpu time spent up to now is       54.4 secs

     Computing kpt #:    42  of    97
     total cpu time spent up to now is       55.9 secs

     Computing kpt #:    43  of    97
     total cpu time spent up to now is       57.2 secs

     Computing kpt #:    44  of    97
     total cpu time spent up to now is       58.4 secs

     Computing kpt #:    45  of    97
     total cpu time spent up to now is       59.6 secs

     Computing kpt #:    46  of    97
     total cpu time spent up to now is       60.9 secs

     Computing kpt #:    47  of    97
     total cpu time spent up to now is       62.3 secs

     Computing kpt #:    48  of    97
     total cpu time spent up to now is       63.5 secs

     Computing kpt #:    49  of    97
     total cpu time spent up to now is       64.9 secs

     Computing kpt #:    50  of    97
     total cpu time spent up to now is       66.1 secs

     Computing kpt #:    51  of    97
     total cpu time spent up to now is       67.4 secs

     Computing kpt #:    52  of    97
     total cpu time spent up to now is       68.7 secs

     Computing kpt #:    53  of    97
     total cpu time spent up to now is       70.3 secs

     Computing kpt #:    54  of    97
     total cpu time spent up to now is       71.6 secs

     Computing kpt #:    55  of    97
     total cpu time spent up to now is       73.0 secs

     Computing kpt #:    56  of    97
     total cpu time spent up to now is       74.5 secs

     Computing kpt #:    57  of    97
     total cpu time spent up to now is       75.8 secs

     Computing kpt #:    58  of    97
     total cpu time spent up to now is       77.1 secs

     Computing kpt #:    59  of    97
     total cpu time spent up to now is       78.4 secs

     Computing kpt #:    60  of    97
     total cpu time spent up to now is       79.5 secs

     Computing kpt #:    61  of    97
     total cpu time spent up to now is       80.6 secs

     Computing kpt #:    62  of    97
     total cpu time spent up to now is       81.7 secs

     Computing kpt #:    63  of    97
     total cpu time spent up to now is       83.1 secs

     Computing kpt #:    64  of    97
     total cpu time spent up to now is       85.1 secs

     Computing kpt #:    65  of    97
     total cpu time spent up to now is       86.8 secs

     Computing kpt #:    66  of    97
     total cpu time spent up to now is       88.4 secs

     Computing kpt #:    67  of    97
     total cpu time spent up to now is       89.9 secs

     Computing kpt #:    68  of    97
     total cpu time spent up to now is       91.6 secs

     Computing kpt #:    69  of    97
     total cpu time spent up to now is       93.1 secs

     Computing kpt #:    70  of    97
     total cpu time spent up to now is       95.1 secs

     Computing kpt #:    71  of    97
     total cpu time spent up to now is       96.6 secs

     Computing kpt #:    72  of    97
     total cpu time spent up to now is       98.0 secs

     Computing kpt #:    73  of    97
     total cpu time spent up to now is       99.6 secs

     Computing kpt #:    74  of    97
     total cpu time spent up to now is      101.0 secs

     Computing kpt #:    75  of    97
     total cpu time spent up to now is      102.3 secs

     Computing kpt #:    76  of    97
     total cpu time spent up to now is      103.8 secs

     Computing kpt #:    77  of    97
     total cpu time spent up to now is      105.1 secs

     Computing kpt #:    78  of    97
     total cpu time spent up to now is      106.3 secs

     Computing kpt #:    79  of    97
     total cpu time spent up to now is      107.7 secs

     Computing kpt #:    80  of    97
     total cpu time spent up to now is      109.3 secs

     Computing kpt #:    81  of    97
     total cpu time spent up to now is      110.7 secs

     Computing kpt #:    82  of    97
     total cpu time spent up to now is      112.1 secs

     Computing kpt #:    83  of    97
     total cpu time spent up to now is      113.3 secs

     Computing kpt #:    84  of    97
     total cpu time spent up to now is      114.7 secs

     Computing kpt #:    85  of    97
     total cpu time spent up to now is      116.1 secs

     Computing kpt #:    86  of    97
     total cpu time spent up to now is      117.5 secs

     Computing kpt #:    87  of    97
     total cpu time spent up to now is      118.9 secs

     Computing kpt #:    88  of    97
     total cpu time spent up to now is      120.1 secs

     Computing kpt #:    89  of    97
     total cpu time spent up to now is      121.4 secs

     Computing kpt #:    90  of    97
     total cpu time spent up to now is      122.7 secs

     Computing kpt #:    91  of    97
     total cpu time spent up to now is      123.9 secs

     Computing kpt #:    92  of    97
     total cpu time spent up to now is      125.2 secs

     Computing kpt #:    93  of    97
     total cpu time spent up to now is      126.5 secs

     Computing kpt #:    94  of    97
     total cpu time spent up to now is      128.1 secs

     Computing kpt #:    95  of    97
     total cpu time spent up to now is      129.8 secs

     Computing kpt #:    96  of    97
     total cpu time spent up to now is      131.3 secs

     Computing kpt #:    97  of    97
     total cpu time spent up to now is      132.8 secs

     ethr =  1.00E-10,  avg # of iterations = 34.2

     total cpu time spent up to now is      132.8 secs

     End of band structure calculation

          k = 0.3181 0.5622 0.0000 ( 10708 PWs)   bands (ev):

   -62.4937 -36.7522 -36.7034 -36.5937 -13.6017 -13.5243  -7.0307  -6.2652
    -5.6688  -5.1877  -4.5334  -3.7912  -1.6770   0.0373   1.4031   1.8645

          k = 0.3181 0.5672 0.0000 ( 10706 PWs)   bands (ev):

   -62.4937 -36.7515 -36.7043 -36.5937 -13.6005 -13.5237  -7.0329  -6.2552
    -5.6797  -5.1898  -4.5302  -3.7949  -1.6734   0.0330   1.4020   1.8687

          k = 0.3181 0.5723 0.0000 ( 10702 PWs)   bands (ev):

   -62.4937 -36.7511 -36.7048 -36.5936 -13.5998 -13.5233  -7.0342  -6.2489
    -5.6865  -5.1910  -4.5283  -3.7971  -1.6712   0.0304   1.4014   1.8713

          k = 0.3181 0.5774 0.0000 ( 10704 PWs)   bands (ev):

   -62.4937 -36.7509 -36.7050 -36.5936 -13.5995 -13.5232  -7.0346  -6.2468
    -5.6888  -5.1914  -4.5277  -3.7979  -1.6705   0.0296   1.4011   1.8721

          k = 0.3181 0.5824 0.0000 ( 10702 PWs)   bands (ev):

   -62.4937 -36.7511 -36.7048 -36.5936 -13.5998 -13.5233  -7.0342  -6.2489
    -5.6865  -5.1910  -4.5283  -3.7971  -1.6712   0.0304   1.4014   1.8713

          k = 0.3181 0.5875 0.0000 ( 10706 PWs)   bands (ev):

   -62.4937 -36.7515 -36.7043 -36.5937 -13.6005 -13.5237  -7.0329  -6.2552
    -5.6797  -5.1898  -4.5302  -3.7949  -1.6734   0.0330   1.4020   1.8687

          k = 0.3181 0.5925 0.0000 ( 10708 PWs)   bands (ev):

   -62.4937 -36.7522 -36.7034 -36.5937 -13.6017 -13.5243  -7.0307  -6.2652
    -5.6688  -5.1877  -4.5334  -3.7912  -1.6770   0.0373   1.4031   1.8645

          k = 0.3232 0.5622 0.0000 ( 10702 PWs)   bands (ev):

   -62.4937 -36.7514 -36.7043 -36.5937 -13.6006 -13.5237  -7.0328  -6.2549
    -5.6789  -5.1908  -4.5304  -3.7946  -1.6736   0.0332   1.4018   1.8685

          k = 0.3232 0.5672 0.0000 ( 10699 PWs)   bands (ev):

   -62.4936 -36.7507 -36.7053 -36.5936 -13.5994 -13.5231  -7.0349  -6.2443
    -5.6900  -5.1932  -4.5273  -3.7983  -1.6701   0.0289   1.4006   1.8726

          k = 0.3232 0.5723 0.0000 ( 10698 PWs)   bands (ev):

   -62.4936 -36.7502 -36.7059 -36.5936 -13.5987 -13.5227  -7.0362  -6.2377
    -5.6969  -5.1946  -4.5254  -3.8005  -1.6680   0.0263   1.3999   1.8751

          k = 0.3232 0.5774 0.0000 ( 10696 PWs)   bands (ev):

   -62.4936 -36.7501 -36.7061 -36.5936 -13.5985 -13.5226  -7.0367  -6.2354
    -5.6993  -5.1951  -4.5247  -3.8012  -1.6673   0.0255   1.3996   1.8759

          k = 0.3232 0.5824 0.0000 ( 10698 PWs)   bands (ev):

   -62.4936 -36.7502 -36.7059 -36.5936 -13.5987 -13.5227  -7.0362  -6.2377
    -5.6969  -5.1946  -4.5254  -3.8005  -1.6680   0.0263   1.3999   1.8751

          k = 0.3232 0.5875 0.0000 ( 10699 PWs)   bands (ev):

   -62.4936 -36.7507 -36.7053 -36.5936 -13.5994 -13.5231  -7.0349  -6.2443
    -5.6900  -5.1932  -4.5273  -3.7983  -1.6701   0.0289   1.4006   1.8726

          k = 0.3232 0.5925 0.0000 ( 10702 PWs)   bands (ev):

   -62.4937 -36.7514 -36.7043 -36.5937 -13.6006 -13.5237  -7.0328  -6.2549
    -5.6789  -5.1908  -4.5304  -3.7946  -1.6736   0.0332   1.4018   1.8685

          k = 0.3283 0.5622 0.0000 ( 10697 PWs)   bands (ev):

   -62.4937 -36.7510 -36.7049 -36.5936 -13.5999 -13.5233  -7.0341  -6.2486
    -5.6855  -5.1922  -4.5285  -3.7968  -1.6715   0.0306   1.4011   1.8710

          k = 0.3283 0.5672 0.0000 ( 10694 PWs)   bands (ev):

   -62.4936 -36.7502 -36.7059 -36.5936 -13.5987 -13.5227  -7.0362  -6.2376
    -5.6966  -5.1950  -4.5254  -3.8004  -1.6681   0.0264   1.3998   1.8750

          k = 0.3283 0.5723 0.0000 ( 10700 PWs)   bands (ev):

   -62.4936 -36.7497 -36.7065 -36.5936 -13.5981 -13.5224  -7.0375  -6.2307
    -5.7036  -5.1966  -4.5235  -3.8025  -1.6660   0.0239   1.3990   1.8774

          k = 0.3283 0.5774 0.0000 ( 10698 PWs)   bands (ev):

   -62.4936 -36.7496 -36.7067 -36.5936 -13.5978 -13.5223  -7.0379  -6.2284
    -5.7060  -5.1972  -4.5229  -3.8033  -1.6653   0.0230   1.3988   1.8782

          k = 0.3283 0.5824 0.0000 ( 10700 PWs)   bands (ev):

   -62.4936 -36.7497 -36.7065 -36.5936 -13.5981 -13.5224  -7.0375  -6.2307
    -5.7036  -5.1966  -4.5235  -3.8025  -1.6660   0.0239   1.3990   1.8774

          k = 0.3283 0.5875 0.0000 ( 10694 PWs)   bands (ev):

   -62.4936 -36.7502 -36.7059 -36.5936 -13.5987 -13.5227  -7.0362  -6.2376
    -5.6966  -5.1950  -4.5254  -3.8004  -1.6681   0.0264   1.3998   1.8750

          k = 0.3283 0.5925 0.0000 ( 10697 PWs)   bands (ev):

   -62.4937 -36.7510 -36.7049 -36.5936 -13.5999 -13.5233  -7.0341  -6.2486
    -5.6855  -5.1922  -4.5285  -3.7968  -1.6715   0.0306   1.4011   1.8710

          k = 0.3333 0.5622 0.0000 ( 10702 PWs)   bands (ev):

   -62.4937 -36.7509 -36.7050 -36.5936 -13.5996 -13.5232  -7.0345  -6.2466
    -5.6882  -5.1921  -4.5278  -3.7977  -1.6707   0.0297   1.4010   1.8719

          k = 0.3333 0.5672 0.0000 ( 10697 PWs)   bands (ev):

   -62.4936 -36.7501 -36.7061 -36.5936 -13.5985 -13.5226  -7.0366  -6.2354
    -5.6991  -5.1953  -4.5248  -3.8012  -1.6673   0.0255   1.3996   1.8758

          k = 0.3333 0.5723 0.0000 ( 10700 PWs)   bands (ev):

   -62.4936 -36.7496 -36.7067 -36.5936 -13.5978 -13.5223  -7.0379  -6.2284
    -5.7060  -5.1972  -4.5229  -3.8033  -1.6653   0.0230   1.3988   1.8782

          k = 0.3333 0.5774 0.0000 ( 10692 PWs)   bands (ev):

   -62.4936 -36.7494 -36.7069 -36.5936 -13.5976 -13.5221  -7.0383  -6.2260
    -5.7083  -5.1978  -4.5223  -3.8040  -1.6646   0.0222   1.3985   1.8790

          k = 0.3333 0.5824 0.0000 ( 10700 PWs)   bands (ev):

   -62.4936 -36.7496 -36.7067 -36.5936 -13.5978 -13.5223  -7.0379  -6.2284
    -5.7060  -5.1972  -4.5229  -3.8033  -1.6653   0.0230   1.3988   1.8782

          k = 0.3333 0.5875 0.0000 ( 10697 PWs)   bands (ev):

   -62.4936 -36.7501 -36.7061 -36.5936 -13.5985 -13.5226  -7.0366  -6.2354
    -5.6991  -5.1953  -4.5248  -3.8012  -1.6673   0.0255   1.3996   1.8758

          k = 0.3333 0.5925 0.0000 ( 10702 PWs)   bands (ev):

   -62.4937 -36.7509 -36.7050 -36.5936 -13.5996 -13.5232  -7.0345  -6.2466
    -5.6882  -5.1921  -4.5278  -3.7977  -1.6707   0.0297   1.4010   1.8719

          k = 0.3384 0.5622 0.0000 ( 10704 PWs)   bands (ev):

   -62.4937 -36.7511 -36.7048 -36.5936 -13.5998 -13.5233  -7.0342  -6.2490
    -5.6866  -5.1908  -4.5283  -3.7972  -1.6712   0.0304   1.4014   1.8713

          k = 0.3384 0.5672 0.0000 ( 10700 PWs)   bands (ev):

   -62.4936 -36.7503 -36.7058 -36.5936 -13.5987 -13.5227  -7.0362  -6.2378
    -5.6971  -5.1944  -4.5253  -3.8005  -1.6679   0.0263   1.3999   1.8751

          k = 0.3384 0.5723 0.0000 ( 10696 PWs)   bands (ev):

   -62.4936 -36.7497 -36.7065 -36.5936 -13.5980 -13.5224  -7.0375  -6.2307
    -5.7037  -5.1965  -4.5235  -3.8026  -1.6660   0.0238   1.3990   1.8774

          k = 0.3384 0.5774 0.0000 ( 10702 PWs)   bands (ev):

   -62.4936 -36.7496 -36.7067 -36.5936 -13.5978 -13.5223  -7.0379  -6.2284
    -5.7059  -5.1972  -4.5229  -3.8033  -1.6653   0.0230   1.3988   1.8782

          k = 0.3384 0.5824 0.0000 ( 10696 PWs)   bands (ev):

   -62.4936 -36.7497 -36.7065 -36.5936 -13.5980 -13.5224  -7.0375  -6.2307
    -5.7037  -5.1965  -4.5235  -3.8026  -1.6660   0.0238   1.3990   1.8774

          k = 0.3384 0.5875 0.0000 ( 10700 PWs)   bands (ev):

   -62.4936 -36.7503 -36.7058 -36.5936 -13.5987 -13.5227  -7.0362  -6.2378
    -5.6971  -5.1944  -4.5253  -3.8005  -1.6679   0.0263   1.3999   1.8751

          k = 0.3384 0.5925 0.0000 ( 10704 PWs)   bands (ev):

   -62.4937 -36.7511 -36.7048 -36.5936 -13.5998 -13.5233  -7.0342  -6.2490
    -5.6866  -5.1908  -4.5283  -3.7972  -1.6712   0.0304   1.4014   1.8713

          k = 0.3435 0.5622 0.0000 ( 10704 PWs)   bands (ev):

   -62.4937 -36.7516 -36.7042 -36.5937 -13.6004 -13.5236  -7.0330  -6.2555
    -5.6809  -5.1883  -4.5300  -3.7953  -1.6730   0.0328   1.4024   1.8691

          k = 0.3435 0.5672 0.0000 ( 10702 PWs)   bands (ev):

   -62.4937 -36.7508 -36.7052 -36.5936 -13.5993 -13.5231  -7.0350  -6.2445
    -5.6907  -5.1923  -4.5271  -3.7985  -1.6699   0.0288   1.4008   1.8728

          k = 0.3435 0.5723 0.0000 ( 10699 PWs)   bands (ev):

   -62.4936 -36.7502 -36.7059 -36.5936 -13.5987 -13.5227  -7.0362  -6.2377
    -5.6968  -5.1947  -4.5254  -3.8005  -1.6680   0.0264   1.3999   1.8750

          k = 0.3435 0.5774 0.0000 ( 10694 PWs)   bands (ev):

   -62.4936 -36.7501 -36.7061 -36.5936 -13.5985 -13.5226  -7.0366  -6.2353
    -5.6989  -5.1955  -4.5248  -3.8011  -1.6674   0.0256   1.3995   1.8758

          k = 0.3435 0.5824 0.0000 ( 10699 PWs)   bands (ev):

   -62.4936 -36.7502 -36.7059 -36.5936 -13.5987 -13.5227  -7.0362  -6.2377
    -5.6968  -5.1947  -4.5254  -3.8005  -1.6680   0.0264   1.3999   1.8750

          k = 0.3435 0.5875 0.0000 ( 10702 PWs)   bands (ev):

   -62.4937 -36.7508 -36.7052 -36.5936 -13.5993 -13.5231  -7.0350  -6.2445
    -5.6907  -5.1923  -4.5271  -3.7985  -1.6699   0.0288   1.4008   1.8728

          k = 0.3435 0.5925 0.0000 ( 10704 PWs)   bands (ev):

   -62.4937 -36.7516 -36.7042 -36.5937 -13.6004 -13.5236  -7.0330  -6.2555
    -5.6809  -5.1883  -4.5300  -3.7953  -1.6730   0.0328   1.4024   1.8691

          k = 0.3485 0.5622 0.0000 ( 10712 PWs)   bands (ev):

   -62.4937 -36.7524 -36.7032 -36.5937 -13.6014 -13.5242  -7.0309  -6.2659
    -5.6712  -5.1847  -4.5329  -3.7920  -1.6763   0.0369   1.4038   1.8653

          k = 0.3485 0.5672 0.0000 ( 10706 PWs)   bands (ev):

   -62.4937 -36.7515 -36.7042 -36.5937 -13.6005 -13.5237  -7.0329  -6.2553
    -5.6801  -5.1893  -4.5301  -3.7950  -1.6733   0.0330   1.4021   1.8689

          k = 0.3485 0.5723 0.0000 ( 10700 PWs)   bands (ev):

   -62.4937 -36.7510 -36.7049 -36.5936 -13.5999 -13.5233  -7.0341  -6.2487
    -5.6857  -5.1920  -4.5285  -3.7969  -1.6715   0.0306   1.4011   1.8710

          k = 0.3485 0.5774 0.0000 ( 10696 PWs)   bands (ev):

   -62.4936 -36.7508 -36.7051 -36.5936 -13.5997 -13.5232  -7.0345  -6.2464
    -5.6876  -5.1929  -4.5279  -3.7975  -1.6708   0.0298   1.4008   1.8717

          k = 0.3485 0.5824 0.0000 ( 10700 PWs)   bands (ev):

   -62.4937 -36.7510 -36.7049 -36.5936 -13.5999 -13.5233  -7.0341  -6.2487
    -5.6857  -5.1920  -4.5285  -3.7969  -1.6715   0.0306   1.4011   1.8710

          k = 0.3485 0.5875 0.0000 ( 10706 PWs)   bands (ev):

   -62.4937 -36.7515 -36.7042 -36.5937 -13.6005 -13.5237  -7.0329  -6.2553
    -5.6801  -5.1893  -4.5301  -3.7950  -1.6733   0.0330   1.4021   1.8689

          k = 0.3485 0.5925 0.0000 ( 10712 PWs)   bands (ev):

   -62.4937 -36.7524 -36.7032 -36.5937 -13.6014 -13.5242  -7.0309  -6.2659
    -5.6712  -5.1847  -4.5329  -3.7920  -1.6763   0.0369   1.4038   1.8653

          k = 0.0000 0.0000 0.0000 ( 10831 PWs)   bands (ev):

   -62.5359 -36.6775 -36.4709 -36.4709 -15.7277 -14.4311  -7.2501  -4.2475
    -4.2475  -3.4264  -3.1431  -3.1431  -1.6623   1.1099   1.1099   1.3504

          k = 0.5000 0.2887 0.0000 ( 10724 PWs)   bands (ev):

   -62.4983 -36.8404 -36.6029 -36.5565 -13.8629 -13.6815  -7.4062  -6.4254
    -5.7064  -4.8005  -3.5241  -2.6204  -2.2840   0.5910   1.0990   2.2123

          k =-0.3333-0.5774 0.0000 ( 10692 PWs)   bands (ev):

   -62.4936 -36.7494 -36.7069 -36.5936 -13.5976 -13.5221  -7.0383  -6.2260
    -5.7083  -5.1978  -4.5223  -3.8040  -1.6646   0.0222   1.3985   1.8790

          k = 0.0833 0.1443 0.0000 ( 10813 PWs)   bands (ev):

   -62.5287 -36.6633 -36.5422 -36.4887 -15.4291 -14.3074  -6.9238  -4.8460
    -4.3370  -3.9467  -3.6853  -2.6291  -1.8554   0.7390   0.8354   1.0317

          k = 0.1000 0.1732 0.0000 ( 10817 PWs)   bands (ev):

   -62.5258 -36.6576 -36.5695 -36.4966 -15.3052 -14.2560  -6.8064  -5.0379
    -4.5275  -3.9174  -3.8345  -2.5899  -1.9665   0.6023   0.8119   0.9321

          k = 0.1167 0.2021 0.0000 ( 10813 PWs)   bands (ev):

   -62.5227 -36.6513 -36.5988 -36.5060 -15.1647 -14.1978  -6.6925  -5.2164
    -4.7067  -4.1735  -3.7234  -2.5784  -2.1004   0.4860   0.8212   0.8525

          k = 0.1333 0.2309 0.0000 ( 10813 PWs)   bands (ev):

   -62.5194 -36.6447 -36.6290 -36.5168 -15.0104 -14.1338  -6.6004  -5.3602
    -4.8816  -4.4331  -3.6314  -2.5933  -2.2407   0.3883   0.8076   0.8618

          k = 0.1500 0.2598 0.0000 ( 10811 PWs)   bands (ev):

   -62.5159 -36.6587 -36.6378 -36.5289 -14.8459 -14.0655  -6.5520  -5.4459
    -5.0732  -4.6617  -3.5845  -2.6333  -2.3614   0.3147   0.8001   0.9292

          k = 0.1667 0.2887 0.0000 ( 10805 PWs)   bands (ev):

   -62.5125 -36.6869 -36.6310 -36.5425 -14.6749 -13.9944  -6.5593  -5.4622
    -5.3061  -4.8228  -3.6097  -2.6970  -2.4351   0.2790   0.8200   1.0167

          k = 0.1833 0.3175 0.0000 ( 10803 PWs)   bands (ev):

   -62.5092 -36.7125 -36.6243 -36.5573 -14.5020 -13.9221  -6.6094  -5.5715
    -5.4244  -4.9153  -3.7153  -2.7827  -2.4515   0.2943   0.8534   1.1166

          k = 0.2000 0.3464 0.0000 ( 10797 PWs)   bands (ev):

   -62.5061 -36.7344 -36.6181 -36.5733 -14.3321 -13.8506  -6.6740  -5.8432
    -5.3628  -4.9571  -3.8836  -2.8881  -2.4226   0.3623   0.8890   1.2193

          k = 0.2167 0.3753 0.0000 ( 10791 PWs)   bands (ev):

   -62.5032 -36.7521 -36.6123 -36.5904 -14.1701 -13.7817  -6.7286  -6.1036
    -5.3038  -4.9600  -4.0904  -3.0099  -2.3623   0.4620   0.9292   1.3143

          k = 0.2333 0.4041 0.0000 ( 10773 PWs)   bands (ev):

   -62.5006 -36.7649 -36.6083 -36.6073 -14.0214 -13.7176  -6.7564  -6.3419
    -5.2634  -4.9306  -4.3177  -3.1443  -2.2759   0.5348   1.0080   1.3906

          k = 0.2500 0.4330 0.0000 ( 10759 PWs)   bands (ev):

   -62.4984 -36.7725 -36.6269 -36.6029 -13.8908 -13.6600  -6.7471  -6.5512
    -5.2491  -4.8743  -4.5532  -3.2864  -2.1657   0.5190   1.1630   1.4395

          k = 0.2667 0.4619 0.0000 ( 10759 PWs)   bands (ev):

   -62.4967 -36.7747 -36.6459 -36.5994 -13.7823 -13.6110  -6.7264  -6.6948
    -5.2658  -4.7972  -4.7836  -3.4302  -2.0371   0.4253   1.3659   1.4583

          k = 0.2833 0.4907 0.0000 ( 10727 PWs)   bands (ev):

   -62.4953 -36.7719 -36.6649 -36.5968 -13.6986 -13.5719  -6.8640  -6.5979
    -5.3268  -4.9837  -4.7076  -3.5677  -1.9024   0.2927   1.4518   1.5691

          k = 0.3000 0.5196 0.0000 ( 10736 PWs)   bands (ev):

   -62.4944 -36.7648 -36.6832 -36.5949 -13.6407 -13.5439  -6.9619  -6.4621
    -5.4561  -5.1133  -4.6183  -3.6877  -1.7805   0.1584   1.4307   1.7365

          k = 0.3167 0.5485 0.0000 ( 10726 PWs)   bands (ev):

   -62.4938 -36.7552 -36.6992 -36.5939 -13.6078 -13.5274  -7.0196  -6.3104
    -5.6205  -5.1761  -4.5488  -3.7730  -1.6948   0.0586   1.4086   1.8435

          k =-0.1667-0.0000 0.0000 ( 10813 PWs)   bands (ev):

   -62.5287 -36.6633 -36.5422 -36.4887 -15.4291 -14.3074  -6.9238  -4.8460
    -4.3370  -3.9467  -3.6853  -2.6291  -1.8554   0.7390   0.8354   1.0317

          k =-0.2000-0.0000 0.0000 ( 10817 PWs)   bands (ev):

   -62.5258 -36.6576 -36.5695 -36.4966 -15.3052 -14.2560  -6.8064  -5.0379
    -4.5275  -3.9174  -3.8345  -2.5899  -1.9665   0.6023   0.8119   0.9321

          k =-0.2333 0.0000 0.0000 ( 10813 PWs)   bands (ev):

   -62.5227 -36.6513 -36.5988 -36.5060 -15.1647 -14.1978  -6.6925  -5.2164
    -4.7067  -4.1735  -3.7234  -2.5784  -2.1004   0.4860   0.8212   0.8525

          k =-0.2667-0.0000 0.0000 ( 10813 PWs)   bands (ev):

   -62.5194 -36.6447 -36.6290 -36.5168 -15.0104 -14.1338  -6.6004  -5.3602
    -4.8816  -4.4331  -3.6314  -2.5933  -2.2407   0.3883   0.8076   0.8618

          k =-0.3000-0.0000 0.0000 ( 10811 PWs)   bands (ev):

   -62.5159 -36.6587 -36.6378 -36.5289 -14.8459 -14.0655  -6.5520  -5.4459
    -5.0732  -4.6617  -3.5845  -2.6333  -2.3614   0.3147   0.8001   0.9292

          k =-0.3333 0.0000 0.0000 ( 10805 PWs)   bands (ev):

   -62.5125 -36.6869 -36.6310 -36.5425 -14.6749 -13.9944  -6.5593  -5.4622
    -5.3061  -4.8228  -3.6097  -2.6970  -2.4351   0.2790   0.8200   1.0167

          k =-0.3667-0.0000 0.0000 ( 10803 PWs)   bands (ev):

   -62.5092 -36.7125 -36.6243 -36.5573 -14.5020 -13.9221  -6.6094  -5.5715
    -5.4244  -4.9153  -3.7153  -2.7827  -2.4515   0.2943   0.8534   1.1166

          k =-0.4000-0.0000 0.0000 ( 10797 PWs)   bands (ev):

   -62.5061 -36.7344 -36.6181 -36.5733 -14.3321 -13.8506  -6.6740  -5.8432
    -5.3628  -4.9571  -3.8836  -2.8881  -2.4226   0.3623   0.8890   1.2193

          k =-0.4333 0.0000 0.0000 ( 10791 PWs)   bands (ev):

   -62.5032 -36.7521 -36.6123 -36.5904 -14.1701 -13.7817  -6.7286  -6.1036
    -5.3038  -4.9600  -4.0904  -3.0099  -2.3623   0.4620   0.9292   1.3143

          k =-0.4667-0.0000 0.0000 ( 10773 PWs)   bands (ev):

   -62.5006 -36.7649 -36.6083 -36.6073 -14.0214 -13.7176  -6.7564  -6.3419
    -5.2634  -4.9306  -4.3177  -3.1443  -2.2759   0.5348   1.0080   1.3906

          k =-0.5000-0.0000 0.0000 ( 10759 PWs)   bands (ev):

   -62.4984 -36.7725 -36.6269 -36.6029 -13.8908 -13.6600  -6.7471  -6.5512
    -5.2491  -4.8743  -4.5532  -3.2864  -2.1657   0.5190   1.1630   1.4395

          k =-0.5333 0.0000 0.0000 ( 10759 PWs)   bands (ev):

   -62.4967 -36.7747 -36.6459 -36.5994 -13.7823 -13.6110  -6.7264  -6.6948
    -5.2658  -4.7972  -4.7836  -3.4302  -2.0371   0.4253   1.3659   1.4583

          k =-0.5667-0.0000 0.0000 ( 10727 PWs)   bands (ev):

   -62.4953 -36.7719 -36.6649 -36.5968 -13.6986 -13.5719  -6.8640  -6.5979
    -5.3268  -4.9837  -4.7076  -3.5677  -1.9024   0.2927   1.4518   1.5691

          k =-0.6000-0.0000 0.0000 ( 10736 PWs)   bands (ev):

   -62.4944 -36.7648 -36.6832 -36.5949 -13.6407 -13.5439  -6.9619  -6.4621
    -5.4561  -5.1133  -4.6183  -3.6877  -1.7805   0.1584   1.4307   1.7365

          k =-0.6333 0.0000 0.0000 ( 10726 PWs)   bands (ev):

   -62.4938 -36.7552 -36.6992 -36.5939 -13.6078 -13.5274  -7.0196  -6.3104
    -5.6205  -5.1761  -4.5488  -3.7730  -1.6948   0.0586   1.4086   1.8435

          k = 0.0833-0.1443 0.0000 ( 10813 PWs)   bands (ev):

   -62.5287 -36.6633 -36.5422 -36.4887 -15.4291 -14.3074  -6.9238  -4.8460
    -4.3370  -3.9467  -3.6853  -2.6291  -1.8554   0.7390   0.8354   1.0317

          k = 0.1000-0.1732 0.0000 ( 10817 PWs)   bands (ev):

   -62.5258 -36.6576 -36.5695 -36.4966 -15.3052 -14.2560  -6.8064  -5.0379
    -4.5275  -3.9174  -3.8345  -2.5899  -1.9665   0.6023   0.8119   0.9321

          k = 0.1167-0.2021 0.0000 ( 10813 PWs)   bands (ev):

   -62.5227 -36.6513 -36.5988 -36.5060 -15.1647 -14.1978  -6.6925  -5.2164
    -4.7067  -4.1735  -3.7234  -2.5784  -2.1004   0.4860   0.8212   0.8525

          k = 0.1333-0.2309 0.0000 ( 10813 PWs)   bands (ev):

   -62.5194 -36.6447 -36.6290 -36.5168 -15.0104 -14.1338  -6.6004  -5.3602
    -4.8816  -4.4331  -3.6314  -2.5933  -2.2407   0.3883   0.8076   0.8618

          k = 0.1500-0.2598 0.0000 ( 10811 PWs)   bands (ev):

   -62.5159 -36.6587 -36.6378 -36.5289 -14.8459 -14.0655  -6.5520  -5.4459
    -5.0732  -4.6617  -3.5845  -2.6333  -2.3614   0.3147   0.8001   0.9292

          k = 0.1667-0.2887 0.0000 ( 10805 PWs)   bands (ev):

   -62.5125 -36.6869 -36.6310 -36.5425 -14.6749 -13.9944  -6.5593  -5.4622
    -5.3061  -4.8228  -3.6097  -2.6970  -2.4351   0.2790   0.8200   1.0167

          k = 0.1833-0.3175 0.0000 ( 10803 PWs)   bands (ev):

   -62.5092 -36.7125 -36.6243 -36.5573 -14.5020 -13.9221  -6.6094  -5.5715
    -5.4244  -4.9153  -3.7153  -2.7827  -2.4515   0.2943   0.8534   1.1166

          k = 0.2000-0.3464 0.0000 ( 10797 PWs)   bands (ev):

   -62.5061 -36.7344 -36.6181 -36.5733 -14.3321 -13.8506  -6.6740  -5.8432
    -5.3628  -4.9571  -3.8836  -2.8881  -2.4226   0.3623   0.8890   1.2193

          k = 0.2167-0.3753 0.0000 ( 10791 PWs)   bands (ev):

   -62.5032 -36.7521 -36.6123 -36.5904 -14.1701 -13.7817  -6.7286  -6.1036
    -5.3038  -4.9600  -4.0904  -3.0099  -2.3623   0.4620   0.9292   1.3143

          k = 0.2333-0.4041 0.0000 ( 10773 PWs)   bands (ev):

   -62.5006 -36.7649 -36.6083 -36.6073 -14.0214 -13.7176  -6.7564  -6.3419
    -5.2634  -4.9306  -4.3177  -3.1443  -2.2759   0.5348   1.0080   1.3906

          k = 0.2500-0.4330 0.0000 ( 10759 PWs)   bands (ev):

   -62.4984 -36.7725 -36.6269 -36.6029 -13.8908 -13.6600  -6.7471  -6.5512
    -5.2491  -4.8743  -4.5532  -3.2864  -2.1657   0.5190   1.1630   1.4395

          k = 0.2667-0.4619 0.0000 ( 10759 PWs)   bands (ev):

   -62.4967 -36.7747 -36.6459 -36.5994 -13.7823 -13.6110  -6.7264  -6.6948
    -5.2658  -4.7972  -4.7836  -3.4302  -2.0371   0.4253   1.3659   1.4583

          k = 0.2833-0.4907 0.0000 ( 10727 PWs)   bands (ev):

   -62.4953 -36.7719 -36.6649 -36.5968 -13.6986 -13.5719  -6.8640  -6.5979
    -5.3268  -4.9837  -4.7076  -3.5677  -1.9024   0.2927   1.4518   1.5691

          k = 0.3000-0.5196 0.0000 ( 10736 PWs)   bands (ev):

   -62.4944 -36.7648 -36.6832 -36.5949 -13.6407 -13.5439  -6.9619  -6.4621
    -5.4561  -5.1133  -4.6183  -3.6877  -1.7805   0.1584   1.4307   1.7365

          k = 0.3167-0.5485 0.0000 ( 10726 PWs)   bands (ev):

   -62.4938 -36.7552 -36.6992 -36.5939 -13.6078 -13.5274  -7.0196  -6.3104
    -5.6205  -5.1761  -4.5488  -3.7730  -1.6948   0.0586   1.4086   1.8435

     Writing all to output data dir ./tmp/mos2.save/ :
     XML data file, pseudopotentials, collected wavefunctions
 
     init_run     :      0.68s CPU      1.02s WALL (       1 calls)
     electrons    :    128.74s CPU    131.55s WALL (       1 calls)

     Called by init_run:
     wfcinit      :      0.00s CPU      0.00s WALL (       1 calls)
     wfcinit:atom :      0.06s CPU      0.07s WALL (      97 calls)
     wfcinit:wfcr :      2.32s CPU      2.35s WALL (      97 calls)
     potinit      :      0.12s CPU      0.16s WALL (       1 calls)
     hinit0       :      0.10s CPU      0.12s WALL (       1 calls)

     Called by electrons:
     c_bands      :    128.74s CPU    131.55s WALL (       1 calls)
     v_of_rho     :      0.10s CPU      0.13s WALL (       1 calls)
     v_h          :      0.01s CPU      0.01s WALL (       1 calls)
     v_xc         :      0.09s CPU      0.12s WALL (       1 calls)
     newd         :      0.38s CPU      0.65s WALL (       1 calls)

     Called by c_bands:
     init_us_2    :      0.11s CPU      0.12s WALL (      97 calls)
     ccgdiagg     :    126.10s CPU    128.43s WALL (      98 calls)
     wfcrot       :      2.33s CPU      2.36s WALL (      98 calls)

     Called by sum_band:

     Called by *cgdiagg:
     h_psi        :     86.79s CPU     88.36s WALL (   53102 calls)
     s_psi        :     14.15s CPU     14.46s WALL (  106106 calls)

     Called by h_psi:
     h_psi:calbec :     19.68s CPU     19.97s WALL (   53102 calls)
     vloc_psi     :     54.57s CPU     55.66s WALL (   53102 calls)
                                        0.00s GPU  (   53102 calls)
     add_vuspsi   :     11.32s CPU     11.53s WALL (   53102 calls)
     hs_1psi      :     93.28s CPU     94.97s WALL (   53004 calls)
     s_1psi       :     15.03s CPU     15.30s WALL (   53004 calls)

     General routines
     calbec       :     27.38s CPU     27.84s WALL (  106106 calls)
     fft          :      0.07s CPU      0.08s WALL (      13 calls)
     ffts         :      0.00s CPU      0.00s WALL (       1 calls)
     fftw         :     39.03s CPU     39.83s WALL (  109532 calls)
     interpolate  :      0.01s CPU      0.01s WALL (       1 calls)
     davcio       :      0.04s CPU      0.39s WALL (     194 calls)
 
     Parallel routines
 
     PWSCF        :   2m 9.69s CPU   2m13.09s WALL

 
   This run was terminated on:   0: 0:26  23Sep2026            

=------------------------------------------------------------------------------=
   JOB DONE.
=------------------------------------------------------------------------------=
