Al
 1.0000000000000000
    -3.9560678008110002    0.0000000000000000    3.9560678008110002
     0.0000000000000000    3.9560678008110002    3.9560678008110002
    -3.9560678008110002    3.9560678008110002    0.0000000000000000
 Al 
   8
Direct
 -0.0000000000000000  0.0000000000000000 -0.0000000000000000
  0.4999999999986097  0.0000000000000000 -0.0000000000000000
  0.0000000000000000  0.4999999999986097 -0.0000000000000000
  0.4999999999986097  0.4999999999986097 -0.0000000000000001
 -0.0000000000000000  0.0000000000000000  0.4999999999986097
  0.4999999999986097  0.0000000000000000  0.4999999999986097
 -0.0000000000000000  0.4999999999986097  0.4999999999986097
  0.4999999999986097  0.4999999999986097  0.4999999999986097
