Al
 1.0000000000000000
    -3.9560678008110002    0.0000000000000000    3.9560678008110002
     0.0000000000000000    3.9560678008110002    3.9560678008110002
    -3.9560678008110002    3.9560678008110002    0.0000000000000000
 Al 
   8
Direct
 -0.0004265198891824  0.0043731206013338  0.0168807482991848
  0.5252910491003185 -0.0014499512113579 -0.0149027881898066
  0.0112514958011779  0.4818532214890799  0.0006705843993513
  0.4938386688922513  0.5104227049106811 -0.0018459221043944
 -0.0161167275082922  0.0039481778969507  0.5128189052103970
  0.4824231613039480 -0.0034413905133803  0.4973944945019934
  0.0075820350055302  0.4989792892946191  0.4929669735059151
  0.4961568373013264  0.5053148274885959  0.4960170045108252
