Al
 1.0000000000000000
    -3.9560678008110002    0.0000000000000000    3.9560678008110002
     0.0000000000000000    3.9560678008110002    3.9560678008110002
    -3.9560678008110002    3.9560678008110002    0.0000000000000000
 Al 
   8
Direct
 -0.0004252638945306  0.0043775522998999  0.0168796555979932
  0.5252838647947325 -0.0014460901046304 -0.0149014898045769
  0.0112529764001704  0.4818474316110612  0.0006720459895695
  0.4938393495049546  0.5104199964004786 -0.0018450253932716
 -0.0161147342916952  0.0039501900970444  0.5128134432969295
  0.4824241893955290 -0.0034381508065184  0.4973946514002143
  0.0075823313098553  0.4989777621974347  0.4929681473988396
  0.4961572866995901  0.5053113081985583  0.4960185714076307
