
     Program PWSCF v.7.5 starts on 22Sep2026 at 23: 2:12 

     This program is part of the open-source Quantum ESPRESSO suite
     for quantum simulation of materials; please cite
         "P. Giannozzi et al., J. Phys.:Condens. Matter 21 395502 (2009);
         "P. Giannozzi et al., J. Phys.:Condens. Matter 29 465901 (2017);
         "P. Giannozzi et al., J. Chem. Phys. 152 154105 (2020);
          URL http://www.quantum-espresso.org", 
     in publications or presentations arising from this work. More details at
     http://www.quantum-espresso.org/quote

     Parallel version (MPI), running on     4 processors

     MPI processes distributed on     1 nodes
     2401 MiB available memory on the printing compute node when the environment starts

     Reading input from scf.in

     Current dimensions of program PWSCF are:
     Max number of different atomic species (ntypx) = 10
     Max number of k-points (npk) =  40000
     Max angular momentum in pseudopotentials (lmaxx) =  4
     Message from routine setup:
     using ibrav=0 with symmetry is DISCOURAGED, use correct ibrav instead

     R & G space division:  proc/nbgrp/npool/nimage =       4
     Subspace diagonalization in iterative solution of the eigenvalue problem:
     a serial algorithm will be used


     Parallelization info
     --------------------
     sticks:   dense  smooth     PW     G-vecs:    dense   smooth      PW
     Min         689     260     76                27281     6316    1034
     Max         690     261     77                27284     6319    1036
     Sum        2757    1041    305               109127    25269    4139

     Using Slab Decomposition



     bravais-lattice index     =            0
     lattice parameter (alat)  =       7.3715  a.u.
     unit-cell volume          =     400.5661 (a.u.)^3
     number of atoms/cell      =            4
     number of atomic types    =            2
     number of electrons       =        15.00
     number of Kohn-Sham states=           14
     kinetic-energy cutoff     =      60.0000  Ry
     charge density cutoff     =     640.0000  Ry
     scf convergence threshold =      1.0E-10
     mixing beta               =       0.7000
     number of iterations used =            8  plain     mixing
     Exchange-correlation= PBE
                           (   1   4   3   4   0   0   0)

     celldm(1)=   7.371537  celldm(2)=   0.000000  celldm(3)=   0.000000
     celldm(4)=   0.000000  celldm(5)=   0.000000  celldm(6)=   0.000000

     crystal axes: (cart. coord. in units of alat)
               a(1) = (   1.000000   0.000000   0.000000 )  
               a(2) = (   0.000000   1.000000   0.000000 )  
               a(3) = (   0.000000   0.000000   1.000000 )  

     reciprocal axes: (cart. coord. in units 2 pi/alat)
               b(1) = (  1.000000  0.000000  0.000000 )  
               b(2) = (  0.000000  1.000000  0.000000 )  
               b(3) = (  0.000000  0.000000  1.000000 )  


     PseudoPot. # 1 for Al read from file:
     ../../pseudo/Al.pbe-n-rrkjus_psl.1.0.0.UPF
     MD5 check sum: bbe9f3f15d9b3b5ab9a58e4859ebdbfe
     Pseudo is Ultrasoft + core correction, Zval =  3.0
     Generated using &quot;atomic&quot; code by A. Dal Corso  v.6.3
     Using radial grid of 1135 points,  6 beta functions with: 
                l(1) =   0
                l(2) =   0
                l(3) =   1
                l(4) =   1
                l(5) =   2
                l(6) =   2
     Q(r) pseudized with 0 coefficients 


     PseudoPot. # 2 for Si read from file:
     ../../pseudo/Si.pbe-n-rrkjus_psl.1.0.0.UPF
     MD5 check sum: fa25574f73a70a4139f2adfbefec430c
     Pseudo is Ultrasoft + core correction, Zval =  4.0
     Generated using &quot;atomic&quot; code by A. Dal Corso  v.6.3
     Using radial grid of 1141 points,  6 beta functions with: 
                l(1) =   0
                l(2) =   0
                l(3) =   1
                l(4) =   1
                l(5) =   2
                l(6) =   2
     Q(r) pseudized with 0 coefficients 


     atomic species   valence    mass     pseudopotential
     Al                3.00    26.98154     Al( 1.00)
     Si                4.00    28.08500     Si( 1.00)

     48 Sym. Ops., with inversion, found



   Cartesian axes

     site n.     atom                  positions (alat units)
         1        Al     tau(   1) = (   0.0000000   0.0000000   0.0000000  )
         2        Si     tau(   2) = (   0.0000000   0.5000000   0.5000000  )
         3        Si     tau(   3) = (   0.5000000   0.0000000   0.5000000  )
         4        Si     tau(   4) = (   0.5000000   0.5000000   0.0000000  )

     number of k points=    84  Marzari-Vanderbilt smearing, width (Ry)=  0.0100
                       cart. coord. in units 2pi/alat
        k(    1) = (   0.0000000   0.0000000   0.0000000), wk =   0.0011574
        k(    2) = (   0.0000000   0.0000000   0.0833333), wk =   0.0069444
        k(    3) = (   0.0000000   0.0000000   0.1666667), wk =   0.0069444
        k(    4) = (   0.0000000   0.0000000   0.2500000), wk =   0.0069444
        k(    5) = (   0.0000000   0.0000000   0.3333333), wk =   0.0069444
        k(    6) = (   0.0000000   0.0000000   0.4166667), wk =   0.0069444
        k(    7) = (   0.0000000   0.0000000  -0.5000000), wk =   0.0034722
        k(    8) = (   0.0000000   0.0833333   0.0833333), wk =   0.0138889
        k(    9) = (   0.0000000   0.0833333   0.1666667), wk =   0.0277778
        k(   10) = (   0.0000000   0.0833333   0.2500000), wk =   0.0277778
        k(   11) = (   0.0000000   0.0833333   0.3333333), wk =   0.0277778
        k(   12) = (   0.0000000   0.0833333   0.4166667), wk =   0.0277778
        k(   13) = (   0.0000000   0.0833333  -0.5000000), wk =   0.0138889
        k(   14) = (   0.0000000   0.1666667   0.1666667), wk =   0.0138889
        k(   15) = (   0.0000000   0.1666667   0.2500000), wk =   0.0277778
        k(   16) = (   0.0000000   0.1666667   0.3333333), wk =   0.0277778
        k(   17) = (   0.0000000   0.1666667   0.4166667), wk =   0.0277778
        k(   18) = (   0.0000000   0.1666667  -0.5000000), wk =   0.0138889
        k(   19) = (   0.0000000   0.2500000   0.2500000), wk =   0.0138889
        k(   20) = (   0.0000000   0.2500000   0.3333333), wk =   0.0277778
        k(   21) = (   0.0000000   0.2500000   0.4166667), wk =   0.0277778
        k(   22) = (   0.0000000   0.2500000  -0.5000000), wk =   0.0138889
        k(   23) = (   0.0000000   0.3333333   0.3333333), wk =   0.0138889
        k(   24) = (   0.0000000   0.3333333   0.4166667), wk =   0.0277778
        k(   25) = (   0.0000000   0.3333333  -0.5000000), wk =   0.0138889
        k(   26) = (   0.0000000   0.4166667   0.4166667), wk =   0.0138889
        k(   27) = (   0.0000000   0.4166667  -0.5000000), wk =   0.0138889
        k(   28) = (   0.0000000  -0.5000000  -0.5000000), wk =   0.0034722
        k(   29) = (   0.0833333   0.0833333   0.0833333), wk =   0.0092593
        k(   30) = (   0.0833333   0.0833333   0.1666667), wk =   0.0277778
        k(   31) = (   0.0833333   0.0833333   0.2500000), wk =   0.0277778
        k(   32) = (   0.0833333   0.0833333   0.3333333), wk =   0.0277778
        k(   33) = (   0.0833333   0.0833333   0.4166667), wk =   0.0277778
        k(   34) = (   0.0833333   0.0833333  -0.5000000), wk =   0.0138889
        k(   35) = (   0.0833333   0.1666667   0.1666667), wk =   0.0277778
        k(   36) = (   0.0833333   0.1666667   0.2500000), wk =   0.0555556
        k(   37) = (   0.0833333   0.1666667   0.3333333), wk =   0.0555556
        k(   38) = (   0.0833333   0.1666667   0.4166667), wk =   0.0555556
        k(   39) = (   0.0833333   0.1666667  -0.5000000), wk =   0.0277778
        k(   40) = (   0.0833333   0.2500000   0.2500000), wk =   0.0277778
        k(   41) = (   0.0833333   0.2500000   0.3333333), wk =   0.0555556
        k(   42) = (   0.0833333   0.2500000   0.4166667), wk =   0.0555556
        k(   43) = (   0.0833333   0.2500000  -0.5000000), wk =   0.0277778
        k(   44) = (   0.0833333   0.3333333   0.3333333), wk =   0.0277778
        k(   45) = (   0.0833333   0.3333333   0.4166667), wk =   0.0555556
        k(   46) = (   0.0833333   0.3333333  -0.5000000), wk =   0.0277778
        k(   47) = (   0.0833333   0.4166667   0.4166667), wk =   0.0277778
        k(   48) = (   0.0833333   0.4166667  -0.5000000), wk =   0.0277778
        k(   49) = (   0.0833333  -0.5000000  -0.5000000), wk =   0.0069444
        k(   50) = (   0.1666667   0.1666667   0.1666667), wk =   0.0092593
        k(   51) = (   0.1666667   0.1666667   0.2500000), wk =   0.0277778
        k(   52) = (   0.1666667   0.1666667   0.3333333), wk =   0.0277778
        k(   53) = (   0.1666667   0.1666667   0.4166667), wk =   0.0277778
        k(   54) = (   0.1666667   0.1666667  -0.5000000), wk =   0.0138889
        k(   55) = (   0.1666667   0.2500000   0.2500000), wk =   0.0277778
        k(   56) = (   0.1666667   0.2500000   0.3333333), wk =   0.0555556
        k(   57) = (   0.1666667   0.2500000   0.4166667), wk =   0.0555556
        k(   58) = (   0.1666667   0.2500000  -0.5000000), wk =   0.0277778
        k(   59) = (   0.1666667   0.3333333   0.3333333), wk =   0.0277778
        k(   60) = (   0.1666667   0.3333333   0.4166667), wk =   0.0555556
        k(   61) = (   0.1666667   0.3333333  -0.5000000), wk =   0.0277778
        k(   62) = (   0.1666667   0.4166667   0.4166667), wk =   0.0277778
        k(   63) = (   0.1666667   0.4166667  -0.5000000), wk =   0.0277778
        k(   64) = (   0.1666667  -0.5000000  -0.5000000), wk =   0.0069444
        k(   65) = (   0.2500000   0.2500000   0.2500000), wk =   0.0092593
        k(   66) = (   0.2500000   0.2500000   0.3333333), wk =   0.0277778
        k(   67) = (   0.2500000   0.2500000   0.4166667), wk =   0.0277778
        k(   68) = (   0.2500000   0.2500000  -0.5000000), wk =   0.0138889
        k(   69) = (   0.2500000   0.3333333   0.3333333), wk =   0.0277778
        k(   70) = (   0.2500000   0.3333333   0.4166667), wk =   0.0555556
        k(   71) = (   0.2500000   0.3333333  -0.5000000), wk =   0.0277778
        k(   72) = (   0.2500000   0.4166667   0.4166667), wk =   0.0277778
        k(   73) = (   0.2500000   0.4166667  -0.5000000), wk =   0.0277778
        k(   74) = (   0.2500000  -0.5000000  -0.5000000), wk =   0.0069444
        k(   75) = (   0.3333333   0.3333333   0.3333333), wk =   0.0092593
        k(   76) = (   0.3333333   0.3333333   0.4166667), wk =   0.0277778
        k(   77) = (   0.3333333   0.3333333  -0.5000000), wk =   0.0138889
        k(   78) = (   0.3333333   0.4166667   0.4166667), wk =   0.0277778
        k(   79) = (   0.3333333   0.4166667  -0.5000000), wk =   0.0277778
        k(   80) = (   0.3333333  -0.5000000  -0.5000000), wk =   0.0069444
        k(   81) = (   0.4166667   0.4166667   0.4166667), wk =   0.0092593
        k(   82) = (   0.4166667   0.4166667  -0.5000000), wk =   0.0138889
        k(   83) = (   0.4166667  -0.5000000  -0.5000000), wk =   0.0069444
        k(   84) = (  -0.5000000  -0.5000000  -0.5000000), wk =   0.0011574

     Dense  grid:   109127 G-vectors     FFT dimensions: (  60,  60,  60)

     Smooth grid:    25269 G-vectors     FFT dimensions: (  40,  40,  40)

     Estimated max dynamical RAM per process >     118.60 MB

     Estimated total dynamical RAM >     474.40 MB

     The initial density is read from file :
     ./tmp/alsi3-l12.save/charge-density

     Starting wfcs are   16 randomized atomic wfcs

     total cpu time spent up to now is        3.2 secs

     per-process dynamical memory:    44.0 Mb

     Self-consistent Calculation

     iteration #  1     ecut=    60.00 Ry     beta= 0.70
     CG style diagonalization
     ethr =  1.00E-06,  avg # of iterations = 20.1

     Threshold (ethr) on eigenvalues was too large:
     Diagonalizing with lowered threshold

     CG style diagonalization
     ethr =  9.23E-11,  avg # of iterations = 13.4

     total cpu time spent up to now is       87.6 secs

     End of self-consistent calculation

          k = 0.0000 0.0000 0.0000 (  3119 PWs)   bands (ev):

    -3.7195   5.2218   5.2218   5.2218   5.5701   5.5701   7.7171  13.1581
    13.1581  13.1581  14.5203  14.5203  14.5204  14.6758

          k = 0.0000 0.0000 0.0833 (  3139 PWs)   bands (ev):

    -3.6539   4.0738   5.2828   5.2828   5.6312   6.4799   8.1365  12.5445
    12.5445  12.7067  14.0293  14.0424  14.0423  14.7414

          k = 0.0000 0.0000 0.1667 (  3118 PWs)   bands (ev):

    -3.4574   2.7935   5.4655   5.4655   5.8130   7.0473   9.3915  11.3980
    11.3980  11.7756  13.0566  14.1077  14.1077  14.9378

          k = 0.0000 0.0000 0.2500 (  3142 PWs)   bands (ev):

    -3.1317   1.6017   5.7685   5.7685   6.1099   7.4752  10.2703  10.2703
    10.7688  11.0512  12.0153  14.3513  14.3513  15.2640

          k = 0.0000 0.0000 0.3333 (  3134 PWs)   bands (ev):

    -2.6809   0.5249   6.1872   6.1872   6.5065   7.9644   9.2487   9.2487
     9.8286  11.0056  12.8974  14.6994  14.6994  15.7174

          k = 0.0000 0.0000 0.4167 (  3158 PWs)   bands (ev):

    -2.1225  -0.4112   6.7008   6.7008   6.9490   8.3702   8.3702   8.5551
     9.0503  10.0933  14.8302  15.0942  15.0942  17.0319

          k = 0.0000 0.0000-0.5000 (  3178 PWs)   bands (ev):

    -1.6720  -0.9879   7.0918   7.0918   7.2052   7.8571   7.8571   8.6808
     9.1596   9.3793  15.3235  15.3235  16.6723  16.6916

          k = 0.0000 0.0833 0.0833 (  3123 PWs)   bands (ev):

    -3.5883   3.9869   4.3232   5.3438   6.1371   7.0432   8.4165  11.5752
    12.3608  12.9582  13.2407  13.6164  14.3449  15.7175

          k = 0.0000 0.0833 0.1667 (  3122 PWs)   bands (ev):

    -3.3919   2.8453   4.3729   5.5265   6.3800   7.7110   9.5024  10.3940
    11.4268  12.2619  13.0987  13.4591  13.8321  16.0783

          k = 0.0000 0.0833 0.2500 (  3141 PWs)   bands (ev):

    -3.0663   1.6616   4.6710   5.8295   6.6926   8.1522   9.2714  10.3222
    11.1216  11.2769  12.6392  13.3391  13.9136  16.3803

          k = 0.0000 0.0833 0.3333 (  3133 PWs)   bands (ev):

    -2.6157   0.5872   5.0879   6.2483   7.0968   8.2644   8.6286   9.3055
    10.3232  11.6682  12.9551  13.7181  14.2701  16.5869

          k = 0.0000 0.0833 0.4167 (  3139 PWs)   bands (ev):

    -2.0575  -0.3480   5.5893   6.7621   7.2888   7.6915   8.4284   9.1409
     9.5598  10.7876  14.1735  14.5982  14.9625  15.9458

          k = 0.0000 0.0833-0.5000 (  3150 PWs)   bands (ev):

    -1.6070  -0.9246   5.9407   6.8751   7.1541   7.9148   7.9428   9.0278
     9.7451  10.1842  14.4720  14.8958  15.5419  16.1072

          k = 0.0000 0.1667 0.1667 (  3135 PWs)   bands (ev):

    -3.1958   2.8386   3.2902   5.7093   6.6661   8.8996   9.1820  10.0142
    11.3198  12.1256  12.3575  12.8417  14.4499  16.4765

          k = 0.0000 0.1667 0.2500 (  3131 PWs)   bands (ev):

    -2.8706   1.8334   3.4137   6.0124   6.9767   8.0611   9.5757  10.4609
    11.3650  11.5588  12.1218  12.9381  14.0051  16.5051

          k = 0.0000 0.1667 0.3333 (  3137 PWs)   bands (ev):

    -2.4206   0.7720   3.8237   6.4313   6.9139   7.5252   9.4726  10.0218
    10.6662  12.4788  13.0086  13.0694  13.5212  15.5387

          k = 0.0000 0.1667 0.4167 (  3138 PWs)   bands (ev):

    -1.8630  -0.1594   4.3308   6.0907   6.9459   7.9791   8.6014   9.6934
    10.7096  12.2557  12.9408  13.7386  14.7152  15.0793

          k = 0.0000 0.1667-0.5000 (  3126 PWs)   bands (ev):

    -1.4119  -0.7357   4.6935   5.6102   7.3410   8.0862   8.3259   9.2507
    11.1190  11.7310  13.2558  14.0122  14.2798  15.1785

          k = 0.0000 0.2500 0.2500 (  3129 PWs)   bands (ev):

    -2.5462   1.9382   2.4314   6.3155   6.7876   7.4334  10.4719  10.8947
    11.2485  11.7634  11.9320  12.1985  14.9384  15.4094

          k = 0.0000 0.2500 0.3333 (  3148 PWs)   bands (ev):

    -2.0971   1.0676   2.6558   5.8023   6.7348   7.8146   9.7278  10.8125
    11.3618  11.8078  12.3132  13.5491  14.6459  14.4150

          k = 0.0000 0.2500 0.4167 (  3150 PWs)   bands (ev):

    -1.5402   0.1503   3.1548   4.9255   7.2510   8.3214   8.8825  10.0237
    11.7966  12.3186  12.7771  13.5809  13.9281  14.5536

          k = 0.0000 0.2500-0.5000 (  3134 PWs)   bands (ev):

    -1.0874  -0.4254   3.5202   4.4354   7.6522   8.3659   8.6875   9.5530
    12.1057  12.6590  13.1491  13.1442  13.4212  14.1877

          k = 0.0000 0.3333 0.3333 (  3145 PWs)   bands (ev):

    -1.6491   1.2920   1.7896   4.7649   7.1549   8.2426   9.8583  10.5971
    11.0617  11.5174  13.3230  13.4129  14.1564  14.5833

          k = 0.0000 0.3333 0.4167 (  3140 PWs)   bands (ev):

    -1.0927   0.5649   2.1001   3.8799   7.6740   8.7573   9.2462  10.4207
    10.7878  11.7818  12.5829  13.6319  14.1476  15.5311

          k = 0.0000 0.3333-0.5000 (  3136 PWs)   bands (ev):

    -0.6345  -0.0060   2.4518   3.3918   8.0877   8.7370   9.1337   9.9472
    11.0627  12.0482  12.1587  13.2586  14.5774  15.1492

          k = 0.0000 0.4167 0.4167 (  3143 PWs)   bands (ev):

    -0.5340   0.9032   1.3352   3.0000   8.2012   9.2790   9.4882  10.0929
    10.7422  11.0761  11.7737  12.8720  15.6496  16.6385

          k = 0.0000 0.4167-0.5000 (  3148 PWs)   bands (ev):

    -0.0564   0.4759   1.5017   2.5334   8.6469   9.1419   9.6751  10.1370
    10.3822  11.2019  11.3848  12.4950  16.2731  16.6918

          k = 0.0000-0.5000-0.5000 (  3168 PWs)   bands (ev):

     0.5476   0.7734   0.7734   2.1102   9.2969   9.3646   9.3646  10.1416
    10.6305  10.6305  11.0390  12.1358  17.2109  17.3973

          k = 0.0833 0.0833 0.0833 (  3122 PWs)   bands (ev):

    -3.5227   4.0484   4.0484   4.6631   7.1033   7.1033   8.6474  11.4695
    11.4694  12.3086  13.3313  14.3828  14.3828  15.7466

          k = 0.0833 0.0833 0.1667 (  3127 PWs)   bands (ev):

    -3.3264   2.8982   4.2321   4.7253   7.2820   7.9460   9.6145  10.2904
    10.6352  12.0788  12.9580  13.9208  14.2842  16.0069

          k = 0.0833 0.0833 0.2500 (  3142 PWs)   bands (ev):

    -3.0010   1.7215   4.5350   5.0213   7.5721   8.4326   9.1759   9.5429
    11.1987  12.0602  12.3055  12.9629  14.4791  16.3168

          k = 0.0833 0.0833 0.3333 (  3131 PWs)   bands (ev):

    -2.5506   0.6494   4.9478   5.4479   7.8918   8.2495   8.4749   8.9715
    11.1362  11.9414  12.6803  13.0700  14.8174  15.7436

          k = 0.0833 0.0833 0.4167 (  3136 PWs)   bands (ev):

    -1.9926  -0.2848   5.4339   5.9822   7.2793   7.5999   8.4817   9.5281
    10.3390  11.0613  13.1597  14.8706  15.0447  15.2084

          k = 0.0833 0.0833-0.5000 (  3140 PWs)   bands (ev):

    -1.5419  -0.8613   5.7551   6.4221   6.8447   7.0403   8.7712   9.9300
    10.0678  10.4141  13.4641  14.5241  15.4359  16.8111

          k = 0.0833 0.1667 0.1667 (  3135 PWs)   bands (ev):

    -3.1304   2.9004   3.3177   4.7328   7.7447   8.9534   9.2255  10.1173
    10.4261  11.1044  13.1877  13.9053  14.5717  16.4630

          k = 0.0833 0.1667 0.2500 (  3133 PWs)   bands (ev):

    -2.8054   1.8935   3.4562   5.0253   7.9200   8.2532   9.4499   9.7517
    11.0930  11.4785  12.5227  13.8582  14.1785  15.5364

          k = 0.0833 0.1667 0.3333 (  3135 PWs)   bands (ev):

    -2.3556   0.8341   3.8662   5.4446   7.0305   8.4992   8.5664  10.1886
    11.4541  11.6419  13.1314  13.2721  14.3365  14.5762

          k = 0.0833 0.1667 0.4167 (  3145 PWs)   bands (ev):

    -1.7982  -0.0963   4.3694   5.9274   6.2051   7.6480   9.0296  10.6178
    10.9249  11.9335  12.3620  13.7355  14.6969  15.2029

          k = 0.0833 0.1667-0.5000 (  3142 PWs)   bands (ev):

    -1.3470  -0.6725   4.7233   5.6678   6.3895   7.1289   9.3651  10.3103
    11.2251  11.7972  12.2723  13.3086  14.9785  16.1652

          k = 0.0833 0.2500 0.2500 (  3134 PWs)   bands (ev):

    -2.4811   2.0002   2.4852   5.3140   6.9115   8.4741   9.5480  10.2215
    11.0443  12.0952  12.6550  13.2213  14.4434  15.0097

          k = 0.0833 0.2500 0.3333 (  3140 PWs)   bands (ev):

    -2.0322   1.1296   2.7125   5.6678   5.9512   8.7794   8.9031  10.3620
    11.6604  12.0886  13.3131  13.4067  13.7093  14.7163

          k = 0.0833 0.2500 0.4167 (  3149 PWs)   bands (ev):

    -1.4756   0.2132   3.2105   4.9797   6.2793   7.9300   9.4033  10.7972
    11.0804  12.4292  12.6351  13.7441  14.0308  15.4052

          k = 0.0833 0.2500-0.5000 (  3144 PWs)   bands (ev):

    -1.0227  -0.3624   3.5732   4.4957   6.6752   7.4139   9.7644  10.6117
    11.1124  12.1864  12.8545  13.4812  14.0881  15.2231

          k = 0.0833 0.3333 0.3333 (  3156 PWs)   bands (ev):

    -1.5845   1.3541   1.8495   4.8189   6.1804   8.9460   9.3196   9.5879
    12.0482  12.4439  12.6375  13.3958  14.3561  15.5046

          k = 0.0833 0.3333 0.4167 (  3150 PWs)   bands (ev):

    -1.0283   0.6275   2.1602   3.9393   6.6963   8.3056   9.7508   9.8922
    11.4651  11.6233  12.8531  14.1966  14.6965  15.5888

          k = 0.0833 0.3333-0.5000 (  3154 PWs)   bands (ev):

    -0.5701   0.0567   2.5110   3.4530   7.1038   7.7962  10.0323  10.2752
    10.9889  11.2065  13.1072  14.3147  14.6488  15.2036

          k = 0.0833 0.4167 0.4167 (  3153 PWs)   bands (ev):

    -0.4699   0.9653   1.3972   3.0611   7.2228   8.5783   9.0791  10.3714
    10.8147  11.7509  12.1787  13.9370  15.7058  16.6914

          k = 0.0833 0.4167-0.5000 (  3148 PWs)   bands (ev):

     0.0075   0.5383   1.5634   2.5952   7.6580   8.2181   9.1564  10.4134
    10.7854  11.4118  12.2622  13.5722  16.3317  16.7413

          k = 0.0833-0.5000-0.5000 (  3140 PWs)   bands (ev):

     0.6116   0.8355   0.8355   2.1724   8.2398   8.4552   8.4552  10.0552
    11.3005  11.6421  11.6421  13.2305  17.2618  17.4440

          k = 0.1667 0.1667 0.1667 (  3128 PWs)   bands (ev):

    -2.9347   3.0850   3.0850   3.8736   9.0053   9.0053   9.3439   9.3439
    10.0208  10.5599  13.8498  14.8589  14.8589  15.4273

          k = 0.1667 0.1667 0.2500 (  3131 PWs)   bands (ev):

    -2.6101   2.0672   3.3891   4.0130   8.0399   8.4458   9.4670   9.8741
    10.0993  11.7162  13.6173  14.3278  14.4944  14.9019

          k = 0.1667 0.1667 0.3333 (  3141 PWs)   bands (ev):

    -2.1609   1.0185   3.8028   4.4232   7.0320   7.4575   9.8550  10.2303
    10.6672  12.8680  13.2674  13.4932  13.6525  15.1775

          k = 0.1667 0.1667 0.4167 (  3158 PWs)   bands (ev):

    -1.6041   0.0919   4.2876   4.9631   6.1850   6.5560  10.3136  10.6868
    11.2599  12.1231  12.5189  12.7721  15.5510  15.3377

          k = 0.1667 0.1667-0.5000 (  3150 PWs)   bands (ev):

    -1.1524  -0.4840   4.6030   5.4343   5.7483   5.9632  10.6069  10.9874
    11.7281  11.8155  12.0558  12.1649  15.7709  17.1505

          k = 0.1667 0.2500 0.2500 (  3136 PWs)   bands (ev):

    -2.2863   2.1853   2.6208   4.0908   7.0710   8.3294   8.9824  10.0238
    11.2319  12.3394  13.2383  13.9354  14.6613  15.2594

          k = 0.1667 0.2500 0.3333 (  3151 PWs)   bands (ev):

    -1.8380   1.3136   2.8680   4.4905   6.0547   7.5519   9.1160  10.4588
    12.0022  12.2312  13.4096  13.8101  14.7055  15.0158

          k = 0.1667 0.2500 0.4167 (  3148 PWs)   bands (ev):

    -1.2820   0.4007   3.3616   4.9510   5.2443   6.6859   9.5587  10.9478
    11.3850  12.4800  12.8129  14.1627  15.1702  15.6899

          k = 0.1667 0.2500-0.5000 (  3150 PWs)   bands (ev):

    -0.8287  -0.1744   3.7112   4.6740   5.4581   6.1561   9.8640  10.9498
    11.2887  12.1850  13.1241  13.6559  15.4296  16.6453

          k = 0.1667 0.3333 0.3333 (  3159 PWs)   bands (ev):

    -1.3910   1.5395   2.0241   4.8022   5.1159   7.7157   8.3097  10.9069
    11.2243  13.2927  13.7989  14.1593  14.5906  15.9313

          k = 0.1667 0.3333 0.4167 (  3146 PWs)   bands (ev):

    -0.8356   0.8141   2.3370   4.1120   5.4460   7.0595   8.5422  10.3785
    11.4290  12.9945  14.2600  14.4939  15.7578  16.0363

          k = 0.1667 0.3333-0.5000 (  3154 PWs)   bands (ev):

    -0.3772   0.2439   2.6840   3.6352   5.8517   6.5427   8.8278   9.9541
    11.7941  12.5635  14.5148  14.9311  15.3591  15.8475

          k = 0.1667 0.4167 0.4167 (  3151 PWs)   bands (ev):

    -0.2782   1.1508   1.5812   3.2424   5.9638   7.3443   7.8158   9.5580
    11.9522  13.2706  13.7357  15.4828  15.8739  16.8491

          k = 0.1667 0.4167-0.5000 (  3146 PWs)   bands (ev):

     0.1990   0.7245   1.7468   2.7793   6.3968   6.9744   7.9077   9.1560
    12.3535  12.9621  13.7923  15.1469  16.5081  16.8869

          k = 0.1667-0.5000-0.5000 (  3168 PWs)   bands (ev):

     0.8031   1.0210   1.0210   2.3574   6.9600   7.2202   7.2202   8.7879
    12.8800  13.1774  13.1774  14.8280  17.4132  17.5798

          k = 0.2500 0.2500 0.2500 (  3133 PWs)   bands (ev):

    -1.9632   2.4900   2.4900   3.3480   7.1868   7.1868   7.9959  11.5216
    11.5216  12.0706  12.9441  14.7089  15.6688  15.6687

          k = 0.2500 0.2500 0.3333 (  3160 PWs)   bands (ev):

    -1.5160   1.6093   2.9041   3.5959   6.1653   6.5540   7.9796  11.0793
    11.9095  12.5348  14.1920  14.6252  15.4154  15.8211

          k = 0.2500 0.2500 0.4167 (  3151 PWs)   bands (ev):

    -0.9609   0.7084   3.3875   4.1176   5.3151   5.6799   8.4078  10.2421
    12.3555  13.2195  14.0712  14.6835  16.1224  15.9623

          k = 0.2500 0.2500-0.5000 (  3140 PWs)   bands (ev):

    -0.5062   0.1343   3.6985   4.6026   4.8815   5.0733   8.7121   9.8086
    12.6351  13.7255  13.7809  14.0713  16.3203  17.7114

          k = 0.2500 0.3333 0.3333 (  3146 PWs)   bands (ev):

    -1.0701   1.8445   2.2778   3.7686   5.3038   6.5661   7.1574  10.0707
    12.5760  13.7411  15.0456  14.9471  15.7111  16.2733

          k = 0.2500 0.3333 0.4167 (  3151 PWs)   bands (ev):

    -0.5159   1.1203   2.6073   4.2003   4.5094   5.9050   7.3810   9.2311
    13.0787  14.4501  14.8358  15.8171  16.1024  16.4749

          k = 0.2500 0.3333-0.5000 (  3144 PWs)   bands (ev):

    -0.0565   0.5514   2.9426   3.9319   4.7267   5.3783   7.6670   8.8026
    13.4087  14.2295  15.1604  15.6203  16.1119  17.3937

          k = 0.2500 0.4167 0.4167 (  3156 PWs)   bands (ev):

     0.0396   1.4559   1.8786   3.5341   4.8099   6.1917   6.6441   8.4015
    13.6234  14.8469  15.3558  16.1566  17.1105  17.0211

          k = 0.2500 0.4167-0.5000 (  3146 PWs)   bands (ev):

     0.5169   1.0306   2.0449   3.0801   5.2343   5.8152   6.7434   7.9944
    14.0093  14.6093  15.3774  16.8139  16.8075  17.1189

          k = 0.2500-0.5000-0.5000 (  3160 PWs)   bands (ev):

     1.1206   1.3262   1.3262   2.6597   5.7788   6.0667   6.0667   7.6194
    14.5376  14.8050  14.8050  16.5367  17.6543  17.7921

          k = 0.3333 0.3333 0.3333 (  3145 PWs)   bands (ev):

    -0.6258   2.2586   2.2586   3.1659   5.5408   5.5408   6.2635   9.0544
    14.1313  14.1313  15.8927  15.6364  16.7488  16.7488

          k = 0.3333 0.3333 0.4167 (  3155 PWs)   bands (ev):

    -0.0730   1.5305   2.7406   3.5192   4.6900   5.0051   6.3470   8.2127
    14.5564  15.2206  15.9778  16.6074  16.9351  16.9410

          k = 0.3333 0.3333-0.5000 (  3150 PWs)   bands (ev):

     0.3900   0.9671   3.0480   3.9920   4.2593   4.4140   6.6179   7.7877
    14.8122  16.0640  15.7916  15.8980  17.0592  18.5045

          k = 0.3333 0.4167 0.4167 (  3150 PWs)   bands (ev):

     0.4797   1.8700   2.2484   3.7240   4.0206   5.1647   5.5988   7.3788
    15.2996  16.1972  16.6278  16.8906  17.4845  17.7674

          k = 0.3333 0.4167-0.5000 (  3152 PWs)   bands (ev):

     0.9581   1.4450   2.4275   3.4812   4.2242   4.7850   5.6956   6.9717
    15.6507  16.2468  16.8284  17.2679  17.4040  18.4686

          k = 0.3333-0.5000-0.5000 (  3140 PWs)   bands (ev):

     1.5596   1.7402   1.7402   3.0624   4.7184   5.0392   5.0392   6.5921
    16.1963  16.4151  16.4151  17.9603  18.0496  18.2923

          k = 0.4167 0.4167 0.4167 (  3142 PWs)   bands (ev):

     1.0286   2.3509   2.3509   3.3057   4.3140   4.3140   4.7835   6.5480
    16.7818  16.7818  17.3320  17.8759  17.8758  18.5678

          k = 0.4167 0.4167-0.5000 (  3136 PWs)   bands (ev):

     1.5144   1.9229   2.6559   3.6055   3.8853   3.9776   4.7857   6.1508
    17.0084  17.5879  17.7270  17.7345  17.8964  19.6548

          k = 0.4167-0.5000-0.5000 (  3148 PWs)   bands (ev):

     2.1006   2.2207   2.2207   3.5080   3.8032   4.1885   4.1885   5.7702
    17.6784  17.7833  17.7832  18.2622  18.2850  19.9817

          k =-0.5000-0.5000-0.5000 (  3112 PWs)   bands (ev):

     2.5250   2.5250   2.5250   3.2539   3.7605   3.7605   3.7605   5.3919
    18.3888  18.3892  18.3906  18.4008  18.4021  21.1517

     the Fermi energy is    10.1051 ev

!    total energy              =     -39.19251727 Ry
     estimated scf accuracy    <          6.0E-13 Ry
     smearing contrib. (-TS)   =      -0.00004621 Ry
     internal energy E=F+TS    =     -39.19247106 Ry

     The total energy is F=E-TS. E is the sum of the following terms:
     one-electron contribution =      16.87473237 Ry
     hartree contribution      =       0.28611784 Ry
     xc contribution           =     -21.13819995 Ry
     ewald contribution        =     -35.21512132 Ry

     convergence has been achieved in   1 iterations

     Forces acting on atoms (cartesian axes, Ry/au):

     atom    1 type  1   force =     0.00000000    0.00000000    0.00000000
     atom    2 type  2   force =     0.00000000    0.00000000    0.00000000
     atom    3 type  2   force =     0.00000000    0.00000000    0.00000000
     atom    4 type  2   force =     0.00000000    0.00000000    0.00000000

     Total force =     0.000000     Total SCF correction =     0.000000


     Computing stress (Cartesian axis) and pressure

          total   stress  (Ry/bohr**3)                   (kbar)     P=        0.01
   0.00000004   0.00000000   0.00000000            0.01        0.00        0.00
   0.00000000   0.00000004   0.00000000            0.00        0.01        0.00
   0.00000000   0.00000000   0.00000004            0.00        0.00        0.01


     Writing all to output data dir ./tmp/alsi3-l12.save/ :
     XML data file, charge density, pseudopotentials, collected wavefunctions

     init_run     :      2.75s CPU      2.92s WALL (       1 calls)
     electrons    :     81.06s CPU     84.34s WALL (       1 calls)
     forces       :      1.56s CPU      1.66s WALL (       1 calls)
     stress       :      6.27s CPU      6.58s WALL (       1 calls)

     Called by init_run:
     wfcinit      :      1.74s CPU      1.80s WALL (       1 calls)
     potinit      :      0.20s CPU      0.21s WALL (       1 calls)
     hinit0       :      0.50s CPU      0.51s WALL (       1 calls)

     Called by electrons:
     c_bands      :     78.97s CPU     81.93s WALL (       2 calls)
     sum_band     :      1.76s CPU      1.99s WALL (       2 calls)
     v_of_rho     :      0.09s CPU      0.10s WALL (       2 calls)
     newd         :      0.52s CPU      0.70s WALL (       2 calls)
     mix_rho      :      0.00s CPU      0.00s WALL (       2 calls)

     Called by c_bands:
     init_us_2    :      0.38s CPU      0.38s WALL (     588 calls)
     ccgdiagg     :     78.83s CPU     81.79s WALL (     168 calls)
     wfcrot       :      1.58s CPU      1.64s WALL (      84 calls)

     Called by *cgdiagg:
     h_psi        :     45.30s CPU     47.51s WALL (   39449 calls)
     s_psi        :     16.55s CPU     17.02s WALL (   78814 calls)

     Called by h_psi:
     h_psi:calbec :     12.16s CPU     12.94s WALL (   39449 calls)
     vloc_psi     :     23.17s CPU     24.15s WALL (   39449 calls)
                                        0.00s GPU  (   39449 calls)
     add_vuspsi   :      9.54s CPU     10.00s WALL (   39449 calls)
     hs_1psi      :     53.02s CPU     55.50s WALL (   39365 calls)
     s_1psi       :     19.11s CPU     19.41s WALL (   39365 calls)

     General routines
     calbec       :     27.24s CPU     28.28s WALL (   80410 calls)
     fft          :      0.29s CPU      0.31s WALL (      50 calls)
     ffts         :      0.15s CPU      0.15s WALL (       4 calls)
     fftw         :     19.13s CPU     20.00s WALL (   83770 calls)
     interpolate  :      0.15s CPU      0.16s WALL (       2 calls)

     Parallel routines

     PWSCF        :   1m32.00s CPU   1m35.94s WALL


   This run was terminated on:  23: 3:48  22Sep2026            

=------------------------------------------------------------------------------=
   JOB DONE.
=------------------------------------------------------------------------------=
