
     Program PWSCF v.7.5 starts on 22Sep2026 at 21:33:40 

     This program is part of the open-source Quantum ESPRESSO suite
     for quantum simulation of materials; please cite
         "P. Giannozzi et al., J. Phys.:Condens. Matter 21 395502 (2009);
         "P. Giannozzi et al., J. Phys.:Condens. Matter 29 465901 (2017);
         "P. Giannozzi et al., J. Chem. Phys. 152 154105 (2020);
          URL http://www.quantum-espresso.org", 
     in publications or presentations arising from this work. More details at
     http://www.quantum-espresso.org/quote

     Parallel version (MPI), running on     4 processors

     MPI processes distributed on     1 nodes
     7566 MiB available memory on the printing compute node when the environment starts

     Reading input from scf.in

     Current dimensions of program PWSCF are:
     Max number of different atomic species (ntypx) = 10
     Max number of k-points (npk) =  40000
     Max angular momentum in pseudopotentials (lmaxx) =  4

     R & G space division:  proc/nbgrp/npool/nimage =       4
     Subspace diagonalization in iterative solution of the eigenvalue problem:
     a serial algorithm will be used


     Parallelization info
     --------------------
     sticks:   dense  smooth     PW     G-vecs:    dense   smooth      PW
     Min         571     214     63                18093     4156     682
     Max         572     217     64                18095     4157     686
     Sum        2287     859    253                72377    16625    2733

     Using Slab Decomposition



     bravais-lattice index     =            2
     lattice parameter (alat)  =      10.2000  a.u.
     unit-cell volume          =     265.3020 (a.u.)^3
     number of atoms/cell      =            2
     number of atomic types    =            1
     number of electrons       =         8.00
     number of Kohn-Sham states=            4
     kinetic-energy cutoff     =      60.0000  Ry
     charge density cutoff     =     640.0000  Ry
     scf convergence threshold =      1.0E-10
     mixing beta               =       0.7000
     number of iterations used =            8  plain     mixing
     Exchange-correlation= PBE
                           (   1   4   3   4   0   0   0)

     celldm(1)=  10.200000  celldm(2)=   0.000000  celldm(3)=   0.000000
     celldm(4)=   0.000000  celldm(5)=   0.000000  celldm(6)=   0.000000

     crystal axes: (cart. coord. in units of alat)
               a(1) = (  -0.500000   0.000000   0.500000 )  
               a(2) = (   0.000000   0.500000   0.500000 )  
               a(3) = (  -0.500000   0.500000   0.000000 )  

     reciprocal axes: (cart. coord. in units 2 pi/alat)
               b(1) = ( -1.000000 -1.000000  1.000000 )  
               b(2) = (  1.000000  1.000000  1.000000 )  
               b(3) = ( -1.000000  1.000000 -1.000000 )  


     PseudoPot. # 1 for Si read from file:
     ../pseudo/Si.pbe-n-rrkjus_psl.1.0.0.UPF
     MD5 check sum: fa25574f73a70a4139f2adfbefec430c
     Pseudo is Ultrasoft + core correction, Zval =  4.0
     Generated using &quot;atomic&quot; code by A. Dal Corso  v.6.3
     Using radial grid of 1141 points,  6 beta functions with: 
                l(1) =   0
                l(2) =   0
                l(3) =   1
                l(4) =   1
                l(5) =   2
                l(6) =   2
     Q(r) pseudized with 0 coefficients 


     atomic species   valence    mass     pseudopotential
     Si                4.00    28.08500     Si( 1.00)

     48 Sym. Ops., with inversion, found (24 have fractional translation)



   Cartesian axes

     site n.     atom                  positions (alat units)
         1        Si     tau(   1) = (   0.0000000   0.0000000   0.0000000  )
         2        Si     tau(   2) = (   0.2500000   0.2500000   0.2500000  )

     number of k points=    16
                       cart. coord. in units 2pi/alat
        k(    1) = (   0.0000000   0.0000000   0.0000000), wk =   0.0092593
        k(    2) = (  -0.1666667   0.1666667  -0.1666667), wk =   0.0740741
        k(    3) = (  -0.3333333   0.3333333  -0.3333333), wk =   0.0740741
        k(    4) = (   0.5000000  -0.5000000   0.5000000), wk =   0.0370370
        k(    5) = (   0.0000000   0.3333333   0.0000000), wk =   0.0555556
        k(    6) = (  -0.1666667   0.5000000  -0.1666667), wk =   0.2222222
        k(    7) = (   0.6666667  -0.3333333   0.6666667), wk =   0.2222222
        k(    8) = (   0.5000000  -0.1666667   0.5000000), wk =   0.2222222
        k(    9) = (   0.3333333   0.0000000   0.3333333), wk =   0.1111111
        k(   10) = (   0.0000000   0.6666667   0.0000000), wk =   0.0555556
        k(   11) = (   0.8333333  -0.1666667   0.8333333), wk =   0.2222222
        k(   12) = (   0.6666667  -0.0000000   0.6666667), wk =   0.1111111
        k(   13) = (   0.0000000  -1.0000000   0.0000000), wk =   0.0277778
        k(   14) = (   0.6666667  -0.3333333   1.0000000), wk =   0.2222222
        k(   15) = (   0.5000000  -0.1666667   0.8333333), wk =   0.2222222
        k(   16) = (  -0.3333333  -1.0000000   0.0000000), wk =   0.1111111

     Dense  grid:    72377 G-vectors     FFT dimensions: (  60,  60,  60)

     Smooth grid:    16625 G-vectors     FFT dimensions: (  36,  36,  36)

     Estimated max dynamical RAM per process >      69.48 MB

     Estimated total dynamical RAM >     277.91 MB

     Initial potential from superposition of free atoms

     starting charge       7.9989, renormalised to       8.0000
     Starting wfcs are    8 randomized atomic wfcs

     total cpu time spent up to now is        8.3 secs

     per-process dynamical memory:    25.5 Mb

     Self-consistent Calculation

     iteration #  1     ecut=    60.00 Ry     beta= 0.70
     Davidson diagonalization with overlap
     ethr =  1.00E-02,  avg # of iterations =  2.0

     Threshold (ethr) on eigenvalues was too large:
     Diagonalizing with lowered threshold

     Davidson diagonalization with overlap
     ethr =  6.51E-04,  avg # of iterations =  1.4

     total cpu time spent up to now is       21.4 secs

     total energy              =     -22.83429605 Ry
     estimated scf accuracy    <       0.05612382 Ry

     iteration #  2     ecut=    60.00 Ry     beta= 0.70
     Davidson diagonalization with overlap
     ethr =  7.02E-04,  avg # of iterations =  1.0

     total cpu time spent up to now is       28.1 secs

     total energy              =     -22.83620568 Ry
     estimated scf accuracy    <       0.00295259 Ry

     iteration #  3     ecut=    60.00 Ry     beta= 0.70
     Davidson diagonalization with overlap
     ethr =  3.69E-05,  avg # of iterations =  3.0

     total cpu time spent up to now is       37.2 secs

     total energy              =     -22.83702631 Ry
     estimated scf accuracy    <       0.00012002 Ry

     iteration #  4     ecut=    60.00 Ry     beta= 0.70
     Davidson diagonalization with overlap
     ethr =  1.50E-06,  avg # of iterations =  3.6

     total cpu time spent up to now is       47.2 secs

     total energy              =     -22.83708670 Ry
     estimated scf accuracy    <       0.00002521 Ry

     iteration #  5     ecut=    60.00 Ry     beta= 0.70
     Davidson diagonalization with overlap
     ethr =  3.15E-07,  avg # of iterations =  2.5

     total cpu time spent up to now is       56.6 secs

     total energy              =     -22.83709315 Ry
     estimated scf accuracy    <       0.00000021 Ry

     iteration #  6     ecut=    60.00 Ry     beta= 0.70
     Davidson diagonalization with overlap
     ethr =  2.58E-09,  avg # of iterations =  7.1

     total cpu time spent up to now is       73.1 secs

     total energy              =     -22.83709391 Ry
     estimated scf accuracy    <       0.00000008 Ry

     iteration #  7     ecut=    60.00 Ry     beta= 0.70
     Davidson diagonalization with overlap
     ethr =  9.43E-10,  avg # of iterations =  2.4

     total cpu time spent up to now is       82.5 secs

     total energy              =     -22.83709392 Ry
     estimated scf accuracy    <          9.6E-09 Ry

     iteration #  8     ecut=    60.00 Ry     beta= 0.70
     Davidson diagonalization with overlap
     ethr =  1.20E-10,  avg # of iterations =  2.6

     total cpu time spent up to now is       90.7 secs

     End of self-consistent calculation

          k = 0.0000 0.0000 0.0000 (  2085 PWs)   bands (ev):

    -5.6873   6.4036   6.4036   6.4036

          k =-0.1667 0.1667-0.1667 (  2088 PWs)   bands (ev):

    -5.3203   4.0056   5.9444   5.9444

          k =-0.3333 0.3333-0.3333 (  2090 PWs)   bands (ev):

    -4.2870   1.0107   5.3870   5.3870

          k = 0.5000-0.5000 0.5000 (  2060 PWs)   bands (ev):

    -3.3091  -0.6570   5.1868   5.1868

          k = 0.0000 0.3333 0.0000 (  2061 PWs)   bands (ev):

    -5.1956   4.3792   5.1850   5.1850

          k =-0.1667 0.5000-0.1667 (  2078 PWs)   bands (ev):

    -4.3668   1.9365   4.3823   4.6238

          k = 0.6667-0.3333 0.6667 (  2078 PWs)   bands (ev):

    -3.1501  -0.2757   3.5868   4.5953

          k = 0.5000-0.1667 0.5000 (  2082 PWs)   bands (ev):

    -3.5442   0.3365   3.3068   5.0845

          k = 0.3333 0.0000 0.3333 (  2083 PWs)   bands (ev):

    -4.7225   2.6675   3.9415   5.8313

          k = 0.0000 0.6667 0.0000 (  2080 PWs)   bands (ev):

    -3.7528   1.3742   3.9406   3.9406

          k = 0.8333-0.1667 0.8333 (  2092 PWs)   bands (ev):

    -2.5679  -0.2046   2.6980   3.8027

          k = 0.6667-0.0000 0.6667 (  2079 PWs)   bands (ev):

    -2.3633  -0.4179   1.8998   4.2534

          k = 0.0000-1.0000 0.0000 (  2100 PWs)   bands (ev):

    -1.4761  -1.4761   3.4995   3.4995

          k = 0.6667-0.3333 1.0000 (  2092 PWs)   bands (ev):

    -3.3594   0.7274   2.7635   4.0626

          k = 0.5000-0.1667 0.8333 (  2088 PWs)   bands (ev):

    -2.3525  -0.4971   2.3189   3.5843

          k =-0.3333-1.0000 0.0000 (  2090 PWs)   bands (ev):

    -1.3501  -1.3501   2.6832   2.6832

     highest occupied level (ev):     6.4036

!    total energy              =     -22.83709393 Ry
     estimated scf accuracy    <          1.1E-11 Ry

     The total energy is the sum of the following terms:
     one-electron contribution =       5.30746834 Ry
     hartree contribution      =       1.08885731 Ry
     xc contribution           =     -12.33366100 Ry
     ewald contribution        =     -16.89975857 Ry

     convergence has been achieved in   8 iterations

     Forces acting on atoms (cartesian axes, Ry/au):

     atom    1 type  1   force =     0.00000000    0.00000000    0.00000000
     atom    2 type  1   force =     0.00000000    0.00000000    0.00000000

     Total force =     0.000000     Total SCF correction =     0.000000


     Computing stress (Cartesian axis) and pressure

          total   stress  (Ry/bohr**3)                   (kbar)     P=       39.20
   0.00026650   0.00000000   0.00000000           39.20        0.00        0.00
   0.00000000   0.00026650  -0.00000000            0.00       39.20       -0.00
   0.00000000  -0.00000000   0.00026650            0.00       -0.00       39.20


     Writing all to output data dir ./tmp/si.save/ :
     XML data file, charge density, pseudopotentials, collected wavefunctions

     init_run     :      1.91s CPU      6.62s WALL (       1 calls)
     electrons    :     23.31s CPU     82.71s WALL (       1 calls)
     forces       :      0.57s CPU      2.09s WALL (       1 calls)
     stress       :      1.91s CPU      6.97s WALL (       1 calls)

     Called by init_run:
     wfcinit      :      0.77s CPU      2.76s WALL (       1 calls)
     potinit      :      0.23s CPU      0.79s WALL (       1 calls)
     hinit0       :      0.43s CPU      1.50s WALL (       1 calls)

     Called by electrons:
     c_bands      :     18.66s CPU     65.10s WALL (       9 calls)
     sum_band     :      3.07s CPU     11.30s WALL (       9 calls)
     v_of_rho     :      0.60s CPU      2.16s WALL (       9 calls)
     newd         :      0.66s CPU      3.06s WALL (       9 calls)
     mix_rho      :      0.22s CPU      0.76s WALL (       9 calls)

     Called by c_bands:
     init_us_2    :      0.06s CPU      0.09s WALL (     336 calls)
     cegterg      :     17.89s CPU     62.48s WALL (     144 calls)

     Called by *egterg:
     cdiaghg      :      0.87s CPU      3.14s WALL (     538 calls)
     h_psi        :     11.17s CPU     38.89s WALL (     570 calls)
     s_psi        :      0.11s CPU      0.19s WALL (     570 calls)
     g_psi        :      0.00s CPU      0.00s WALL (     410 calls)

     Called by h_psi:
     h_psi:calbec :      2.64s CPU      9.10s WALL (     570 calls)
     vloc_psi     :      8.40s CPU     29.55s WALL (     570 calls)
                                        0.00s GPU  (     570 calls)
     add_vuspsi   :      0.12s CPU      0.24s WALL (     570 calls)

     General routines
     calbec       :      4.84s CPU     16.83s WALL (     986 calls)
     fft          :      0.59s CPU      2.24s WALL (     141 calls)
     ffts         :      0.17s CPU      0.57s WALL (      18 calls)
     fftw         :      9.78s CPU     34.58s WALL (    4460 calls)
     interpolate  :      0.17s CPU      0.59s WALL (       9 calls)

     Parallel routines

     PWSCF        :     28.61s CPU   1m41.33s WALL


   This run was terminated on:  21:35:22  22Sep2026            

=------------------------------------------------------------------------------=
   JOB DONE.
=------------------------------------------------------------------------------=
