ANIMSTEPS 36
CRYSTAL
PRIMVEC
3.358477197989 0.000000000000 0.000000000000
-1.679238598995 2.908526572213 0.000000000000
0.000000000000 0.000000000000 39.999999726482
PRIMCOORD 1
6 1
Zr 1.683780754080 1.048276372702 22.745373920114
C -0.005713679556 -0.099083438273 17.688482090862
Cl 0.004725124666 2.020958192259 24.479543400375
Cl -0.000702593732 1.926833732608 20.802727333525
Sc -0.005756969875 1.839183565721 16.567204594516
Sc 1.674133274383 0.880975170422 18.892666314521
PRIMCOORD 2
6 1
Zr 1.683711748539 1.047079717151 22.745373920114
C -0.005626875925 -0.097578138207 17.688482090862
Cl 0.004653339400 2.019713332285 24.479543400375
Cl -0.000691919759 1.927018834673 20.802727333525
Sc -0.005669508572 1.840700270770 16.567204594516
Sc 1.674210835735 0.882320196058 18.892666314521
PRIMCOORD 3
6 1
Zr 1.683506828611 1.043526110273 22.745373920114
C -0.005369102516 -0.093107975788 17.688482090862
Cl 0.004440164760 2.016016576805 24.479543400375
Cl -0.000660222165 1.927568516636 20.802727333525
Sc -0.005409782130 1.845204301602 16.567204594516
Sc 1.674441163130 0.886314405042 18.892666314521
PRIMCOORD 4
6 1
Zr 1.683172220687 1.037723526615 22.745373920114
C -0.004948191644 -0.085808774639 17.688482090862
Cl 0.004092077952 2.009980249864 24.479543400375
Cl -0.000608464065 1.928466076688 20.802727333525
Sc -0.004985682205 1.852558805519 16.567204594516
Sc 1.674817258186 0.892836435357 18.892666314521
PRIMCOORD 5
6 1
Zr 1.682718091658 1.029848274744 22.745373920114
C -0.004376932473 -0.075902317294 17.688482090862
Cl 0.003619655415 2.001787762200 24.479543400375
Cl -0.000538218103 1.929684242922 20.802727333525
Sc -0.004410094860 1.862540319640 16.567204594516
Sc 1.675327693446 0.901688118410 18.892666314521
PRIMCOORD 6
6 1
Zr 1.682158240005 1.020139640203 22.745373920114
C -0.003672682424 -0.063689606447 17.688482090862
Cl 0.003037251469 1.991688038405 24.479543400375
Cl -0.000451618665 1.931186001973 20.802727333525
Sc -0.003700509025 1.874845560712 16.567204594516
Sc 1.675956959591 0.912600500292 18.892666314521
PRIMCOORD 7
6 1
Zr 1.681509676538 1.008892614941 22.745373920114
C -0.002856839778 -0.049541719137 17.688482090862
Cl 0.002362562165 1.979987953478 24.479543400375
Cl -0.000351297034 1.932925723652 20.802727333525
Sc -0.002878485105 1.889100640209 16.567204594516
Sc 1.676685936689 0.925242013801 18.892666314521
PRIMCOORD 8
6 1
Zr 1.680792107528 0.996448934128 22.745373920114
C -0.001954193501 -0.033888531759 17.688482090862
Cl 0.001616087594 1.967043008577 24.479543400375
Cl -0.000240301430 1.934850547396 20.802727333525
Sc -0.001968999883 1.904872424755 16.567204594516
Sc 1.677492475139 0.939228552946 18.892666314521
PRIMCOORD 9
6 1
Zr 1.680027335948 0.983186692710 22.745373920114
C -0.000992170043 -0.017205658493 17.688482090862
Cl 0.000820509010 1.953246529303 24.479543400375
Cl -0.000122004399 1.936901988410 20.802727333525
Sc -0.000999687605 1.921681696658 16.567204594516
Sc 1.678352068679 0.954135143813 18.892666314521
PRIMCOORD 10
6 1
Zr 1.679238598995 0.969508857181 22.745373920114
C -0.000000000000 -0.000000000000 17.688482090862
Cl -0.000000000336 1.939017714697 24.479543400375
Cl -0.000000000336 1.939017714697 20.802727333525
Sc -0.000000000336 1.939017714697 16.567204594516
Sc 1.679238598995 0.969508857181 18.892666314521
PRIMCOORD 11
6 1
Zr 1.678449862041 0.955831021651 22.745373920114
C 0.000992170043 0.017205658493 17.688482090862
Cl -0.000820509682 1.924788900091 24.479543400375
Cl 0.000122003727 1.941133440983 20.802727333525
Sc 0.000999686933 1.956353732736 16.567204594516
Sc 1.680125129310 0.984882570548 18.892666314521
PRIMCOORD 12
6 1
Zr 1.677685090461 0.942568780233 22.745373920114
C 0.001954193501 0.033888531759 17.688482090862
Cl -0.001616088266 1.910992420817 24.479543400375
Cl 0.000240300758 1.943184881997 20.802727333525
Sc 0.001968999211 1.973163004638 16.567204594516
Sc 1.680984722850 0.999789161415 18.892666314521
PRIMCOORD 13
6 1
Zr 1.676967521452 0.930125099420 22.745373920114
C 0.002856839778 0.049541719137 17.688482090862
Cl -0.002362562837 1.898047475916 24.479543400375
Cl 0.000351296362 1.945109705742 20.802727333525
Sc 0.002878484434 1.988934789185 16.567204594516
Sc 1.681791261300 1.013775700560 18.892666314521
PRIMCOORD 14
6 1
Zr 1.676318957984 0.918878074158 22.745373920114
C 0.003672682424 0.063689606447 17.688482090862
Cl -0.003037252141 1.886347390988 24.479543400375
Cl 0.000451617994 1.946849427421 20.802727333525
Sc 0.003700508353 2.003189868682 16.567204594516
Sc 1.682520238398 1.026417214069 18.892666314521
PRIMCOORD 15
6 1
Zr 1.675759106331 0.909169439617 22.745373920114
C 0.004376932473 0.075902317294 17.688482090862
Cl -0.003619656086 1.876247667194 24.479543400375
Cl 0.000538217431 1.948351186472 20.802727333525
Sc 0.004410094189 2.015495109753 16.567204594516
Sc 1.683149504544 1.037329595951 18.892666314521
PRIMCOORD 16
6 1
Zr 1.675304977302 0.901294187746 22.745373920114
C 0.004948191644 0.085808774639 17.688482090862
Cl -0.004092078623 1.868055179530 24.479543400375
Cl 0.000608463393 1.949569352706 20.802727333525
Sc 0.004985681534 2.025476623875 16.567204594516
Sc 1.683659939803 1.046181279004 18.892666314521
PRIMCOORD 17
6 1
Zr 1.674970369378 0.895491604088 22.745373920114
C 0.005369102516 0.093107975788 17.688482090862
Cl -0.004440165432 1.862018852589 24.479543400375
Cl 0.000660221494 1.950466912758 20.802727333525
Sc 0.005409781458 2.032831127792 16.567204594516
Sc 1.684036034859 1.052703309319 18.892666314521
PRIMCOORD 18
6 1
Zr 1.674765449451 0.891937997210 22.745373920114
C 0.005626875925 0.097578138207 17.688482090862
Cl -0.004653340071 1.858322097109 24.479543400375
Cl 0.000691919088 1.951016594721 20.802727333525
Sc 0.005669507900 2.037335158624 16.567204594516
Sc 1.684266362254 1.056697518303 18.892666314521
PRIMCOORD 19
6 1
Zr 1.674696443909 0.890741341659 22.745373920114
C 0.005713679556 0.099083438273 17.688482090862
Cl -0.004725125337 1.857077237135 24.479543400375
Cl 0.000702593060 1.951201696786 20.802727333525
Sc 0.005756969203 2.038851863673 16.567204594516
Sc 1.684343923606 1.058042543939 18.892666314521
PRIMCOORD 20
6 1
Zr 1.674765449451 0.891937997210 22.745373920114
C 0.005626875925 0.097578138207 17.688482090862
Cl -0.004653340071 1.858322097109 24.479543400375
Cl 0.000691919088 1.951016594721 20.802727333525
Sc 0.005669507900 2.037335158624 16.567204594516
Sc 1.684266362254 1.056697518303 18.892666314521
PRIMCOORD 21
6 1
Zr 1.674970369378 0.895491604088 22.745373920114
C 0.005369102516 0.093107975788 17.688482090862
Cl -0.004440165432 1.862018852589 24.479543400375
Cl 0.000660221494 1.950466912758 20.802727333525
Sc 0.005409781458 2.032831127792 16.567204594516
Sc 1.684036034859 1.052703309319 18.892666314521
PRIMCOORD 22
6 1
Zr 1.675304977302 0.901294187746 22.745373920114
C 0.004948191644 0.085808774639 17.688482090862
Cl -0.004092078623 1.868055179530 24.479543400375
Cl 0.000608463393 1.949569352706 20.802727333525
Sc 0.004985681534 2.025476623875 16.567204594516
Sc 1.683659939803 1.046181279004 18.892666314521
PRIMCOORD 23
6 1
Zr 1.675759106331 0.909169439617 22.745373920114
C 0.004376932473 0.075902317294 17.688482090862
Cl -0.003619656086 1.876247667194 24.479543400375
Cl 0.000538217431 1.948351186472 20.802727333525
Sc 0.004410094189 2.015495109753 16.567204594516
Sc 1.683149504544 1.037329595951 18.892666314521
PRIMCOORD 24
6 1
Zr 1.676318957984 0.918878074158 22.745373920114
C 0.003672682424 0.063689606447 17.688482090862
Cl -0.003037252141 1.886347390988 24.479543400375
Cl 0.000451617994 1.946849427421 20.802727333525
Sc 0.003700508353 2.003189868682 16.567204594516
Sc 1.682520238398 1.026417214069 18.892666314521
PRIMCOORD 25
6 1
Zr 1.676967521452 0.930125099420 22.745373920114
C 0.002856839778 0.049541719137 17.688482090862
Cl -0.002362562837 1.898047475916 24.479543400375
Cl 0.000351296362 1.945109705742 20.802727333525
Sc 0.002878484434 1.988934789185 16.567204594516
Sc 1.681791261300 1.013775700560 18.892666314521
PRIMCOORD 26
6 1
Zr 1.677685090461 0.942568780233 22.745373920114
C 0.001954193501 0.033888531759 17.688482090862
Cl -0.001616088266 1.910992420817 24.479543400375
Cl 0.000240300758 1.943184881997 20.802727333525
Sc 0.001968999211 1.973163004638 16.567204594516
Sc 1.680984722850 0.999789161415 18.892666314521
PRIMCOORD 27
6 1
Zr 1.678449862041 0.955831021651 22.745373920114
C 0.000992170043 0.017205658493 17.688482090862
Cl -0.000820509682 1.924788900091 24.479543400375
Cl 0.000122003727 1.941133440983 20.802727333525
Sc 0.000999686933 1.956353732736 16.567204594516
Sc 1.680125129310 0.984882570548 18.892666314521
PRIMCOORD 28
6 1
Zr 1.679238598995 0.969508857181 22.745373920114
C 0.000000000000 0.000000000000 17.688482090862
Cl -0.000000000336 1.939017714697 24.479543400375
Cl -0.000000000336 1.939017714697 20.802727333525
Sc -0.000000000336 1.939017714697 16.567204594516
Sc 1.679238598995 0.969508857181 18.892666314521
PRIMCOORD 29
6 1
Zr 1.680027335948 0.983186692710 22.745373920114
C -0.000992170043 -0.017205658493 17.688482090862
Cl 0.000820509010 1.953246529303 24.479543400375
Cl -0.000122004399 1.936901988410 20.802727333525
Sc -0.000999687605 1.921681696658 16.567204594516
Sc 1.678352068679 0.954135143813 18.892666314521
PRIMCOORD 30
6 1
Zr 1.680792107528 0.996448934128 22.745373920114
C -0.001954193501 -0.033888531759 17.688482090862
Cl 0.001616087594 1.967043008577 24.479543400375
Cl -0.000240301430 1.934850547396 20.802727333525
Sc -0.001968999883 1.904872424755 16.567204594516
Sc 1.677492475139 0.939228552946 18.892666314521
PRIMCOORD 31
6 1
Zr 1.681509676538 1.008892614941 22.745373920114
C -0.002856839778 -0.049541719137 17.688482090862
Cl 0.002362562165 1.979987953478 24.479543400375
Cl -0.000351297034 1.932925723652 20.802727333525
Sc -0.002878485105 1.889100640209 16.567204594516
Sc 1.676685936689 0.925242013801 18.892666314521
PRIMCOORD 32
6 1
Zr 1.682158240005 1.020139640203 22.745373920114
C -0.003672682424 -0.063689606447 17.688482090862
Cl 0.003037251469 1.991688038405 24.479543400375
Cl -0.000451618665 1.931186001973 20.802727333525
Sc -0.003700509025 1.874845560712 16.567204594516
Sc 1.675956959591 0.912600500292 18.892666314521
PRIMCOORD 33
6 1
Zr 1.682718091658 1.029848274744 22.745373920114
C -0.004376932473 -0.075902317294 17.688482090862
Cl 0.003619655415 2.001787762200 24.479543400375
Cl -0.000538218103 1.929684242922 20.802727333525
Sc -0.004410094860 1.862540319640 16.567204594516
Sc 1.675327693446 0.901688118410 18.892666314521
PRIMCOORD 34
6 1
Zr 1.683172220687 1.037723526615 22.745373920114
C -0.004948191644 -0.085808774639 17.688482090862
Cl 0.004092077952 2.009980249864 24.479543400375
Cl -0.000608464065 1.928466076688 20.802727333525
Sc -0.004985682205 1.852558805519 16.567204594516
Sc 1.674817258186 0.892836435357 18.892666314521
PRIMCOORD 35
6 1
Zr 1.683506828611 1.043526110273 22.745373920114
C -0.005369102516 -0.093107975788 17.688482090862
Cl 0.004440164760 2.016016576805 24.479543400375
Cl -0.000660222165 1.927568516636 20.802727333525
Sc -0.005409782130 1.845204301602 16.567204594516
Sc 1.674441163130 0.886314405042 18.892666314521
PRIMCOORD 36
6 1
Zr 1.683711748539 1.047079717151 22.745373920114
C -0.005626875925 -0.097578138207 17.688482090862
Cl 0.004653339400 2.019713332285 24.479543400375
Cl -0.000691919759 1.927018834673 20.802727333525
Sc -0.005669508572 1.840700270770 16.567204594516
Sc 1.674210835735 0.882320196058 18.892666314521
