ANIMSTEPS 36
CRYSTAL
PRIMVEC
3.358477197989 0.000000000000 0.000000000000
-1.679238598995 2.908526572213 0.000000000000
0.000000000000 0.000000000000 39.999999726482
PRIMCOORD 1
6 1
Zr 1.679238598995 0.969508857181 22.668840130358
C -0.000000000000 -0.000000000000 17.788482090862
Cl -0.000000000336 1.939017714697 24.398991511226
Cl -0.000000000336 1.939017714697 20.829108895193
Sc -0.000000000336 1.939017714697 16.656178222273
Sc 1.679238598995 0.969508857181 18.974992547648
PRIMCOORD 2
6 1
Zr 1.679238598995 0.969508857181 22.670002850595
C -0.000000000000 -0.000000000000 17.786962866163
Cl -0.000000000336 1.939017714697 24.400215275421
Cl -0.000000000336 1.939017714697 20.828708099992
Sc -0.000000000336 1.939017714697 16.654826512945
Sc 1.679238598995 0.969508857181 18.973741827181
PRIMCOORD 3
6 1
Zr 1.679238598995 0.969508857181 22.673455682639
C -0.000000000000 -0.000000000000 17.782451352941
Cl -0.000000000336 1.939017714697 24.403849384551
Cl -0.000000000336 1.939017714697 20.827517892349
Sc -0.000000000336 1.939017714697 16.650812455964
Sc 1.679238598995 0.969508857181 18.970027668288
PRIMCOORD 4
6 1
Zr 1.679238598995 0.969508857181 22.679093713937
C -0.000000000000 -0.000000000000 17.775084631241
Cl -0.000000000336 1.939017714697 24.409783418049
Cl -0.000000000336 1.939017714697 20.825574436121
Sc -0.000000000336 1.939017714697 16.644258016420
Sc 1.679238598995 0.969508857181 18.963962923807
PRIMCOORD 5
6 1
Zr 1.679238598995 0.969508857181 22.686745635760
C -0.000000000000 -0.000000000000 17.765086535174
Cl -0.000000000336 1.939017714697 24.417837073310
Cl -0.000000000336 1.939017714697 20.822936782242
Sc -0.000000000336 1.939017714697 16.635362347643
Sc 1.679238598995 0.969508857181 18.955731867931
PRIMCOORD 6
6 1
Zr 1.679238598995 0.969508857181 22.696178948336
C -0.000000000000 -0.000000000000 17.752760851831
Cl -0.000000000336 1.939017714697 24.427765644093
Cl -0.000000000336 1.939017714697 20.819685074490
Sc -0.000000000336 1.939017714697 16.624395740027
Sc 1.679238598995 0.969508857181 18.945584597127
PRIMCOORD 7
6 1
Zr 1.679238598995 0.969508857181 22.707107025236
C -0.000000000000 -0.000000000000 17.738482090862
Cl -0.000000000336 1.939017714697 24.439267455801
Cl -0.000000000336 1.939017714697 20.815918114359
Sc -0.000000000336 1.939017714697 16.611691408394
Sc 1.679238598995 0.969508857181 18.933829431084
PRIMCOORD 8
6 1
Zr 1.679238598995 0.969508857181 22.719197822372
C -0.000000000000 -0.000000000000 17.722684105195
Cl -0.000000000336 1.939017714697 24.451993031703
Cl -0.000000000336 1.939017714697 20.811750359028
Sc -0.000000000336 1.939017714697 16.597635367433
Sc 1.679238598995 0.969508857181 18.920823544574
PRIMCOORD 9
6 1
Zr 1.679238598995 0.969508857181 22.732083966993
C -0.000000000000 -0.000000000000 17.705846908629
Cl -0.000000000336 1.939017714697 24.465555711617
Cl -0.000000000336 1.939017714697 20.807308443633
Sc -0.000000000336 1.939017714697 16.582654702836
Sc 1.679238598995 0.969508857181 18.906962114877
PRIMCOORD 10
6 1
Zr 1.679238598995 0.969508857181 22.745373920114
C -0.000000000000 -0.000000000000 17.688482090862
Cl -0.000000000336 1.939017714697 24.479543400375
Cl -0.000000000336 1.939017714697 20.802727333525
Sc -0.000000000336 1.939017714697 16.567204594516
Sc 1.679238598995 0.969508857181 18.892666314521
PRIMCOORD 11
6 1
Zr 1.679238598995 0.969508857181 22.758663873235
C 0.000000000000 0.000000000000 17.671117273095
Cl -0.000000000336 1.939017714697 24.493531089134
Cl -0.000000000336 1.939017714697 20.798146223418
Sc -0.000000000336 1.939017714697 16.551754486195
Sc 1.679238598995 0.969508857181 18.878370514164
PRIMCOORD 12
6 1
Zr 1.679238598995 0.969508857181 22.771550017856
C 0.000000000000 0.000000000000 17.654280076530
Cl -0.000000000336 1.939017714697 24.507093769047
Cl -0.000000000336 1.939017714697 20.793704308023
Sc -0.000000000336 1.939017714697 16.536773821598
Sc 1.679238598995 0.969508857181 18.864509084467
PRIMCOORD 13
6 1
Zr 1.679238598995 0.969508857181 22.783640814992
C 0.000000000000 0.000000000000 17.638482090862
Cl -0.000000000336 1.939017714697 24.519819344950
Cl -0.000000000336 1.939017714697 20.789536552692
Sc -0.000000000336 1.939017714697 16.522717780637
Sc 1.679238598995 0.969508857181 18.851503197957
PRIMCOORD 14
6 1
Zr 1.679238598995 0.969508857181 22.794568891891
C 0.000000000000 0.000000000000 17.624203329893
Cl -0.000000000336 1.939017714697 24.531321156658
Cl -0.000000000336 1.939017714697 20.785769592561
Sc -0.000000000336 1.939017714697 16.510013449005
Sc 1.679238598995 0.969508857181 18.839748031914
PRIMCOORD 15
6 1
Zr 1.679238598995 0.969508857181 22.804002204467
C 0.000000000000 0.000000000000 17.611877646550
Cl -0.000000000336 1.939017714697 24.541249727441
Cl -0.000000000336 1.939017714697 20.782517884809
Sc -0.000000000336 1.939017714697 16.499046841388
Sc 1.679238598995 0.969508857181 18.829600761110
PRIMCOORD 16
6 1
Zr 1.679238598995 0.969508857181 22.811654126291
C 0.000000000000 0.000000000000 17.601879550484
Cl -0.000000000336 1.939017714697 24.549303382702
Cl -0.000000000336 1.939017714697 20.779880230930
Sc -0.000000000336 1.939017714697 16.490151172611
Sc 1.679238598995 0.969508857181 18.821369705234
PRIMCOORD 17
6 1
Zr 1.679238598995 0.969508857181 22.817292157588
C 0.000000000000 0.000000000000 17.594512828783
Cl -0.000000000336 1.939017714697 24.555237416200
Cl -0.000000000336 1.939017714697 20.777936774702
Sc -0.000000000336 1.939017714697 16.483596733068
Sc 1.679238598995 0.969508857181 18.815304960753
PRIMCOORD 18
6 1
Zr 1.679238598995 0.969508857181 22.820744989633
C 0.000000000000 0.000000000000 17.590001315561
Cl -0.000000000336 1.939017714697 24.558871525330
Cl -0.000000000336 1.939017714697 20.776746567059
Sc -0.000000000336 1.939017714697 16.479582676087
Sc 1.679238598995 0.969508857181 18.811590801860
PRIMCOORD 19
6 1
Zr 1.679238598995 0.969508857181 22.821907709870
C 0.000000000000 0.000000000000 17.588482090862
Cl -0.000000000336 1.939017714697 24.560095289525
Cl -0.000000000336 1.939017714697 20.776345771858
Sc -0.000000000336 1.939017714697 16.478230966759
Sc 1.679238598995 0.969508857181 18.810340081393
PRIMCOORD 20
6 1
Zr 1.679238598995 0.969508857181 22.820744989633
C 0.000000000000 0.000000000000 17.590001315561
Cl -0.000000000336 1.939017714697 24.558871525330
Cl -0.000000000336 1.939017714697 20.776746567059
Sc -0.000000000336 1.939017714697 16.479582676087
Sc 1.679238598995 0.969508857181 18.811590801860
PRIMCOORD 21
6 1
Zr 1.679238598995 0.969508857181 22.817292157588
C 0.000000000000 0.000000000000 17.594512828783
Cl -0.000000000336 1.939017714697 24.555237416200
Cl -0.000000000336 1.939017714697 20.777936774702
Sc -0.000000000336 1.939017714697 16.483596733068
Sc 1.679238598995 0.969508857181 18.815304960753
PRIMCOORD 22
6 1
Zr 1.679238598995 0.969508857181 22.811654126291
C 0.000000000000 0.000000000000 17.601879550484
Cl -0.000000000336 1.939017714697 24.549303382702
Cl -0.000000000336 1.939017714697 20.779880230930
Sc -0.000000000336 1.939017714697 16.490151172611
Sc 1.679238598995 0.969508857181 18.821369705234
PRIMCOORD 23
6 1
Zr 1.679238598995 0.969508857181 22.804002204467
C 0.000000000000 0.000000000000 17.611877646550
Cl -0.000000000336 1.939017714697 24.541249727441
Cl -0.000000000336 1.939017714697 20.782517884809
Sc -0.000000000336 1.939017714697 16.499046841388
Sc 1.679238598995 0.969508857181 18.829600761110
PRIMCOORD 24
6 1
Zr 1.679238598995 0.969508857181 22.794568891891
C 0.000000000000 0.000000000000 17.624203329893
Cl -0.000000000336 1.939017714697 24.531321156658
Cl -0.000000000336 1.939017714697 20.785769592561
Sc -0.000000000336 1.939017714697 16.510013449005
Sc 1.679238598995 0.969508857181 18.839748031914
PRIMCOORD 25
6 1
Zr 1.679238598995 0.969508857181 22.783640814992
C 0.000000000000 0.000000000000 17.638482090862
Cl -0.000000000336 1.939017714697 24.519819344950
Cl -0.000000000336 1.939017714697 20.789536552692
Sc -0.000000000336 1.939017714697 16.522717780637
Sc 1.679238598995 0.969508857181 18.851503197957
PRIMCOORD 26
6 1
Zr 1.679238598995 0.969508857181 22.771550017856
C 0.000000000000 0.000000000000 17.654280076530
Cl -0.000000000336 1.939017714697 24.507093769047
Cl -0.000000000336 1.939017714697 20.793704308023
Sc -0.000000000336 1.939017714697 16.536773821598
Sc 1.679238598995 0.969508857181 18.864509084467
PRIMCOORD 27
6 1
Zr 1.679238598995 0.969508857181 22.758663873235
C 0.000000000000 0.000000000000 17.671117273095
Cl -0.000000000336 1.939017714697 24.493531089134
Cl -0.000000000336 1.939017714697 20.798146223418
Sc -0.000000000336 1.939017714697 16.551754486195
Sc 1.679238598995 0.969508857181 18.878370514164
PRIMCOORD 28
6 1
Zr 1.679238598995 0.969508857181 22.745373920114
C 0.000000000000 0.000000000000 17.688482090862
Cl -0.000000000336 1.939017714697 24.479543400375
Cl -0.000000000336 1.939017714697 20.802727333525
Sc -0.000000000336 1.939017714697 16.567204594516
Sc 1.679238598995 0.969508857181 18.892666314521
PRIMCOORD 29
6 1
Zr 1.679238598995 0.969508857181 22.732083966993
C -0.000000000000 -0.000000000000 17.705846908629
Cl -0.000000000336 1.939017714697 24.465555711617
Cl -0.000000000336 1.939017714697 20.807308443633
Sc -0.000000000336 1.939017714697 16.582654702836
Sc 1.679238598995 0.969508857181 18.906962114877
PRIMCOORD 30
6 1
Zr 1.679238598995 0.969508857181 22.719197822372
C -0.000000000000 -0.000000000000 17.722684105195
Cl -0.000000000336 1.939017714697 24.451993031703
Cl -0.000000000336 1.939017714697 20.811750359028
Sc -0.000000000336 1.939017714697 16.597635367433
Sc 1.679238598995 0.969508857181 18.920823544574
PRIMCOORD 31
6 1
Zr 1.679238598995 0.969508857181 22.707107025236
C -0.000000000000 -0.000000000000 17.738482090862
Cl -0.000000000336 1.939017714697 24.439267455801
Cl -0.000000000336 1.939017714697 20.815918114359
Sc -0.000000000336 1.939017714697 16.611691408394
Sc 1.679238598995 0.969508857181 18.933829431084
PRIMCOORD 32
6 1
Zr 1.679238598995 0.969508857181 22.696178948336
C -0.000000000000 -0.000000000000 17.752760851831
Cl -0.000000000336 1.939017714697 24.427765644093
Cl -0.000000000336 1.939017714697 20.819685074490
Sc -0.000000000336 1.939017714697 16.624395740027
Sc 1.679238598995 0.969508857181 18.945584597127
PRIMCOORD 33
6 1
Zr 1.679238598995 0.969508857181 22.686745635760
C -0.000000000000 -0.000000000000 17.765086535174
Cl -0.000000000336 1.939017714697 24.417837073310
Cl -0.000000000336 1.939017714697 20.822936782242
Sc -0.000000000336 1.939017714697 16.635362347643
Sc 1.679238598995 0.969508857181 18.955731867931
PRIMCOORD 34
6 1
Zr 1.679238598995 0.969508857181 22.679093713937
C -0.000000000000 -0.000000000000 17.775084631241
Cl -0.000000000336 1.939017714697 24.409783418049
Cl -0.000000000336 1.939017714697 20.825574436121
Sc -0.000000000336 1.939017714697 16.644258016420
Sc 1.679238598995 0.969508857181 18.963962923807
PRIMCOORD 35
6 1
Zr 1.679238598995 0.969508857181 22.673455682639
C -0.000000000000 -0.000000000000 17.782451352941
Cl -0.000000000336 1.939017714697 24.403849384551
Cl -0.000000000336 1.939017714697 20.827517892349
Sc -0.000000000336 1.939017714697 16.650812455964
Sc 1.679238598995 0.969508857181 18.970027668288
PRIMCOORD 36
6 1
Zr 1.679238598995 0.969508857181 22.670002850595
C -0.000000000000 -0.000000000000 17.786962866163
Cl -0.000000000336 1.939017714697 24.400215275421
Cl -0.000000000336 1.939017714697 20.828708099992
Sc -0.000000000336 1.939017714697 16.654826512945
Sc 1.679238598995 0.969508857181 18.973741827181
