ANIMSTEPS 36
CRYSTAL
PRIMVEC
3.358477197989 0.000000000000 0.000000000000
-1.679238598995 2.908526572213 0.000000000000
0.000000000000 0.000000000000 39.999999726482
PRIMCOORD 1
6 1
Zr 1.758006114516 0.964966702095 22.745373920114
C -0.099083438273 0.005713679556 17.688482090862
Cl 0.081940477226 1.934292589695 24.479543400375
Cl -0.012183982425 1.939720308093 20.802727333525
Sc -0.099834149312 1.944774684236 16.567204594516
Sc 1.590704912236 0.974614181792 18.892666314521
PRIMCOORD 2
6 1
Zr 1.756809458965 0.965035707637 22.745373920114
C -0.097578138207 0.005626875925 17.688482090862
Cl 0.080695617252 1.934364374961 24.479543400375
Cl -0.011998880360 1.939709634120 20.802727333525
Sc -0.098317444263 1.944687222933 16.567204594516
Sc 1.592049937872 0.974536620440 18.892666314521
PRIMCOORD 3
6 1
Zr 1.753255852087 0.965240627564 22.745373920114
C -0.093107975788 0.005369102516 17.688482090862
Cl 0.076998861773 1.934577549601 24.479543400375
Cl -0.011449198397 1.939677936526 20.802727333525
Sc -0.093813413431 1.944427496491 16.567204594516
Sc 1.596044146856 0.974306293045 18.892666314521
PRIMCOORD 4
6 1
Zr 1.747453268429 0.965575235488 22.745373920114
C -0.085808774639 0.004948191644 17.688482090862
Cl 0.070962534831 1.934925636410 24.479543400375
Cl -0.010551638344 1.939626178426 20.802727333525
Sc -0.086458909514 1.944003396566 16.567204594516
Sc 1.602566177171 0.973930197989 18.892666314521
PRIMCOORD 5
6 1
Zr 1.739578016558 0.966029364517 22.745373920114
C -0.075902317294 0.004376932473 17.688482090862
Cl 0.062770047167 1.935398058946 24.479543400375
Cl -0.009333472110 1.939555932464 20.802727333525
Sc -0.076477395392 1.943427809221 16.567204594516
Sc 1.611417860224 0.973419762730 18.892666314521
PRIMCOORD 6
6 1
Zr 1.729869382017 0.966589216170 22.745373920114
C -0.063689606447 0.003672682424 17.688482090862
Cl 0.052670323373 1.935980462892 24.479543400375
Cl -0.007831713060 1.939469333026 20.802727333525
Sc -0.064172154321 1.942718223386 16.567204594516
Sc 1.622330242106 0.972790496584 18.892666314521
PRIMCOORD 7
6 1
Zr 1.718622356755 0.967237779638 22.745373920114
C -0.049541719137 0.002856839778 17.688482090862
Cl 0.040970238445 1.936655152196 24.479543400375
Cl -0.006091991381 1.939369011395 20.802727333525
Sc -0.049917074824 1.941896199466 16.567204594516
Sc 1.634971755615 0.972061519486 18.892666314521
PRIMCOORD 8
6 1
Zr 1.706178675942 0.967955348647 22.745373920114
C -0.033888531759 0.001954193501 17.688482090862
Cl 0.028025293544 1.937401626767 24.479543400375
Cl -0.004167167636 1.939258015791 20.802727333525
Sc -0.034145290277 1.940986714244 16.567204594516
Sc 1.648958294760 0.971254981036 18.892666314521
PRIMCOORD 9
6 1
Zr 1.692916434524 0.968720120227 22.745373920114
C -0.017205658493 0.000992170043 17.688482090862
Cl 0.014228814270 1.938197205351 24.479543400375
Cl -0.002115726622 1.939139718760 20.802727333525
Sc -0.017336018374 1.940017401966 16.567204594516
Sc 1.663864885627 0.970395387496 18.892666314521
PRIMCOORD 10
6 1
Zr 1.679238598995 0.969508857181 22.745373920114
C -0.000000000000 0.000000000000 17.688482090862
Cl -0.000000000336 1.939017714697 24.479543400375
Cl -0.000000000336 1.939017714697 20.802727333525
Sc -0.000000000336 1.939017714697 16.567204594516
Sc 1.679238598995 0.969508857181 18.892666314521
PRIMCOORD 11
6 1
Zr 1.665560763465 0.970297594134 22.745373920114
C 0.017205658493 -0.000992170043 17.688482090862
Cl -0.014228814942 1.939838224043 24.479543400375
Cl 0.002115725951 1.938895710634 20.802727333525
Sc 0.017336017703 1.938018027428 16.567204594516
Sc 1.694612312362 0.968622326865 18.892666314521
PRIMCOORD 12
6 1
Zr 1.652298522047 0.971062365714 22.745373920114
C 0.033888531759 -0.001954193501 17.688482090862
Cl -0.028025294216 1.940633802627 24.479543400375
Cl 0.004167166965 1.938777413603 20.802727333525
Sc 0.034145289606 1.937048715150 16.567204594516
Sc 1.709518903229 0.967762733325 18.892666314521
PRIMCOORD 13
6 1
Zr 1.639854841234 0.971779934723 22.745373920114
C 0.049541719137 -0.002856839778 17.688482090862
Cl -0.040970239117 1.941380277198 24.479543400375
Cl 0.006091990709 1.938666417999 20.802727333525
Sc 0.049917074152 1.936139229927 16.567204594516
Sc 1.723505442374 0.966956194875 18.892666314521
PRIMCOORD 14
6 1
Zr 1.628607815972 0.972428498191 22.745373920114
C 0.063689606447 -0.003672682424 17.688482090862
Cl -0.052670324044 1.942054966502 24.479543400375
Cl 0.007831712388 1.938566096367 20.802727333525
Sc 0.064172153649 1.935317206008 16.567204594516
Sc 1.736146955883 0.966227217777 18.892666314521
PRIMCOORD 15
6 1
Zr 1.618899181431 0.972988349844 22.745373920114
C 0.075902317294 -0.004376932473 17.688482090862
Cl -0.062770047839 1.942637370447 24.479543400375
Cl 0.009333471439 1.938479496930 20.802727333525
Sc 0.076477394721 1.934607620172 16.567204594516
Sc 1.747059337765 0.965597951632 18.892666314521
PRIMCOORD 16
6 1
Zr 1.611023929560 0.973442478873 22.745373920114
C 0.085808774639 -0.004948191644 17.688482090862
Cl -0.070962535503 1.943109792984 24.479543400375
Cl 0.010551637673 1.938409250968 20.802727333525
Sc 0.086458908842 1.934032032827 16.567204594516
Sc 1.755911020818 0.965087516372 18.892666314521
PRIMCOORD 17
6 1
Zr 1.605221345902 0.973777086797 22.745373920114
C 0.093107975788 -0.005369102516 17.688482090862
Cl -0.076998862444 1.943457879793 24.479543400375
Cl 0.011449197725 1.938357492867 20.802727333525
Sc 0.093813412759 1.933607932903 16.567204594516
Sc 1.762433051133 0.964711421316 18.892666314521
PRIMCOORD 18
6 1
Zr 1.601667739024 0.973982006724 22.745373920114
C 0.097578138207 -0.005626875925 17.688482090862
Cl -0.080695617924 1.943671054432 24.479543400375
Cl 0.011998879688 1.938325795273 20.802727333525
Sc 0.098317443591 1.933348206461 16.567204594516
Sc 1.766427260118 0.964481093921 18.892666314521
PRIMCOORD 19
6 1
Zr 1.600471083473 0.974051012266 22.745373920114
C 0.099083438273 -0.005713679556 17.688482090862
Cl -0.081940477898 1.943742839698 24.479543400375
Cl 0.012183981753 1.938315121301 20.802727333525
Sc 0.099834148640 1.933260745158 16.567204594516
Sc 1.767772285753 0.964403532569 18.892666314521
PRIMCOORD 20
6 1
Zr 1.601667739024 0.973982006724 22.745373920114
C 0.097578138207 -0.005626875925 17.688482090862
Cl -0.080695617924 1.943671054432 24.479543400375
Cl 0.011998879688 1.938325795273 20.802727333525
Sc 0.098317443591 1.933348206461 16.567204594516
Sc 1.766427260118 0.964481093921 18.892666314521
PRIMCOORD 21
6 1
Zr 1.605221345902 0.973777086797 22.745373920114
C 0.093107975788 -0.005369102516 17.688482090862
Cl -0.076998862444 1.943457879793 24.479543400375
Cl 0.011449197725 1.938357492867 20.802727333525
Sc 0.093813412759 1.933607932903 16.567204594516
Sc 1.762433051133 0.964711421316 18.892666314521
PRIMCOORD 22
6 1
Zr 1.611023929560 0.973442478873 22.745373920114
C 0.085808774639 -0.004948191644 17.688482090862
Cl -0.070962535503 1.943109792984 24.479543400375
Cl 0.010551637673 1.938409250968 20.802727333525
Sc 0.086458908842 1.934032032827 16.567204594516
Sc 1.755911020818 0.965087516372 18.892666314521
PRIMCOORD 23
6 1
Zr 1.618899181431 0.972988349844 22.745373920114
C 0.075902317294 -0.004376932473 17.688482090862
Cl -0.062770047839 1.942637370447 24.479543400375
Cl 0.009333471439 1.938479496930 20.802727333525
Sc 0.076477394721 1.934607620172 16.567204594516
Sc 1.747059337765 0.965597951632 18.892666314521
PRIMCOORD 24
6 1
Zr 1.628607815972 0.972428498191 22.745373920114
C 0.063689606447 -0.003672682424 17.688482090862
Cl -0.052670324044 1.942054966502 24.479543400375
Cl 0.007831712388 1.938566096367 20.802727333525
Sc 0.064172153649 1.935317206008 16.567204594516
Sc 1.736146955883 0.966227217777 18.892666314521
PRIMCOORD 25
6 1
Zr 1.639854841234 0.971779934723 22.745373920114
C 0.049541719137 -0.002856839778 17.688482090862
Cl -0.040970239117 1.941380277198 24.479543400375
Cl 0.006091990709 1.938666417999 20.802727333525
Sc 0.049917074152 1.936139229927 16.567204594516
Sc 1.723505442374 0.966956194875 18.892666314521
PRIMCOORD 26
6 1
Zr 1.652298522047 0.971062365714 22.745373920114
C 0.033888531759 -0.001954193501 17.688482090862
Cl -0.028025294216 1.940633802627 24.479543400375
Cl 0.004167166965 1.938777413603 20.802727333525
Sc 0.034145289606 1.937048715150 16.567204594516
Sc 1.709518903229 0.967762733325 18.892666314521
PRIMCOORD 27
6 1
Zr 1.665560763465 0.970297594134 22.745373920114
C 0.017205658493 -0.000992170043 17.688482090862
Cl -0.014228814942 1.939838224043 24.479543400375
Cl 0.002115725951 1.938895710634 20.802727333525
Sc 0.017336017703 1.938018027428 16.567204594516
Sc 1.694612312362 0.968622326865 18.892666314521
PRIMCOORD 28
6 1
Zr 1.679238598995 0.969508857181 22.745373920114
C 0.000000000000 -0.000000000000 17.688482090862
Cl -0.000000000336 1.939017714697 24.479543400375
Cl -0.000000000336 1.939017714697 20.802727333525
Sc -0.000000000336 1.939017714697 16.567204594516
Sc 1.679238598995 0.969508857181 18.892666314521
PRIMCOORD 29
6 1
Zr 1.692916434524 0.968720120227 22.745373920114
C -0.017205658493 0.000992170043 17.688482090862
Cl 0.014228814270 1.938197205351 24.479543400375
Cl -0.002115726622 1.939139718760 20.802727333525
Sc -0.017336018374 1.940017401966 16.567204594516
Sc 1.663864885627 0.970395387496 18.892666314521
PRIMCOORD 30
6 1
Zr 1.706178675942 0.967955348647 22.745373920114
C -0.033888531759 0.001954193501 17.688482090862
Cl 0.028025293544 1.937401626767 24.479543400375
Cl -0.004167167636 1.939258015791 20.802727333525
Sc -0.034145290277 1.940986714244 16.567204594516
Sc 1.648958294760 0.971254981036 18.892666314521
PRIMCOORD 31
6 1
Zr 1.718622356755 0.967237779638 22.745373920114
C -0.049541719137 0.002856839778 17.688482090862
Cl 0.040970238445 1.936655152196 24.479543400375
Cl -0.006091991381 1.939369011395 20.802727333525
Sc -0.049917074824 1.941896199466 16.567204594516
Sc 1.634971755615 0.972061519486 18.892666314521
PRIMCOORD 32
6 1
Zr 1.729869382017 0.966589216170 22.745373920114
C -0.063689606447 0.003672682424 17.688482090862
Cl 0.052670323373 1.935980462892 24.479543400375
Cl -0.007831713060 1.939469333026 20.802727333525
Sc -0.064172154321 1.942718223386 16.567204594516
Sc 1.622330242106 0.972790496584 18.892666314521
PRIMCOORD 33
6 1
Zr 1.739578016558 0.966029364517 22.745373920114
C -0.075902317294 0.004376932473 17.688482090862
Cl 0.062770047167 1.935398058946 24.479543400375
Cl -0.009333472110 1.939555932464 20.802727333525
Sc -0.076477395392 1.943427809221 16.567204594516
Sc 1.611417860224 0.973419762730 18.892666314521
PRIMCOORD 34
6 1
Zr 1.747453268429 0.965575235488 22.745373920114
C -0.085808774639 0.004948191644 17.688482090862
Cl 0.070962534831 1.934925636410 24.479543400375
Cl -0.010551638344 1.939626178426 20.802727333525
Sc -0.086458909514 1.944003396566 16.567204594516
Sc 1.602566177171 0.973930197989 18.892666314521
PRIMCOORD 35
6 1
Zr 1.753255852087 0.965240627564 22.745373920114
C -0.093107975788 0.005369102516 17.688482090862
Cl 0.076998861773 1.934577549601 24.479543400375
Cl -0.011449198397 1.939677936526 20.802727333525
Sc -0.093813413431 1.944427496491 16.567204594516
Sc 1.596044146856 0.974306293045 18.892666314521
PRIMCOORD 36
6 1
Zr 1.756809458965 0.965035707637 22.745373920114
C -0.097578138207 0.005626875925 17.688482090862
Cl 0.080695617252 1.934364374961 24.479543400375
Cl -0.011998880360 1.939709634120 20.802727333525
Sc -0.098317444263 1.944687222933 16.567204594516
Sc 1.592049937872 0.974536620440 18.892666314521
