ANIMSTEPS 36
CRYSTAL
PRIMVEC
3.358477197989 0.000000000000 0.000000000000
-1.679238598995 2.908526572213 0.000000000000
0.000000000000 0.000000000000 39.999999726482
PRIMCOORD 1
6 1
Zr 1.755427130699 0.956293502291 22.745373920114
C -0.095624373338 0.016586617454 17.688482090862
Cl 0.082313339867 1.924739975271 24.479543400375
Cl -0.011721001622 1.941050792224 20.802727333525
Sc -0.098528768510 1.956108116744 16.567204594516
Sc 1.593049494522 0.984458871017 18.892666314521
PRIMCOORD 2
6 1
Zr 1.754269655708 0.956494273227 22.745373920114
C -0.094171624240 0.016334629465 17.688482090862
Cl 0.081062815273 1.924956886215 24.479543400375
Cl -0.011542933276 1.941019905208 20.802727333525
Sc -0.097031895128 1.955848475135 16.567204594516
Sc 1.594358900685 0.984231746715 18.892666314521
PRIMCOORD 3
6 1
Zr 1.750832400026 0.957090485710 22.745373920114
C -0.089857517993 0.015586322025 17.688482090862
Cl 0.077349238045 1.925601028317 24.479543400375
Cl -0.011014138753 1.940928182647 20.802727333525
Sc -0.092586756724 1.955077439387 16.567204594516
Sc 1.598247333530 0.983557274864 18.892666314521
PRIMCOORD 4
6 1
Zr 1.745219802928 0.958064024126 22.745373920114
C -0.082813136532 0.014364432078 17.688482090862
Cl 0.071285443350 1.926652829646 24.479543400375
Cl -0.010150685207 1.940778411484 20.802727333525
Sc -0.085328416578 1.953818437031 16.567204594516
Sc 1.604596644992 0.982455948950 18.892666314521
PRIMCOORD 5
6 1
Zr 1.737602400336 0.959385308004 22.745373920114
C -0.073252519822 0.012706086131 17.688482090862
Cl 0.063055676521 1.928080331749 24.479543400375
Cl -0.008978808239 1.940575142439 20.802727333525
Sc -0.075477415683 1.952109722216 16.567204594516
Sc 1.613213914456 0.980961232205 18.892666314521
PRIMCOORD 6
6 1
Zr 1.728211643175 0.961014190800 22.745373920114
C -0.061466162366 0.010661672186 17.688482090862
Cl 0.052909994859 1.929840160700 24.479543400375
Cl -0.007534114736 1.940324551741 20.802727333525
Sc -0.063333071716 1.950003213378 16.567204594516
Sc 1.623837310550 0.979118540840 18.892666314521
PRIMCOORD 7
6 1
Zr 1.717332864847 0.962901179736 22.745373920114
C -0.047812186669 0.008293308727 17.688482090862
Cl 0.041156669766 1.931878844984 24.479543400375
Cl -0.005860500979 1.940034253461 20.802727333525
Sc -0.049264384423 1.947562915721 16.567204594516
Sc 1.636144046758 0.976983864099 18.892666314521
PRIMCOORD 8
6 1
Zr 1.705296611528 0.964988939607 22.745373920114
C -0.032705461875 0.005672957279 17.688482090862
Cl 0.028152820078 1.934134440212 24.479543400375
Cl -0.004008818876 1.939713068164 20.802727333525
Sc -0.033698823748 1.944862976455 16.567204594516
Sc 1.649760189130 0.974622063056 18.892666314521
PRIMCOORD 9
6 1
Zr 1.692468598684 0.967214034887 22.745373920114
C -0.016604998171 0.002880235894 17.688482090862
Cl 0.014293561188 1.936538411264 24.479543400375
Cl -0.002035330850 1.939370754905 20.802727333525
Sc -0.017109341377 1.941985431868 16.567204594516
Sc 1.664272018068 0.972104899839 18.892666314521
PRIMCOORD 10
6 1
Zr 1.679238598995 0.969508857181 22.745373920114
C -0.000000000000 0.000000000000 17.688482090862
Cl -0.000000000336 1.939017714697 24.479543400375
Cl -0.000000000336 1.939017714697 20.802727333525
Sc -0.000000000336 1.939017714697 16.567204594516
Sc 1.679238598995 0.969508857181 18.892666314521
PRIMCOORD 11
6 1
Zr 1.666008599305 0.971803679474 22.745373920114
C 0.016604998171 -0.002880235894 17.688482090862
Cl -0.014293561860 1.941497018129 24.479543400375
Cl 0.002035330178 1.938664674489 20.802727333525
Sc 0.017109340705 1.936049997526 16.567204594516
Sc 1.694205179921 0.966912814522 18.892666314521
PRIMCOORD 12
6 1
Zr 1.653180586461 0.974028774754 22.745373920114
C 0.032705461875 -0.005672957279 17.688482090862
Cl -0.028152820750 1.943900989182 24.479543400375
Cl 0.004008818204 1.938322361230 20.802727333525
Sc 0.033698823077 1.933172452939 16.567204594516
Sc 1.708717008859 0.964395651305 18.892666314521
PRIMCOORD 13
6 1
Zr 1.641144333142 0.976116534625 22.745373920114
C 0.047812186669 -0.008293308727 17.688482090862
Cl -0.041156670437 1.946156584410 24.479543400375
Cl 0.005860500307 1.938001175933 20.802727333525
Sc 0.049264383751 1.930472513673 16.567204594516
Sc 1.722333151231 0.962033850262 18.892666314521
PRIMCOORD 14
6 1
Zr 1.630265554815 0.978003523561 22.745373920114
C 0.061466162366 -0.010661672186 17.688482090862
Cl -0.052909995530 1.948195268694 24.479543400375
Cl 0.007534114064 1.937710877653 20.802727333525
Sc 0.063333071044 1.928032216016 16.567204594516
Sc 1.734639887439 0.959899173522 18.892666314521
PRIMCOORD 15
6 1
Zr 1.620874797653 0.979632406357 22.745373920114
C 0.073252519822 -0.012706086131 17.688482090862
Cl -0.063055677193 1.949955097644 24.479543400375
Cl 0.008978807567 1.937460286955 20.802727333525
Sc 0.075477415011 1.925925707178 16.567204594516
Sc 1.745263283533 0.958056482156 18.892666314521
PRIMCOORD 16
6 1
Zr 1.613257395061 0.980953690235 22.745373920114
C 0.082813136532 -0.014364432078 17.688482090862
Cl -0.071285444022 1.951382599748 24.479543400375
Cl 0.010150684536 1.937257017910 20.802727333525
Sc 0.085328415906 1.924216992363 16.567204594516
Sc 1.753880552997 0.956561765411 18.892666314521
PRIMCOORD 17
6 1
Zr 1.607644797963 0.981927228651 22.745373920114
C 0.089857517993 -0.015586322025 17.688482090862
Cl -0.077349238717 1.952434401077 24.479543400375
Cl 0.011014138081 1.937107246747 20.802727333525
Sc 0.092586756052 1.922957990007 16.567204594516
Sc 1.760229864459 0.955460439497 18.892666314521
PRIMCOORD 18
6 1
Zr 1.604207542281 0.982523441134 22.745373920114
C 0.094171624240 -0.016334629465 17.688482090862
Cl -0.081062815944 1.953078543179 24.479543400375
Cl 0.011542932604 1.937015524185 20.802727333525
Sc 0.097031894457 1.922186954259 16.567204594516
Sc 1.764118297304 0.954785967646 18.892666314521
PRIMCOORD 19
6 1
Zr 1.603050067290 0.982724212070 22.745373920114
C 0.095624373338 -0.016586617454 17.688482090862
Cl -0.082313340539 1.953295454123 24.479543400375
Cl 0.011721000950 1.936984637170 20.802727333525
Sc 0.098528767838 1.921927312650 16.567204594516
Sc 1.765427703467 0.954558843344 18.892666314521
PRIMCOORD 20
6 1
Zr 1.604207542281 0.982523441134 22.745373920114
C 0.094171624240 -0.016334629465 17.688482090862
Cl -0.081062815944 1.953078543179 24.479543400375
Cl 0.011542932604 1.937015524185 20.802727333525
Sc 0.097031894457 1.922186954259 16.567204594516
Sc 1.764118297304 0.954785967646 18.892666314521
PRIMCOORD 21
6 1
Zr 1.607644797963 0.981927228651 22.745373920114
C 0.089857517993 -0.015586322025 17.688482090862
Cl -0.077349238717 1.952434401077 24.479543400375
Cl 0.011014138081 1.937107246747 20.802727333525
Sc 0.092586756052 1.922957990007 16.567204594516
Sc 1.760229864459 0.955460439497 18.892666314521
PRIMCOORD 22
6 1
Zr 1.613257395061 0.980953690235 22.745373920114
C 0.082813136532 -0.014364432078 17.688482090862
Cl -0.071285444022 1.951382599748 24.479543400375
Cl 0.010150684536 1.937257017910 20.802727333525
Sc 0.085328415906 1.924216992363 16.567204594516
Sc 1.753880552997 0.956561765411 18.892666314521
PRIMCOORD 23
6 1
Zr 1.620874797653 0.979632406357 22.745373920114
C 0.073252519822 -0.012706086131 17.688482090862
Cl -0.063055677193 1.949955097644 24.479543400375
Cl 0.008978807567 1.937460286955 20.802727333525
Sc 0.075477415011 1.925925707178 16.567204594516
Sc 1.745263283533 0.958056482156 18.892666314521
PRIMCOORD 24
6 1
Zr 1.630265554815 0.978003523561 22.745373920114
C 0.061466162366 -0.010661672186 17.688482090862
Cl -0.052909995530 1.948195268694 24.479543400375
Cl 0.007534114064 1.937710877653 20.802727333525
Sc 0.063333071044 1.928032216016 16.567204594516
Sc 1.734639887439 0.959899173522 18.892666314521
PRIMCOORD 25
6 1
Zr 1.641144333142 0.976116534625 22.745373920114
C 0.047812186669 -0.008293308727 17.688482090862
Cl -0.041156670437 1.946156584410 24.479543400375
Cl 0.005860500307 1.938001175933 20.802727333525
Sc 0.049264383751 1.930472513673 16.567204594516
Sc 1.722333151231 0.962033850262 18.892666314521
PRIMCOORD 26
6 1
Zr 1.653180586461 0.974028774754 22.745373920114
C 0.032705461875 -0.005672957279 17.688482090862
Cl -0.028152820750 1.943900989182 24.479543400375
Cl 0.004008818204 1.938322361230 20.802727333525
Sc 0.033698823077 1.933172452939 16.567204594516
Sc 1.708717008859 0.964395651305 18.892666314521
PRIMCOORD 27
6 1
Zr 1.666008599305 0.971803679474 22.745373920114
C 0.016604998171 -0.002880235894 17.688482090862
Cl -0.014293561860 1.941497018129 24.479543400375
Cl 0.002035330178 1.938664674489 20.802727333525
Sc 0.017109340705 1.936049997526 16.567204594516
Sc 1.694205179921 0.966912814522 18.892666314521
PRIMCOORD 28
6 1
Zr 1.679238598995 0.969508857181 22.745373920114
C 0.000000000000 -0.000000000000 17.688482090862
Cl -0.000000000336 1.939017714697 24.479543400375
Cl -0.000000000336 1.939017714697 20.802727333525
Sc -0.000000000336 1.939017714697 16.567204594516
Sc 1.679238598995 0.969508857181 18.892666314521
PRIMCOORD 29
6 1
Zr 1.692468598684 0.967214034887 22.745373920114
C -0.016604998171 0.002880235894 17.688482090862
Cl 0.014293561188 1.936538411264 24.479543400375
Cl -0.002035330850 1.939370754905 20.802727333525
Sc -0.017109341377 1.941985431868 16.567204594516
Sc 1.664272018068 0.972104899839 18.892666314521
PRIMCOORD 30
6 1
Zr 1.705296611528 0.964988939607 22.745373920114
C -0.032705461875 0.005672957279 17.688482090862
Cl 0.028152820078 1.934134440212 24.479543400375
Cl -0.004008818876 1.939713068164 20.802727333525
Sc -0.033698823748 1.944862976455 16.567204594516
Sc 1.649760189130 0.974622063056 18.892666314521
PRIMCOORD 31
6 1
Zr 1.717332864847 0.962901179736 22.745373920114
C -0.047812186669 0.008293308727 17.688482090862
Cl 0.041156669766 1.931878844984 24.479543400375
Cl -0.005860500979 1.940034253461 20.802727333525
Sc -0.049264384423 1.947562915721 16.567204594516
Sc 1.636144046758 0.976983864099 18.892666314521
PRIMCOORD 32
6 1
Zr 1.728211643175 0.961014190800 22.745373920114
C -0.061466162366 0.010661672186 17.688482090862
Cl 0.052909994859 1.929840160700 24.479543400375
Cl -0.007534114736 1.940324551741 20.802727333525
Sc -0.063333071716 1.950003213378 16.567204594516
Sc 1.623837310550 0.979118540840 18.892666314521
PRIMCOORD 33
6 1
Zr 1.737602400336 0.959385308004 22.745373920114
C -0.073252519822 0.012706086131 17.688482090862
Cl 0.063055676521 1.928080331749 24.479543400375
Cl -0.008978808239 1.940575142439 20.802727333525
Sc -0.075477415683 1.952109722216 16.567204594516
Sc 1.613213914456 0.980961232205 18.892666314521
PRIMCOORD 34
6 1
Zr 1.745219802928 0.958064024126 22.745373920114
C -0.082813136532 0.014364432078 17.688482090862
Cl 0.071285443350 1.926652829646 24.479543400375
Cl -0.010150685207 1.940778411484 20.802727333525
Sc -0.085328416578 1.953818437031 16.567204594516
Sc 1.604596644992 0.982455948950 18.892666314521
PRIMCOORD 35
6 1
Zr 1.750832400026 0.957090485710 22.745373920114
C -0.089857517993 0.015586322025 17.688482090862
Cl 0.077349238045 1.925601028317 24.479543400375
Cl -0.011014138753 1.940928182647 20.802727333525
Sc -0.092586756724 1.955077439387 16.567204594516
Sc 1.598247333530 0.983557274864 18.892666314521
PRIMCOORD 36
6 1
Zr 1.754269655708 0.956494273227 22.745373920114
C -0.094171624240 0.016334629465 17.688482090862
Cl 0.081062815273 1.924956886215 24.479543400375
Cl -0.011542933276 1.941019905208 20.802727333525
Sc -0.097031895128 1.955848475135 16.567204594516
Sc 1.594358900685 0.984231746715 18.892666314521
