ANIMSTEPS 36
CRYSTAL
PRIMVEC
3.358477197989 0.000000000000 0.000000000000
-1.679238598995 2.908526572213 0.000000000000
0.000000000000 0.000000000000 39.999999726482
PRIMCOORD 1
6 1
Zr 1.692453953884 1.045697388885 22.745373920114
C -0.016586617454 -0.095624373338 17.688482090862
Cl 0.014277739090 2.021331054900 24.479543400375
Cl -0.002033077863 1.927296713411 20.802727333525
Sc -0.017090402383 1.840488946523 16.567204594516
Sc 1.664288585158 0.883319752708 18.892666314521
PRIMCOORD 2
6 1
Zr 1.692253182948 1.044539913894 22.745373920114
C -0.016334629465 -0.094171624240 17.688482090862
Cl 0.014060828146 2.020080530305 24.479543400375
Cl -0.002002190847 1.927474781757 20.802727333525
Sc -0.016830760774 1.841985819905 16.567204594516
Sc 1.664515709460 0.884629158871 18.892666314521
PRIMCOORD 3
6 1
Zr 1.691656970465 1.041102658212 22.745373920114
C -0.015586322025 -0.089857517993 17.688482090862
Cl 0.013416686044 2.016366953078 24.479543400375
Cl -0.001910468286 1.928003576280 20.802727333525
Sc -0.016059725026 1.846430958309 16.567204594516
Sc 1.665190181311 0.888517591716 18.892666314521
PRIMCOORD 4
6 1
Zr 1.690683432049 1.035490061114 22.745373920114
C -0.014364432078 -0.082813136532 17.688482090862
Cl 0.012364884716 2.010303158383 24.479543400375
Cl -0.001760697122 1.928867029825 20.802727333525
Sc -0.014800722670 1.853689298455 16.567204594516
Sc 1.666291507225 0.894866903178 18.892666314521
PRIMCOORD 5
6 1
Zr 1.689362148171 1.027872658522 22.745373920114
C -0.012706086131 -0.073252519822 17.688482090862
Cl 0.010937382612 2.002073391554 24.479543400375
Cl -0.001557428078 1.930038906794 20.802727333525
Sc -0.013092007855 1.863540299350 16.567204594516
Sc 1.667786223970 0.903484172642 18.892666314521
PRIMCOORD 6
6 1
Zr 1.687733265375 1.018481901361 22.745373920114
C -0.010661672186 -0.061466162366 17.688482090862
Cl 0.009177553661 1.991927709891 24.479543400375
Cl -0.001306837380 1.931483600297 20.802727333525
Sc -0.010985499016 1.875684643317 16.567204594516
Sc 1.669628915336 0.914107568736 18.892666314521
PRIMCOORD 7
6 1
Zr 1.685846276439 1.007603123033 22.745373920114
C -0.008293308727 -0.047812186669 17.688482090862
Cl 0.007138869377 1.980174384799 24.479543400375
Cl -0.001016539100 1.933157214054 20.802727333525
Sc -0.008545201360 1.889753330610 16.567204594516
Sc 1.671763592076 0.926414304944 18.892666314521
PRIMCOORD 8
6 1
Zr 1.683758516568 0.995566869714 22.745373920114
C -0.005672957279 -0.032705461875 17.688482090862
Cl 0.004883274149 1.967170535111 24.479543400375
Cl -0.000695353803 1.935008896157 20.802727333525
Sc -0.005845262094 1.905318891284 16.567204594516
Sc 1.674125393119 0.940030447316 18.892666314521
PRIMCOORD 9
6 1
Zr 1.681533421288 0.982738856870 22.745373920114
C -0.002880235894 -0.016604998171 17.688482090862
Cl 0.002479303097 1.953311276221 24.479543400375
Cl -0.000353040544 1.936982384183 20.802727333525
Sc -0.002967717507 1.921908373656 16.567204594516
Sc 1.676642556336 0.954542276254 18.892666314521
PRIMCOORD 10
6 1
Zr 1.679238598995 0.969508857181 22.745373920114
C -0.000000000000 -0.000000000000 17.688482090862
Cl -0.000000000336 1.939017714697 24.479543400375
Cl -0.000000000336 1.939017714697 20.802727333525
Sc -0.000000000336 1.939017714697 16.567204594516
Sc 1.679238598995 0.969508857181 18.892666314521
PRIMCOORD 11
6 1
Zr 1.676943776701 0.956278857491 22.745373920114
C 0.002880235894 0.016604998171 17.688482090862
Cl -0.002479303768 1.924724153173 24.479543400375
Cl 0.000353039872 1.941053045211 20.802727333525
Sc 0.002967716835 1.956127055738 16.567204594516
Sc 1.681834641653 0.984475438107 18.892666314521
PRIMCOORD 12
6 1
Zr 1.674718681421 0.943450844647 22.745373920114
C 0.005672957279 0.032705461875 17.688482090862
Cl -0.004883274821 1.910864894283 24.479543400375
Cl 0.000695353131 1.943026533237 20.802727333525
Sc 0.005845261422 1.972716538109 16.567204594516
Sc 1.684351804870 0.998987267045 18.892666314521
PRIMCOORD 13
6 1
Zr 1.672630921550 0.931414591328 22.745373920114
C 0.008293308727 0.047812186669 17.688482090862
Cl -0.007138870049 1.897861044595 24.479543400375
Cl 0.001016538428 1.944878215340 20.802727333525
Sc 0.008545200688 1.988282098784 16.567204594516
Sc 1.686713605913 1.012603409417 18.892666314521
PRIMCOORD 14
6 1
Zr 1.670743932614 0.920535813001 22.745373920114
C 0.010661672186 0.061466162366 17.688482090862
Cl -0.009177554333 1.886107719502 24.479543400375
Cl 0.001306836708 1.946551829097 20.802727333525
Sc 0.010985498345 2.002350786077 16.567204594516
Sc 1.688848282654 1.024910145625 18.892666314521
PRIMCOORD 15
6 1
Zr 1.669115049818 0.911145055839 22.745373920114
C 0.012706086131 0.073252519822 17.688482090862
Cl -0.010937383283 1.875962037840 24.479543400375
Cl 0.001557427406 1.947996522600 20.802727333525
Sc 0.013092007183 2.014495130044 16.567204594516
Sc 1.690690974019 1.035533541719 18.892666314521
PRIMCOORD 16
6 1
Zr 1.667793765940 0.903527653247 22.745373920114
C 0.014364432078 0.082813136532 17.688482090862
Cl -0.012364885387 1.867732271011 24.479543400375
Cl 0.001760696451 1.949168399569 20.802727333525
Sc 0.014800721998 2.024346130939 16.567204594516
Sc 1.692185690764 1.044150811183 18.892666314521
PRIMCOORD 17
6 1
Zr 1.666820227524 0.897915056149 22.745373920114
C 0.015586322025 0.089857517993 17.688482090862
Cl -0.013416686716 1.861668476316 24.479543400375
Cl 0.001910467614 1.950031853114 20.802727333525
Sc 0.016059724354 2.031604471085 16.567204594516
Sc 1.693287016678 1.050500122645 18.892666314521
PRIMCOORD 18
6 1
Zr 1.666224015041 0.894477800467 22.745373920114
C 0.016334629465 0.094171624240 17.688482090862
Cl -0.014060828818 1.857954899089 24.479543400375
Cl 0.002002190176 1.950560647637 20.802727333525
Sc 0.016830760103 2.036049609489 16.567204594516
Sc 1.693961488529 1.054388555490 18.892666314521
PRIMCOORD 19
6 1
Zr 1.666023244105 0.893320325476 22.745373920114
C 0.016586617454 0.095624373338 17.688482090862
Cl -0.014277739762 1.856704374494 24.479543400375
Cl 0.002033077192 1.950738715983 20.802727333525
Sc 0.017090401712 2.037546482871 16.567204594516
Sc 1.694188612831 1.055697961653 18.892666314521
PRIMCOORD 20
6 1
Zr 1.666224015041 0.894477800467 22.745373920114
C 0.016334629465 0.094171624240 17.688482090862
Cl -0.014060828818 1.857954899089 24.479543400375
Cl 0.002002190176 1.950560647637 20.802727333525
Sc 0.016830760103 2.036049609489 16.567204594516
Sc 1.693961488529 1.054388555490 18.892666314521
PRIMCOORD 21
6 1
Zr 1.666820227524 0.897915056149 22.745373920114
C 0.015586322025 0.089857517993 17.688482090862
Cl -0.013416686716 1.861668476316 24.479543400375
Cl 0.001910467614 1.950031853114 20.802727333525
Sc 0.016059724354 2.031604471085 16.567204594516
Sc 1.693287016678 1.050500122645 18.892666314521
PRIMCOORD 22
6 1
Zr 1.667793765940 0.903527653247 22.745373920114
C 0.014364432078 0.082813136532 17.688482090862
Cl -0.012364885387 1.867732271011 24.479543400375
Cl 0.001760696451 1.949168399569 20.802727333525
Sc 0.014800721998 2.024346130939 16.567204594516
Sc 1.692185690764 1.044150811183 18.892666314521
PRIMCOORD 23
6 1
Zr 1.669115049818 0.911145055839 22.745373920114
C 0.012706086131 0.073252519822 17.688482090862
Cl -0.010937383283 1.875962037840 24.479543400375
Cl 0.001557427406 1.947996522600 20.802727333525
Sc 0.013092007183 2.014495130044 16.567204594516
Sc 1.690690974019 1.035533541719 18.892666314521
PRIMCOORD 24
6 1
Zr 1.670743932614 0.920535813001 22.745373920114
C 0.010661672186 0.061466162366 17.688482090862
Cl -0.009177554333 1.886107719502 24.479543400375
Cl 0.001306836708 1.946551829097 20.802727333525
Sc 0.010985498345 2.002350786077 16.567204594516
Sc 1.688848282654 1.024910145625 18.892666314521
PRIMCOORD 25
6 1
Zr 1.672630921550 0.931414591328 22.745373920114
C 0.008293308727 0.047812186669 17.688482090862
Cl -0.007138870049 1.897861044595 24.479543400375
Cl 0.001016538428 1.944878215340 20.802727333525
Sc 0.008545200688 1.988282098784 16.567204594516
Sc 1.686713605913 1.012603409417 18.892666314521
PRIMCOORD 26
6 1
Zr 1.674718681421 0.943450844647 22.745373920114
C 0.005672957279 0.032705461875 17.688482090862
Cl -0.004883274821 1.910864894283 24.479543400375
Cl 0.000695353131 1.943026533237 20.802727333525
Sc 0.005845261422 1.972716538109 16.567204594516
Sc 1.684351804870 0.998987267045 18.892666314521
PRIMCOORD 27
6 1
Zr 1.676943776701 0.956278857491 22.745373920114
C 0.002880235894 0.016604998171 17.688482090862
Cl -0.002479303768 1.924724153173 24.479543400375
Cl 0.000353039872 1.941053045211 20.802727333525
Sc 0.002967716835 1.956127055738 16.567204594516
Sc 1.681834641653 0.984475438107 18.892666314521
PRIMCOORD 28
6 1
Zr 1.679238598995 0.969508857181 22.745373920114
C 0.000000000000 0.000000000000 17.688482090862
Cl -0.000000000336 1.939017714697 24.479543400375
Cl -0.000000000336 1.939017714697 20.802727333525
Sc -0.000000000336 1.939017714697 16.567204594516
Sc 1.679238598995 0.969508857181 18.892666314521
PRIMCOORD 29
6 1
Zr 1.681533421288 0.982738856870 22.745373920114
C -0.002880235894 -0.016604998171 17.688482090862
Cl 0.002479303097 1.953311276221 24.479543400375
Cl -0.000353040544 1.936982384183 20.802727333525
Sc -0.002967717507 1.921908373656 16.567204594516
Sc 1.676642556336 0.954542276254 18.892666314521
PRIMCOORD 30
6 1
Zr 1.683758516568 0.995566869714 22.745373920114
C -0.005672957279 -0.032705461875 17.688482090862
Cl 0.004883274149 1.967170535111 24.479543400375
Cl -0.000695353803 1.935008896157 20.802727333525
Sc -0.005845262094 1.905318891284 16.567204594516
Sc 1.674125393119 0.940030447316 18.892666314521
PRIMCOORD 31
6 1
Zr 1.685846276439 1.007603123033 22.745373920114
C -0.008293308727 -0.047812186669 17.688482090862
Cl 0.007138869377 1.980174384799 24.479543400375
Cl -0.001016539100 1.933157214054 20.802727333525
Sc -0.008545201360 1.889753330610 16.567204594516
Sc 1.671763592076 0.926414304944 18.892666314521
PRIMCOORD 32
6 1
Zr 1.687733265375 1.018481901361 22.745373920114
C -0.010661672186 -0.061466162366 17.688482090862
Cl 0.009177553661 1.991927709891 24.479543400375
Cl -0.001306837380 1.931483600297 20.802727333525
Sc -0.010985499016 1.875684643317 16.567204594516
Sc 1.669628915336 0.914107568736 18.892666314521
PRIMCOORD 33
6 1
Zr 1.689362148171 1.027872658522 22.745373920114
C -0.012706086131 -0.073252519822 17.688482090862
Cl 0.010937382612 2.002073391554 24.479543400375
Cl -0.001557428078 1.930038906794 20.802727333525
Sc -0.013092007855 1.863540299350 16.567204594516
Sc 1.667786223970 0.903484172642 18.892666314521
PRIMCOORD 34
6 1
Zr 1.690683432049 1.035490061114 22.745373920114
C -0.014364432078 -0.082813136532 17.688482090862
Cl 0.012364884716 2.010303158383 24.479543400375
Cl -0.001760697122 1.928867029825 20.802727333525
Sc -0.014800722670 1.853689298455 16.567204594516
Sc 1.666291507225 0.894866903178 18.892666314521
PRIMCOORD 35
6 1
Zr 1.691656970465 1.041102658212 22.745373920114
C -0.015586322025 -0.089857517993 17.688482090862
Cl 0.013416686044 2.016366953078 24.479543400375
Cl -0.001910468286 1.928003576280 20.802727333525
Sc -0.016059725026 1.846430958309 16.567204594516
Sc 1.665190181311 0.888517591716 18.892666314521
PRIMCOORD 36
6 1
Zr 1.692253182948 1.044539913894 22.745373920114
C -0.016334629465 -0.094171624240 17.688482090862
Cl 0.014060828146 2.020080530305 24.479543400375
Cl -0.002002190847 1.927474781757 20.802727333525
Sc -0.016830760774 1.841985819905 16.567204594516
Sc 1.664515709460 0.884629158871 18.892666314521
