ANIMSTEPS 36
CRYSTAL
PRIMVEC
3.358477197989 0.000000000000 0.000000000000
-1.679238598995 2.908526572213 0.000000000000
0.000000000000 0.000000000000 39.999999726482
PRIMCOORD 1
6 1
Zr 1.679238598995 0.969508857181 22.665020215543
C -0.000000000000 0.000000000000 17.788482090862
Cl -0.000000000336 1.939017714697 24.394083039399
Cl -0.000000000336 1.939017714697 20.826689821492
Sc -0.000000000336 1.939017714697 16.663902278924
Sc 1.679238598995 0.969508857181 18.980797928625
PRIMCOORD 2
6 1
Zr 1.679238598995 0.969508857181 22.666240968870
C -0.000000000000 0.000000000000 17.786962866163
Cl -0.000000000336 1.939017714697 24.395381374310
Cl -0.000000000336 1.939017714697 20.826325777457
Sc -0.000000000336 1.939017714697 16.662433223820
Sc 1.679238598995 0.969508857181 18.979459011376
PRIMCOORD 3
6 1
Zr 1.679238598995 0.969508857181 22.669866136876
C -0.000000000000 0.000000000000 17.782451352941
Cl -0.000000000336 1.939017714697 24.399236929796
Cl -0.000000000336 1.939017714697 20.825244706644
Sc -0.000000000336 1.939017714697 16.658070695002
Sc 1.679238598995 0.969508857181 18.975482941952
PRIMCOORD 4
6 1
Zr 1.679238598995 0.969508857181 22.675785570668
C -0.000000000000 0.000000000000 17.775084631241
Cl -0.000000000336 1.939017714697 24.405532556753
Cl -0.000000000336 1.939017714697 20.823479456843
Sc -0.000000000336 1.939017714697 16.650947245701
Sc 1.679238598995 0.969508857181 18.968990531211
PRIMCOORD 5
6 1
Zr 1.679238598995 0.969508857181 22.683819411244
C -0.000000000000 0.000000000000 17.765086535174
Cl -0.000000000336 1.939017714697 24.414076965742
Cl -0.000000000336 1.939017714697 20.821083664276
Sc -0.000000000336 1.939017714697 16.641279318319
Sc 1.679238598995 0.969508857181 18.960179047768
PRIMCOORD 6
6 1
Zr 1.679238598995 0.969508857181 22.693723554423
C -0.000000000000 0.000000000000 17.752760851831
Cl -0.000000000336 1.939017714697 24.424610539220
Cl -0.000000000336 1.939017714697 20.818130123888
Sc -0.000000000336 1.939017714697 16.629360667939
Sc 1.679238598995 0.969508857181 18.949316224088
PRIMCOORD 7
6 1
Zr 1.679238598995 0.969508857181 22.705197067829
C -0.000000000000 0.000000000000 17.738482090862
Cl -0.000000000336 1.939017714697 24.436813219887
Cl -0.000000000336 1.939017714697 20.814708577509
Sc -0.000000000336 1.939017714697 16.615553436720
Sc 1.679238598995 0.969508857181 18.936732121573
PRIMCOORD 8
6 1
Zr 1.679238598995 0.969508857181 22.717891334560
C -0.000000000000 0.000000000000 17.722684105195
Cl -0.000000000336 1.939017714697 24.450314235465
Cl -0.000000000336 1.939017714697 20.810922987094
Sc -0.000000000336 1.939017714697 16.600277150396
Sc 1.679238598995 0.969508857181 18.922809101808
PRIMCOORD 9
6 1
Zr 1.679238598995 0.969508857181 22.731420645746
C -0.000000000000 0.000000000000 17.705846908629
Cl -0.000000000336 1.939017714697 24.464703364429
Cl -0.000000000336 1.939017714697 20.806888375893
Sc -0.000000000336 1.939017714697 16.583995971198
Sc 1.679238598995 0.969508857181 18.907970208705
PRIMCOORD 10
6 1
Zr 1.679238598995 0.969508857181 22.745373920114
C -0.000000000000 0.000000000000 17.688482090862
Cl -0.000000000336 1.939017714697 24.479543400375
Cl -0.000000000336 1.939017714697 20.802727333525
Sc -0.000000000336 1.939017714697 16.567204594516
Sc 1.679238598995 0.969508857181 18.892666314521
PRIMCOORD 11
6 1
Zr 1.679238598995 0.969508857181 22.759327194481
C 0.000000000000 -0.000000000000 17.671117273095
Cl -0.000000000336 1.939017714697 24.494383436322
Cl -0.000000000336 1.939017714697 20.798566291158
Sc -0.000000000336 1.939017714697 16.550413217834
Sc 1.679238598995 0.969508857181 18.877362420336
PRIMCOORD 12
6 1
Zr 1.679238598995 0.969508857181 22.772856505668
C 0.000000000000 -0.000000000000 17.654280076530
Cl -0.000000000336 1.939017714697 24.508772565285
Cl -0.000000000336 1.939017714697 20.794531679957
Sc -0.000000000336 1.939017714697 16.534132038635
Sc 1.679238598995 0.969508857181 18.862523527233
PRIMCOORD 13
6 1
Zr 1.679238598995 0.969508857181 22.785550772399
C 0.000000000000 -0.000000000000 17.638482090862
Cl -0.000000000336 1.939017714697 24.522273580864
Cl -0.000000000336 1.939017714697 20.790746089542
Sc -0.000000000336 1.939017714697 16.518855752311
Sc 1.679238598995 0.969508857181 18.848600507468
PRIMCOORD 14
6 1
Zr 1.679238598995 0.969508857181 22.797024285804
C 0.000000000000 -0.000000000000 17.624203329893
Cl -0.000000000336 1.939017714697 24.534476261531
Cl -0.000000000336 1.939017714697 20.787324543163
Sc -0.000000000336 1.939017714697 16.505048521092
Sc 1.679238598995 0.969508857181 18.836016404953
PRIMCOORD 15
6 1
Zr 1.679238598995 0.969508857181 22.806928428984
C 0.000000000000 -0.000000000000 17.611877646550
Cl -0.000000000336 1.939017714697 24.545009835009
Cl -0.000000000336 1.939017714697 20.784371002775
Sc -0.000000000336 1.939017714697 16.493129870712
Sc 1.679238598995 0.969508857181 18.825153581273
PRIMCOORD 16
6 1
Zr 1.679238598995 0.969508857181 22.814962269560
C 0.000000000000 -0.000000000000 17.601879550484
Cl -0.000000000336 1.939017714697 24.553554243998
Cl -0.000000000336 1.939017714697 20.781975210208
Sc -0.000000000336 1.939017714697 16.483461943331
Sc 1.679238598995 0.969508857181 18.816342097830
PRIMCOORD 17
6 1
Zr 1.679238598995 0.969508857181 22.820881703352
C 0.000000000000 -0.000000000000 17.594512828783
Cl -0.000000000336 1.939017714697 24.559849870955
Cl -0.000000000336 1.939017714697 20.780209960407
Sc -0.000000000336 1.939017714697 16.476338494030
Sc 1.679238598995 0.969508857181 18.809849687089
PRIMCOORD 18
6 1
Zr 1.679238598995 0.969508857181 22.824506871358
C 0.000000000000 -0.000000000000 17.590001315561
Cl -0.000000000336 1.939017714697 24.563705426441
Cl -0.000000000336 1.939017714697 20.779128889594
Sc -0.000000000336 1.939017714697 16.471975965212
Sc 1.679238598995 0.969508857181 18.805873617665
PRIMCOORD 19
6 1
Zr 1.679238598995 0.969508857181 22.825727624685
C 0.000000000000 -0.000000000000 17.588482090862
Cl -0.000000000336 1.939017714697 24.565003761352
Cl -0.000000000336 1.939017714697 20.778764845558
Sc -0.000000000336 1.939017714697 16.470506910107
Sc 1.679238598995 0.969508857181 18.804534700416
PRIMCOORD 20
6 1
Zr 1.679238598995 0.969508857181 22.824506871358
C 0.000000000000 -0.000000000000 17.590001315561
Cl -0.000000000336 1.939017714697 24.563705426441
Cl -0.000000000336 1.939017714697 20.779128889594
Sc -0.000000000336 1.939017714697 16.471975965212
Sc 1.679238598995 0.969508857181 18.805873617665
PRIMCOORD 21
6 1
Zr 1.679238598995 0.969508857181 22.820881703352
C 0.000000000000 -0.000000000000 17.594512828783
Cl -0.000000000336 1.939017714697 24.559849870955
Cl -0.000000000336 1.939017714697 20.780209960407
Sc -0.000000000336 1.939017714697 16.476338494030
Sc 1.679238598995 0.969508857181 18.809849687089
PRIMCOORD 22
6 1
Zr 1.679238598995 0.969508857181 22.814962269560
C 0.000000000000 -0.000000000000 17.601879550484
Cl -0.000000000336 1.939017714697 24.553554243998
Cl -0.000000000336 1.939017714697 20.781975210208
Sc -0.000000000336 1.939017714697 16.483461943331
Sc 1.679238598995 0.969508857181 18.816342097830
PRIMCOORD 23
6 1
Zr 1.679238598995 0.969508857181 22.806928428984
C 0.000000000000 -0.000000000000 17.611877646550
Cl -0.000000000336 1.939017714697 24.545009835009
Cl -0.000000000336 1.939017714697 20.784371002775
Sc -0.000000000336 1.939017714697 16.493129870712
Sc 1.679238598995 0.969508857181 18.825153581273
PRIMCOORD 24
6 1
Zr 1.679238598995 0.969508857181 22.797024285804
C 0.000000000000 -0.000000000000 17.624203329893
Cl -0.000000000336 1.939017714697 24.534476261531
Cl -0.000000000336 1.939017714697 20.787324543163
Sc -0.000000000336 1.939017714697 16.505048521092
Sc 1.679238598995 0.969508857181 18.836016404953
PRIMCOORD 25
6 1
Zr 1.679238598995 0.969508857181 22.785550772399
C 0.000000000000 -0.000000000000 17.638482090862
Cl -0.000000000336 1.939017714697 24.522273580864
Cl -0.000000000336 1.939017714697 20.790746089542
Sc -0.000000000336 1.939017714697 16.518855752311
Sc 1.679238598995 0.969508857181 18.848600507468
PRIMCOORD 26
6 1
Zr 1.679238598995 0.969508857181 22.772856505668
C 0.000000000000 -0.000000000000 17.654280076530
Cl -0.000000000336 1.939017714697 24.508772565285
Cl -0.000000000336 1.939017714697 20.794531679957
Sc -0.000000000336 1.939017714697 16.534132038635
Sc 1.679238598995 0.969508857181 18.862523527233
PRIMCOORD 27
6 1
Zr 1.679238598995 0.969508857181 22.759327194481
C 0.000000000000 -0.000000000000 17.671117273095
Cl -0.000000000336 1.939017714697 24.494383436322
Cl -0.000000000336 1.939017714697 20.798566291158
Sc -0.000000000336 1.939017714697 16.550413217834
Sc 1.679238598995 0.969508857181 18.877362420336
PRIMCOORD 28
6 1
Zr 1.679238598995 0.969508857181 22.745373920114
C 0.000000000000 -0.000000000000 17.688482090862
Cl -0.000000000336 1.939017714697 24.479543400375
Cl -0.000000000336 1.939017714697 20.802727333525
Sc -0.000000000336 1.939017714697 16.567204594516
Sc 1.679238598995 0.969508857181 18.892666314521
PRIMCOORD 29
6 1
Zr 1.679238598995 0.969508857181 22.731420645746
C -0.000000000000 0.000000000000 17.705846908629
Cl -0.000000000336 1.939017714697 24.464703364429
Cl -0.000000000336 1.939017714697 20.806888375893
Sc -0.000000000336 1.939017714697 16.583995971198
Sc 1.679238598995 0.969508857181 18.907970208705
PRIMCOORD 30
6 1
Zr 1.679238598995 0.969508857181 22.717891334560
C -0.000000000000 0.000000000000 17.722684105195
Cl -0.000000000336 1.939017714697 24.450314235465
Cl -0.000000000336 1.939017714697 20.810922987094
Sc -0.000000000336 1.939017714697 16.600277150396
Sc 1.679238598995 0.969508857181 18.922809101808
PRIMCOORD 31
6 1
Zr 1.679238598995 0.969508857181 22.705197067829
C -0.000000000000 0.000000000000 17.738482090862
Cl -0.000000000336 1.939017714697 24.436813219887
Cl -0.000000000336 1.939017714697 20.814708577509
Sc -0.000000000336 1.939017714697 16.615553436720
Sc 1.679238598995 0.969508857181 18.936732121573
PRIMCOORD 32
6 1
Zr 1.679238598995 0.969508857181 22.693723554423
C -0.000000000000 0.000000000000 17.752760851831
Cl -0.000000000336 1.939017714697 24.424610539220
Cl -0.000000000336 1.939017714697 20.818130123888
Sc -0.000000000336 1.939017714697 16.629360667939
Sc 1.679238598995 0.969508857181 18.949316224088
PRIMCOORD 33
6 1
Zr 1.679238598995 0.969508857181 22.683819411244
C -0.000000000000 0.000000000000 17.765086535174
Cl -0.000000000336 1.939017714697 24.414076965742
Cl -0.000000000336 1.939017714697 20.821083664276
Sc -0.000000000336 1.939017714697 16.641279318319
Sc 1.679238598995 0.969508857181 18.960179047768
PRIMCOORD 34
6 1
Zr 1.679238598995 0.969508857181 22.675785570668
C -0.000000000000 0.000000000000 17.775084631241
Cl -0.000000000336 1.939017714697 24.405532556753
Cl -0.000000000336 1.939017714697 20.823479456843
Sc -0.000000000336 1.939017714697 16.650947245701
Sc 1.679238598995 0.969508857181 18.968990531211
PRIMCOORD 35
6 1
Zr 1.679238598995 0.969508857181 22.669866136876
C -0.000000000000 0.000000000000 17.782451352941
Cl -0.000000000336 1.939017714697 24.399236929796
Cl -0.000000000336 1.939017714697 20.825244706644
Sc -0.000000000336 1.939017714697 16.658070695002
Sc 1.679238598995 0.969508857181 18.975482941952
PRIMCOORD 36
6 1
Zr 1.679238598995 0.969508857181 22.666240968870
C -0.000000000000 0.000000000000 17.786962866163
Cl -0.000000000336 1.939017714697 24.395381374310
Cl -0.000000000336 1.939017714697 20.826325777457
Sc -0.000000000336 1.939017714697 16.662433223820
Sc 1.679238598995 0.969508857181 18.979459011376
