
     Program PWSCF v.7.5 starts on 22Sep2026 at 22:33:47 

     This program is part of the open-source Quantum ESPRESSO suite
     for quantum simulation of materials; please cite
         "P. Giannozzi et al., J. Phys.:Condens. Matter 21 395502 (2009);
         "P. Giannozzi et al., J. Phys.:Condens. Matter 29 465901 (2017);
         "P. Giannozzi et al., J. Chem. Phys. 152 154105 (2020);
          URL http://www.quantum-espresso.org", 
     in publications or presentations arising from this work. More details at
     http://www.quantum-espresso.org/quote

     Parallel version (MPI), running on     4 processors

     MPI processes distributed on     1 nodes
     5756 MiB available memory on the printing compute node when the environment starts

     Reading input from vc-relax.in

     Current dimensions of program PWSCF are:
     Max number of different atomic species (ntypx) = 10
     Max number of k-points (npk) =  40000
     Max angular momentum in pseudopotentials (lmaxx) =  4

     R & G space division:  proc/nbgrp/npool/nimage =       4
     Subspace diagonalization in iterative solution of the eigenvalue problem:
     a serial algorithm will be used


     Parallelization info
     --------------------
     sticks:   dense  smooth     PW     G-vecs:    dense   smooth      PW
     Min         583     214     63                18471     4221     684
     Max         584     215     64                18473     4224     688
     Sum        2335     859    253                73889    16889    2741

     Using Slab Decomposition



     bravais-lattice index     =            2
     lattice parameter (alat)  =      10.2612  a.u.
     unit-cell volume          =     270.1072 (a.u.)^3
     number of atoms/cell      =            2
     number of atomic types    =            1
     number of electrons       =         8.00
     number of Kohn-Sham states=            8
     kinetic-energy cutoff     =      60.0000  Ry
     charge density cutoff     =     640.0000  Ry
     scf convergence threshold =      1.0E-10
     mixing beta               =       0.7000
     number of iterations used =            8  plain     mixing
     energy convergence thresh.=      1.0E-06
     force convergence thresh. =      1.0E-04
     press convergence thresh. =      1.0E-01
     Exchange-correlation= PBE
                           (   1   4   3   4   0   0   0)
     nstep                     =           60


     celldm(1)=  10.261213  celldm(2)=   0.000000  celldm(3)=   0.000000
     celldm(4)=   0.000000  celldm(5)=   0.000000  celldm(6)=   0.000000

     crystal axes: (cart. coord. in units of alat)
               a(1) = (  -0.500000   0.000000   0.500000 )  
               a(2) = (   0.000000   0.500000   0.500000 )  
               a(3) = (  -0.500000   0.500000   0.000000 )  

     reciprocal axes: (cart. coord. in units 2 pi/alat)
               b(1) = ( -1.000000 -1.000000  1.000000 )  
               b(2) = (  1.000000  1.000000  1.000000 )  
               b(3) = ( -1.000000  1.000000 -1.000000 )  


     PseudoPot. # 1 for Si read from file:
     ../pseudo/Si.pbe-n-rrkjus_psl.1.0.0.UPF
     MD5 check sum: fa25574f73a70a4139f2adfbefec430c
     Pseudo is Ultrasoft + core correction, Zval =  4.0
     Generated using &quot;atomic&quot; code by A. Dal Corso  v.6.3
     Using radial grid of 1141 points,  6 beta functions with: 
                l(1) =   0
                l(2) =   0
                l(3) =   1
                l(4) =   1
                l(5) =   2
                l(6) =   2
     Q(r) pseudized with 0 coefficients 


     atomic species   valence    mass     pseudopotential
     Si                4.00    28.08500     Si( 1.00)

     48 Sym. Ops., with inversion, found (24 have fractional translation)



   Cartesian axes

     site n.     atom                  positions (alat units)
         1        Si     tau(   1) = (   0.0000000   0.0000000   0.0000000  )
         2        Si     tau(   2) = (   0.2500000   0.2500000   0.2500000  )

     number of k points=    72  Marzari-Vanderbilt smearing, width (Ry)=  0.0100
                       cart. coord. in units 2pi/alat
        k(    1) = (   0.0000000   0.0000000   0.0000000), wk =   0.0011574
        k(    2) = (  -0.0833333   0.0833333  -0.0833333), wk =   0.0092593
        k(    3) = (  -0.1666667   0.1666667  -0.1666667), wk =   0.0092593
        k(    4) = (  -0.2500000   0.2500000  -0.2500000), wk =   0.0092593
        k(    5) = (  -0.3333333   0.3333333  -0.3333333), wk =   0.0092593
        k(    6) = (  -0.4166667   0.4166667  -0.4166667), wk =   0.0092593
        k(    7) = (   0.5000000  -0.5000000   0.5000000), wk =   0.0046296
        k(    8) = (   0.0000000   0.1666667   0.0000000), wk =   0.0069444
        k(    9) = (  -0.0833333   0.2500000  -0.0833333), wk =   0.0277778
        k(   10) = (  -0.1666667   0.3333333  -0.1666667), wk =   0.0277778
        k(   11) = (  -0.2500000   0.4166667  -0.2500000), wk =   0.0277778
        k(   12) = (  -0.3333333   0.5000000  -0.3333333), wk =   0.0277778
        k(   13) = (   0.5833333  -0.4166667   0.5833333), wk =   0.0277778
        k(   14) = (   0.5000000  -0.3333333   0.5000000), wk =   0.0277778
        k(   15) = (   0.4166667  -0.2500000   0.4166667), wk =   0.0277778
        k(   16) = (   0.3333333  -0.1666667   0.3333333), wk =   0.0277778
        k(   17) = (   0.2500000  -0.0833333   0.2500000), wk =   0.0277778
        k(   18) = (   0.1666667  -0.0000000   0.1666667), wk =   0.0138889
        k(   19) = (   0.0000000   0.3333333   0.0000000), wk =   0.0069444
        k(   20) = (  -0.0833333   0.4166667  -0.0833333), wk =   0.0277778
        k(   21) = (  -0.1666667   0.5000000  -0.1666667), wk =   0.0277778
        k(   22) = (  -0.2500000   0.5833333  -0.2500000), wk =   0.0277778
        k(   23) = (   0.6666667  -0.3333333   0.6666667), wk =   0.0277778
        k(   24) = (   0.5833333  -0.2500000   0.5833333), wk =   0.0277778
        k(   25) = (   0.5000000  -0.1666667   0.5000000), wk =   0.0277778
        k(   26) = (   0.4166667  -0.0833333   0.4166667), wk =   0.0277778
        k(   27) = (   0.3333333   0.0000000   0.3333333), wk =   0.0138889
        k(   28) = (   0.0000000   0.5000000   0.0000000), wk =   0.0069444
        k(   29) = (  -0.0833333   0.5833333  -0.0833333), wk =   0.0277778
        k(   30) = (  -0.1666667   0.6666667  -0.1666667), wk =   0.0277778
        k(   31) = (   0.7500000  -0.2500000   0.7500000), wk =   0.0277778
        k(   32) = (   0.6666667  -0.1666667   0.6666667), wk =   0.0277778
        k(   33) = (   0.5833333  -0.0833333   0.5833333), wk =   0.0277778
        k(   34) = (   0.5000000   0.0000000   0.5000000), wk =   0.0138889
        k(   35) = (   0.0000000   0.6666667   0.0000000), wk =   0.0069444
        k(   36) = (  -0.0833333   0.7500000  -0.0833333), wk =   0.0277778
        k(   37) = (   0.8333333  -0.1666667   0.8333333), wk =   0.0277778
        k(   38) = (   0.7500000  -0.0833333   0.7500000), wk =   0.0277778
        k(   39) = (   0.6666667  -0.0000000   0.6666667), wk =   0.0138889
        k(   40) = (   0.0000000   0.8333333   0.0000000), wk =   0.0069444
        k(   41) = (   0.9166667  -0.0833333   0.9166667), wk =   0.0277778
        k(   42) = (   0.8333333   0.0000000   0.8333333), wk =   0.0138889
        k(   43) = (   0.0000000  -1.0000000   0.0000000), wk =   0.0034722
        k(   44) = (  -0.1666667   0.3333333   0.0000000), wk =   0.0277778
        k(   45) = (  -0.2500000   0.4166667  -0.0833333), wk =   0.0555556
        k(   46) = (  -0.3333333   0.5000000  -0.1666667), wk =   0.0555556
        k(   47) = (   0.5833333  -0.4166667   0.7500000), wk =   0.0555556
        k(   48) = (   0.5000000  -0.3333333   0.6666667), wk =   0.0277778
        k(   49) = (  -0.1666667   0.5000000   0.0000000), wk =   0.0277778
        k(   50) = (  -0.2500000   0.5833333  -0.0833333), wk =   0.0555556
        k(   51) = (   0.6666667  -0.3333333   0.8333333), wk =   0.0555556
        k(   52) = (   0.5833333  -0.2500000   0.7500000), wk =   0.0555556
        k(   53) = (   0.5000000  -0.1666667   0.6666667), wk =   0.0555556
        k(   54) = (   0.4166667  -0.0833333   0.5833333), wk =   0.0555556
        k(   55) = (   0.3333333   0.0000000   0.5000000), wk =   0.0277778
        k(   56) = (  -0.1666667   0.6666667  -0.0000000), wk =   0.0277778
        k(   57) = (   0.7500000  -0.2500000   0.9166667), wk =   0.0555556
        k(   58) = (   0.6666667  -0.1666667   0.8333333), wk =   0.0555556
        k(   59) = (   0.5833333  -0.0833333   0.7500000), wk =   0.0555556
        k(   60) = (   0.5000000   0.0000000   0.6666667), wk =   0.0277778
        k(   61) = (   0.8333333  -0.1666667   1.0000000), wk =   0.0277778
        k(   62) = (   0.7500000  -0.0833333   0.9166667), wk =   0.0555556
        k(   63) = (   0.6666667   0.0000000   0.8333333), wk =   0.0277778
        k(   64) = (  -0.1666667  -1.0000000  -0.0000000), wk =   0.0138889
        k(   65) = (   0.6666667  -0.3333333   1.0000000), wk =   0.0277778
        k(   66) = (   0.5833333  -0.2500000   0.9166667), wk =   0.0555556
        k(   67) = (   0.5000000  -0.1666667   0.8333333), wk =   0.0277778
        k(   68) = (   0.6666667  -0.1666667   1.0000000), wk =   0.0277778
        k(   69) = (   0.5833333  -0.0833333   0.9166667), wk =   0.0555556
        k(   70) = (   0.5000000   0.0000000   0.8333333), wk =   0.0277778
        k(   71) = (  -0.3333333  -1.0000000   0.0000000), wk =   0.0138889
        k(   72) = (  -0.5000000  -1.0000000   0.0000000), wk =   0.0069444

     Dense  grid:    73889 G-vectors     FFT dimensions: (  60,  60,  60)

     Smooth grid:    16889 G-vectors     FFT dimensions: (  36,  36,  36)

     Estimated max dynamical RAM per process >      77.00 MB

     Estimated total dynamical RAM >     308.01 MB

     Initial potential from superposition of free atoms

     starting charge       7.9989, renormalised to       8.0000
     Starting wfcs are    8 randomized atomic wfcs

     total cpu time spent up to now is        1.5 secs

     per-process dynamical memory:    29.6 Mb

     Self-consistent Calculation

     iteration #  1     ecut=    60.00 Ry     beta= 0.70
     Davidson diagonalization with overlap
     ethr =  1.00E-02,  avg # of iterations =  4.1

     Threshold (ethr) on eigenvalues was too large:
     Diagonalizing with lowered threshold

     Davidson diagonalization with overlap
     ethr =  6.45E-04,  avg # of iterations =  2.0

     total cpu time spent up to now is        4.5 secs

     total energy              =     -22.83735235 Ry
     estimated scf accuracy    <       0.05542575 Ry

     iteration #  2     ecut=    60.00 Ry     beta= 0.70
     Davidson diagonalization with overlap
     ethr =  6.93E-04,  avg # of iterations =  1.0

     total cpu time spent up to now is        5.7 secs

     WARNING: integrated charge=     8.00003164, expected=     8.00000000

     total energy              =     -22.83965630 Ry
     estimated scf accuracy    <       0.00219709 Ry

     iteration #  3     ecut=    60.00 Ry     beta= 0.70
     Davidson diagonalization with overlap
     ethr =  2.75E-05,  avg # of iterations =  4.9

     total cpu time spent up to now is        7.4 secs

     WARNING: integrated charge=     8.00004897, expected=     8.00000000

     total energy              =     -22.83979073 Ry
     estimated scf accuracy    <       0.00004868 Ry

     iteration #  4     ecut=    60.00 Ry     beta= 0.70
     Davidson diagonalization with overlap
     ethr =  6.09E-07,  avg # of iterations =  3.9

     total cpu time spent up to now is        9.0 secs

     WARNING: integrated charge=     8.00004513, expected=     8.00000000

     total energy              =     -22.83980119 Ry
     estimated scf accuracy    <       0.00000010 Ry

     iteration #  5     ecut=    60.00 Ry     beta= 0.70
     Davidson diagonalization with overlap
     ethr =  1.23E-09,  avg # of iterations =  3.8

     total cpu time spent up to now is       10.7 secs

     WARNING: integrated charge=     8.00004396, expected=     8.00000000

     total energy              =     -22.83980165 Ry
     estimated scf accuracy    <          6.3E-09 Ry

     iteration #  6     ecut=    60.00 Ry     beta= 0.70
     Davidson diagonalization with overlap
     ethr =  7.83E-11,  avg # of iterations =  2.2

     total cpu time spent up to now is       12.2 secs

     End of self-consistent calculation

          k = 0.0000 0.0000 0.0000 (  2109 PWs)   bands (ev):

    -5.7585   6.2059   6.2059   6.2059   8.7691   8.7691   8.7691   9.5704

          k =-0.0833 0.0833-0.0833 (  2100 PWs)   bands (ev):

    -5.6675   5.3466   6.0620   6.0620   8.8141   8.9808   8.9808  10.2338

          k =-0.1667 0.1667-0.1667 (  2112 PWs)   bands (ev):

    -5.3973   3.8237   5.7550   5.7550   8.5577   9.4172   9.4172  11.6597

          k =-0.2500 0.2500-0.2500 (  2106 PWs)   bands (ev):

    -4.9587   2.2769   5.4453   5.4453   8.2356   9.7130   9.7130  13.1260

          k =-0.3333 0.3333-0.3333 (  2114 PWs)   bands (ev):

    -4.3816   0.8692   5.2044   5.2044   7.9699   9.7147   9.7147  14.0793

          k =-0.4167 0.4167-0.4167 (  2114 PWs)   bands (ev):

    -3.7610  -0.2610   5.0558   5.0558   7.8016   9.6025   9.6025  14.0241

          k = 0.5000-0.5000 0.5000 (  2120 PWs)   bands (ev):

    -3.4268  -0.7667   5.0060   5.0060   7.7445   9.5481   9.5481  13.9420

          k = 0.0000 0.1667 0.0000 (  2093 PWs)   bands (ev):

    -5.6370   5.5119   5.7754   5.7754   8.4953   9.3489   9.3489  10.2103

          k =-0.0833 0.2500-0.0833 (  2109 PWs)   bands (ev):

    -5.4260   4.2774   5.4111   5.6022   8.5180   9.4321   9.8878  11.1085

          k =-0.1667 0.3333-0.1667 (  2105 PWs)   bands (ev):

    -5.0420   2.7747   5.0977   5.2785   8.6454   9.4217  10.2739  11.6107

          k =-0.2500 0.4167-0.2500 (  2117 PWs)   bands (ev):

    -4.5060   1.3376   4.8876   4.9251   8.5018   9.5050  10.2975  12.1812

          k =-0.3333 0.5000-0.3333 (  2116 PWs)   bands (ev):

    -3.8803   0.1068   4.6285   4.7977   8.3363   9.4726  10.1023  13.2301

          k = 0.5833-0.4167 0.5833 (  2114 PWs)   bands (ev):

    -3.3894  -0.6634   4.4233   4.8286   8.2560   9.4744   9.9024  14.1332

          k = 0.5000-0.3333 0.5000 (  2115 PWs)   bands (ev):

    -3.5103  -0.4856   4.3278   4.9719   8.2831   9.5910   9.7913  14.2415

          k = 0.4167-0.2500 0.4167 (  2115 PWs)   bands (ev):

    -4.0923   0.4872   4.3550   5.2117   8.4161   9.7590   9.8004  13.6976

          k = 0.3333-0.1667 0.3333 (  2112 PWs)   bands (ev):

    -4.7003   1.8022   4.5148   5.5221   8.6420   9.6774   9.9528  12.7289

          k = 0.2500-0.0833 0.2500 (  2111 PWs)   bands (ev):

    -5.1891   3.2617   4.8190   5.8519   8.9242   9.3769   9.7393  11.9491

          k = 0.1667-0.0000 0.1667 (  2111 PWs)   bands (ev):

    -5.5165   4.6156   5.3415   6.0877   9.0188   9.1388   9.1757  11.0317

          k = 0.0000 0.3333 0.0000 (  2105 PWs)   bands (ev):

    -5.2743   4.1669   5.0118   5.0118   7.9116  10.5093  10.5528  10.5528

          k =-0.0833 0.4167-0.0833 (  2106 PWs)   bands (ev):

    -4.9472   3.0790   4.6646   4.6772   7.9317  10.1061  10.8911  11.1161

          k =-0.1667 0.5000-0.1667 (  2106 PWs)   bands (ev):

    -4.4590   1.7676   4.2119   4.4584   8.1726  10.2748  10.7338  11.2839

          k =-0.2500 0.5833-0.2500 (  2119 PWs)   bands (ev):

    -3.8511   0.5323   3.7724   4.3743   8.2183  10.4668  11.1038  11.2618

          k = 0.6667-0.3333 0.6667 (  2120 PWs)   bands (ev):

    -3.2674  -0.4024   3.4277   4.4281   8.2499  10.3245  10.8309  12.6317

          k = 0.5833-0.2500 0.5833 (  2117 PWs)   bands (ev):

    -3.1530  -0.5623   3.2136   4.6122   8.3947  10.2774  10.6043  14.1878

          k = 0.5000-0.1667 0.5000 (  2122 PWs)   bands (ev):

    -3.6525   0.1970   3.1569   4.9074   8.6597  10.3320  10.4379  13.5031

          k = 0.4167-0.0833 0.4167 (  2118 PWs)   bands (ev):

    -4.2770   1.3445   3.3014   5.2758   8.9913  10.2089  10.3873  12.3426

          k = 0.3333 0.0000 0.3333 (  2109 PWs)   bands (ev):

    -4.8090   2.4870   3.7920   5.6403   9.2472   9.7650  10.0569  11.8748

          k = 0.0000 0.5000 0.0000 (  2085 PWs)   bands (ev):

    -4.6765   2.6874   4.3145   4.3145   7.3375   9.3428  11.9653  11.9653

          k =-0.0833 0.5833-0.0833 (  2112 PWs)   bands (ev):

    -4.2398   1.7768   3.8490   4.0678   7.4215   8.9887  12.2543  12.4478

          k =-0.1667 0.6667-0.1667 (  2119 PWs)   bands (ev):

    -3.6644   0.7473   3.2168   3.9606   7.6400   9.4603  12.1209  12.4060

          k = 0.7500-0.2500 0.7500 (  2123 PWs)   bands (ev):

    -3.0402  -0.1793   2.6700   3.9992   7.7283  10.6586  11.9533  12.1288

          k = 0.6667-0.1667 0.6667 (  2125 PWs)   bands (ev):

    -2.7163  -0.5942   2.3069   4.1793   7.9077  11.6673  11.8315  12.3770

          k = 0.5833-0.0833 0.5833 (  2129 PWs)   bands (ev):

    -3.0923  -0.0999   2.1873   4.4843   8.2321  11.5305  11.6499  13.3924

          k = 0.5000 0.0000 0.5000 (  2119 PWs)   bands (ev):

    -3.7146   0.7234   2.4515   4.8768   8.6578  10.9967  11.3439  12.3550

          k = 0.0000 0.6667 0.0000 (  2108 PWs)   bands (ev):

    -3.8541   1.1930   3.7865   3.7865   6.9346   8.2012  13.4724  13.4724

          k =-0.0833 0.7500-0.0833 (  2116 PWs)   bands (ev):

    -3.3193   0.4068   3.3005   3.6438   7.0972   8.0708  13.7975  13.8426

          k = 0.8333-0.1667 0.8333 (  2126 PWs)   bands (ev):

    -2.6901  -0.3620   2.5721   3.6499   7.2714   8.9263  13.6606  13.6901

          k = 0.7500-0.0833 0.7500 (  2125 PWs)   bands (ev):

    -2.2210  -0.8534   1.9931   3.8037   7.4484  10.3738  13.3085  13.5232

          k = 0.6667-0.0000 0.6667 (  2121 PWs)   bands (ev):

    -2.4939  -0.5672   1.7911   4.0925   7.7755  12.0131  12.6847  13.2867

          k = 0.0000 0.8333 0.0000 (  2112 PWs)   bands (ev):

    -2.8245  -0.2586   3.4613   3.4613   6.7796   7.3846  15.0348  15.0349

          k = 0.9167-0.0833 0.9167 (  2125 PWs)   bands (ev):

    -2.2108  -0.9467   3.0294   3.4276   6.9810   7.5505  15.2805  15.3812

          k = 0.8333 0.0000 0.8333 (  2123 PWs)   bands (ev):

    -1.7548  -1.3510   2.3584   3.5447   7.1410   8.7520  14.7325  15.2636

          k = 0.0000-1.0000 0.0000 (  2100 PWs)   bands (ev):

    -1.6137  -1.6137   3.3517   3.3517   6.9181   6.9181  16.3120  16.3120

          k =-0.1667 0.3333 0.0000 (  2103 PWs)   bands (ev):

    -5.1573   3.4777   4.5707   5.4990   8.5451   9.7544  10.3642  11.1198

          k =-0.2500 0.4167-0.0833 (  2109 PWs)   bands (ev):

    -4.7208   2.2357   4.0383   5.2236   8.8267   9.7223  10.7716  11.1066

          k =-0.3333 0.5000-0.1667 (  2118 PWs)   bands (ev):

    -4.1455   0.9332   3.7690   4.8958   8.8684   9.5995  10.8295  11.7565

          k = 0.5833-0.4167 0.7500 (  2115 PWs)   bands (ev):

    -3.5236  -0.1573   3.6418   4.6489   8.8127   9.4102  10.7482  12.9724

          k = 0.5000-0.3333 0.6667 (  2118 PWs)   bands (ev):

    -3.1851  -0.6559   3.6063   4.5571   8.7914   9.3250  10.7028  14.2841

          k =-0.1667 0.5000 0.0000 (  2111 PWs)   bands (ev):

    -4.5660   2.2841   3.8748   4.5779   7.9978   9.7382  11.0272  11.8455

          k =-0.2500 0.5833-0.0833 (  2111 PWs)   bands (ev):

    -4.0333   1.2331   3.3374   4.2890   8.3312   9.9577  10.7707  12.2319

          k = 0.6667-0.3333 0.8333 (  2117 PWs)   bands (ev):

    -3.4077   0.1778   2.9809   4.0780   8.4527  10.4198  11.0206  12.2138

          k = 0.5833-0.2500 0.7500 (  2123 PWs)   bands (ev):

    -2.9106  -0.5292   2.7351   4.0599   8.5808  10.1458  12.1059  12.4898

          k = 0.5000-0.1667 0.6667 (  2120 PWs)   bands (ev):

    -3.0464  -0.3418   2.6166   4.2327   8.8305   9.9564  12.0224  12.8764

          k = 0.4167-0.0833 0.5833 (  2119 PWs)   bands (ev):

    -3.6368   0.5359   2.6905   4.5500   9.1895   9.8143  11.5022  11.9774

          k = 0.3333 0.0000 0.5000 (  2121 PWs)   bands (ev):

    -4.2396   1.5159   3.1056   4.9323   9.4207   9.5682  10.8837  11.5463

          k =-0.1667 0.6667-0.0000 (  2114 PWs)   bands (ev):

    -3.7555   1.0176   3.3648   3.7927   7.6004   8.6884  12.2726  13.4213

          k = 0.7500-0.2500 0.9167 (  2123 PWs)   bands (ev):

    -3.1496   0.1817   2.7767   3.5755   7.9350   9.2183  11.9721  13.7911

          k = 0.6667-0.1667 0.8333 (  2126 PWs)   bands (ev):

    -2.5600  -0.5335   2.2554   3.5835   8.0891  10.5127  11.6770  13.7241

          k = 0.5833-0.0833 0.7500 (  2125 PWs)   bands (ev):

    -2.4890  -0.6045   1.9665   3.7822   8.3460  11.2678  12.2631  12.9447

          k = 0.5000 0.0000 0.6667 (  2117 PWs)   bands (ev):

    -3.0269  -0.0138   2.0533   4.1276   8.7379  10.8540  11.7152  13.0507

          k = 0.8333-0.1667 1.0000 (  2125 PWs)   bands (ev):

    -2.7471  -0.2951   3.0808   3.2773   7.4298   7.9429  13.6500  15.0302

          k = 0.7500-0.0833 0.9167 (  2130 PWs)   bands (ev):

    -2.1179  -0.9383   2.4518   3.2334   7.7222   8.8497  13.3300  14.8130

          k = 0.6667 0.0000 0.8333 (  2132 PWs)   bands (ev):

    -1.9630  -1.0519   1.9535   3.4307   7.9598  10.3806  12.8694  13.2621

          k =-0.1667-1.0000-0.0000 (  2126 PWs)   bands (ev):

    -1.5756  -1.5756   3.0453   3.0453   7.5321   7.5321  15.1215  15.1216

          k = 0.6667-0.3333 1.0000 (  2113 PWs)   bands (ev):

    -3.4689   0.5597   2.6347   3.9097   9.0617   9.9253  10.4434  13.2755

          k = 0.5833-0.2500 0.9167 (  2127 PWs)   bands (ev):

    -2.8446  -0.2106   2.2875   3.5723   9.4365   9.9761  10.9649  13.7048

          k = 0.5000-0.1667 0.8333 (  2122 PWs)   bands (ev):

    -2.4839  -0.6401   2.1945   3.4428   9.5654   9.7663  12.3121  12.7289

          k = 0.6667-0.1667 1.0000 (  2128 PWs)   bands (ev):

    -2.5331  -0.4393   2.4358   3.0546   8.8912   9.2954  11.5933  14.5241

          k = 0.5833-0.0833 0.9167 (  2144 PWs)   bands (ev):

    -2.0097  -0.9461   2.1200   2.9003   9.2328  10.4970  11.3188  12.7060

          k = 0.5000 0.0000 0.8333 (  2136 PWs)   bands (ev):

    -2.2413  -0.7162   1.9951   3.1255   9.5346  10.6852  11.2094  12.4539

          k =-0.3333-1.0000 0.0000 (  2138 PWs)   bands (ev):

    -1.4938  -1.4938   2.5593   2.5593   8.9580   8.9580  12.9738  12.9738

          k =-0.5000-1.0000 0.0000 (  2148 PWs)   bands (ev):

    -1.4497  -1.4497   2.3514   2.3514  10.4804  10.4804  11.2110  11.2110

     the Fermi energy is     6.5658 ev

     WARNING: integrated charge=     8.00004402, expected=     8.00000000

!    total energy              =     -22.83980168 Ry
     estimated scf accuracy    <          6.0E-11 Ry
     smearing contrib. (-TS)   =       0.00000036 Ry
     internal energy E=F+TS    =     -22.83980204 Ry

     The total energy is F=E-TS. E is the sum of the following terms:
     one-electron contribution =       5.16840817 Ry
     hartree contribution      =       1.10010066 Ry
     xc contribution           =     -12.30936713 Ry
     ewald contribution        =     -16.79894373 Ry

     convergence has been achieved in   6 iterations

     Forces acting on atoms (cartesian axes, Ry/au):

     atom    1 type  1   force =     0.00000000    0.00000000    0.00000000
     atom    2 type  1   force =     0.00000000    0.00000000    0.00000000

     Total force =     0.000000     Total SCF correction =     0.000000


     Computing stress (Cartesian axis) and pressure

          total   stress  (Ry/bohr**3)                   (kbar)     P=       20.22
   0.00013742  -0.00000000  -0.00000000           20.22       -0.00       -0.00
  -0.00000000   0.00013742   0.00000000           -0.00       20.22        0.00
  -0.00000000   0.00000000   0.00013742           -0.00        0.00       20.22


     BFGS Geometry Optimization
     Energy error            =      3.8E-04 Ry
     Gradient error          =      0.0E+00 Ry/Bohr
     Cell gradient error     =      2.0E+01 kbar

     number of scf cycles    =   1
     number of bfgs steps    =   0

     enthalpy           new  =     -22.8398016767 Ry

     new trust radius        =       0.0112923612 bohr
ibrav =      2
 celldm(1) =     10.29646499
Input lattice vectors:
    -0.50171774     0.00000000     0.50171774
    -0.00000000     0.50171774     0.50171774
    -0.50171774     0.50171774     0.00000000
New lattice vectors in INITIAL alat:
    -0.50171774     0.00000000     0.50171774
     0.00000000     0.50171774     0.50171774
    -0.50171774     0.50171774     0.00000000
New lattice vectors in NEW alat (for information only):
    -0.50000000     0.00000000     0.50000000
     0.00000000     0.50000000     0.50000000
    -0.50000000     0.50000000     0.00000000
Discrepancy in bohr =     0.000000    0.000000    0.000000

Atomic positions rescaled with new alat:
Si               0.0000000000        0.0000000000        0.0000000000
Si               0.2500000000        0.2500000000        0.2500000000
     new conv_thr            =            1.0E-10 Ry

     new unit-cell volume =    272.90057 a.u.^3 (    40.43969 Ang^3 )
     density =      2.30646 g/cm^3

CELL_PARAMETERS (alat= 10.26121286)
  -0.501717737   0.000000000   0.501717737
   0.000000000   0.501717737   0.501717737
  -0.501717737   0.501717737   0.000000000

ATOMIC_POSITIONS (alat)
Si               0.0000000000        0.0000000000        0.0000000000
Si               0.2508588686        0.2508588686        0.2508588686



     Writing config-only to output data dir ./tmp/si-diamond.save/ :
     XML data file
     NEW-OLD atomic charge density approx. for the potential
     New effective cutoffs (rho, wfc):  634.53   59.59
     extrapolated charge    8.00004, renormalised to    8.00000

     total cpu time spent up to now is       14.3 secs

     per-process dynamical memory:    35.1 Mb

     Self-consistent Calculation

     iteration #  1     ecut=    60.00 Ry     beta= 0.70
     Davidson diagonalization with overlap
     ethr =  1.00E-06,  avg # of iterations =  3.2

     Threshold (ethr) on eigenvalues was too large:
     Diagonalizing with lowered threshold

     Davidson diagonalization with overlap
     ethr =  4.92E-08,  avg # of iterations =  3.1

     total cpu time spent up to now is       17.4 secs

     WARNING: integrated charge=     8.00002391, expected=     8.00000000

     total energy              =     -22.84009583 Ry
     estimated scf accuracy    <       0.00000360 Ry

     iteration #  2     ecut=    60.00 Ry     beta= 0.70
     Davidson diagonalization with overlap
     ethr =  4.50E-08,  avg # of iterations =  1.4

     total cpu time spent up to now is       18.7 secs

     WARNING: integrated charge=     8.00003089, expected=     8.00000000

     total energy              =     -22.84009682 Ry
     estimated scf accuracy    <       0.00000007 Ry

     iteration #  3     ecut=    60.00 Ry     beta= 0.70
     Davidson diagonalization with overlap
     ethr =  9.12E-10,  avg # of iterations =  3.0

     total cpu time spent up to now is       20.3 secs

     WARNING: integrated charge=     8.00003296, expected=     8.00000000

     total energy              =     -22.84009686 Ry
     estimated scf accuracy    <          4.9E-09 Ry

     iteration #  4     ecut=    60.00 Ry     beta= 0.70
     Davidson diagonalization with overlap
     ethr =  6.10E-11,  avg # of iterations =  2.7

     total cpu time spent up to now is       21.8 secs

     WARNING: integrated charge=     8.00003305, expected=     8.00000000

     total energy              =     -22.84009681 Ry
     estimated scf accuracy    <          1.5E-10 Ry

     iteration #  5     ecut=    60.00 Ry     beta= 0.70
     Davidson diagonalization with overlap
     ethr =  1.91E-12,  avg # of iterations =  2.8

     total cpu time spent up to now is       23.3 secs

     End of self-consistent calculation

          k = 0.0000 0.0000 0.0000 (  2109 PWs)   bands (ev):

    -5.7950   6.0987   6.0987   6.0987   8.6577   8.6577   8.6577   9.3454

          k =-0.0830 0.0830-0.0830 (  2100 PWs)   bands (ev):

    -5.7048   5.2396   5.9564   5.9564   8.6850   8.8671   8.8671  10.0283

          k =-0.1661 0.1661-0.1661 (  2112 PWs)   bands (ev):

    -5.4370   3.7244   5.6522   5.6522   8.4172   9.3001   9.3001  11.4635

          k =-0.2491 0.2491-0.2491 (  2106 PWs)   bands (ev):

    -5.0026   2.1887   5.3448   5.3448   8.0929   9.5974   9.5974  12.9340

          k =-0.3322 0.3322-0.3322 (  2114 PWs)   bands (ev):

    -4.4313   0.7926   5.1054   5.1054   7.8267   9.6053   9.6053  13.9298

          k =-0.4152 0.4152-0.4152 (  2114 PWs)   bands (ev):

    -3.8182  -0.3264   4.9576   4.9576   7.6582   9.4980   9.4980  13.9003

          k = 0.4983-0.4983 0.4983 (  2120 PWs)   bands (ev):

    -3.4893  -0.8256   4.9080   4.9080   7.6010   9.4453   9.4453  13.8213

          k = 0.0000 0.1661 0.0000 (  2093 PWs)   bands (ev):

    -5.6746   5.3968   5.6737   5.6737   8.3865   9.2308   9.2308   9.9954

          k =-0.0830 0.2491-0.0830 (  2109 PWs)   bands (ev):

    -5.4655   4.1717   5.3130   5.4978   8.4074   9.2922   9.7650  10.9320

          k =-0.1661 0.3322-0.1661 (  2105 PWs)   bands (ev):

    -5.0850   2.6805   5.0020   5.1761   8.5211   9.2894  10.1508  11.4831

          k =-0.2491 0.4152-0.2491 (  2117 PWs)   bands (ev):

    -4.5543   1.2554   4.7930   4.8251   8.3675   9.3878  10.1804  12.0569

          k =-0.3322 0.4983-0.3322 (  2116 PWs)   bands (ev):

    -3.9356   0.0363   4.5310   4.7032   8.1988   9.3640   9.9917  13.0964

          k = 0.5813-0.4152 0.5813 (  2114 PWs)   bands (ev):

    -3.4518  -0.7247   4.3279   4.7331   8.1168   9.3694   9.7956  13.9990

          k = 0.4983-0.3322 0.4983 (  2115 PWs)   bands (ev):

    -3.5707  -0.5493   4.2340   4.8746   8.1421   9.4858   9.6854  14.1073

          k = 0.4152-0.2491 0.4152 (  2115 PWs)   bands (ev):

    -4.1450   0.4128   4.2622   5.1120   8.2739   9.6504   9.6916  13.5488

          k = 0.3322-0.1661 0.3322 (  2112 PWs)   bands (ev):

    -4.7466   1.7160   4.4221   5.4197   8.4993   9.5638   9.8368  12.5754

          k = 0.2491-0.0830 0.2491 (  2111 PWs)   bands (ev):

    -5.2308   3.1634   4.7256   5.7467   8.7826   9.2614   9.6165  11.7787

          k = 0.1661-0.0000 0.1661 (  2111 PWs)   bands (ev):

    -5.5552   4.5079   5.2450   5.9807   8.9056   8.9971   9.0579  10.8399

          k = 0.0000 0.3322 0.0000 (  2105 PWs)   bands (ev):

    -5.3152   4.0510   4.9178   4.9178   7.8083  10.3574  10.4235  10.4235

          k =-0.0830 0.4152-0.0830 (  2106 PWs)   bands (ev):

    -4.9909   2.9739   4.5702   4.5860   7.8279   9.9733  10.7666  10.9836

          k =-0.1661 0.4983-0.1661 (  2106 PWs)   bands (ev):

    -4.5074   1.6757   4.1196   4.3687   8.0667  10.1381  10.6145  11.1557

          k =-0.2491 0.5813-0.2491 (  2119 PWs)   bands (ev):

    -3.9059   0.4529   3.6832   4.2848   8.1118  10.3260  10.9827  11.1404

          k = 0.6644-0.3322 0.6644 (  2120 PWs)   bands (ev):

    -3.3298  -0.4708   3.3416   4.3375   8.1412  10.1898  10.7149  12.4960

          k = 0.5813-0.2491 0.5813 (  2117 PWs)   bands (ev):

    -3.2173  -0.6283   3.1303   4.5193   8.2813  10.1462  10.4904  14.0400

          k = 0.4983-0.1661 0.4983 (  2122 PWs)   bands (ev):

    -3.7098   0.1215   3.0759   4.8114   8.5390  10.2045  10.3226  13.3463

          k = 0.4152-0.0830 0.4152 (  2118 PWs)   bands (ev):

    -4.3273   1.2566   3.2221   5.1760   8.8618  10.0895  10.2621  12.1904

          k = 0.3322 0.0000 0.3322 (  2109 PWs)   bands (ev):

    -4.8542   2.3886   3.7110   5.5367   9.1083   9.6463   9.9317  11.7254

          k = 0.0000 0.4983 0.0000 (  2085 PWs)   bands (ev):

    -4.7226   2.5784   4.2266   4.2266   7.2400   9.2368  11.8245  11.8245

          k =-0.0830 0.5813-0.0830 (  2112 PWs)   bands (ev):

    -4.2900   1.6757   3.7653   3.9820   7.3237   8.8876  12.1054  12.3065

          k =-0.1661 0.6644-0.1661 (  2119 PWs)   bands (ev):

    -3.7203   0.6569   3.1387   3.8753   7.5430   9.3529  11.9672  12.2719

          k = 0.7474-0.2491 0.7474 (  2123 PWs)   bands (ev):

    -3.1034  -0.2588   2.5967   3.9132   7.6314  10.5435  11.7961  12.0006

          k = 0.6644-0.1661 0.6644 (  2125 PWs)   bands (ev):

    -2.7846  -0.6672   2.2373   4.0913   7.8081  11.5364  11.7057  12.2263

          k = 0.5813-0.0830 0.5813 (  2129 PWs)   bands (ev):

    -3.1555  -0.1797   2.1208   4.3930   8.1271  11.4029  11.5118  13.2336

          k = 0.4983 0.0000 0.4983 (  2119 PWs)   bands (ev):

    -3.7707   0.6350   2.3840   4.7814   8.5441  10.8685  11.2126  12.1939

          k = 0.0000 0.6644 0.0000 (  2108 PWs)   bands (ev):

    -3.9076   1.0947   3.7031   3.7031   6.8422   8.1084  13.3199  13.3199

          k =-0.0830 0.7474-0.0830 (  2116 PWs)   bands (ev):

    -3.3779   0.3149   3.2232   3.5614   7.0046   7.9768  13.6367  13.6925

          k = 0.8305-0.1661 0.8305 (  2126 PWs)   bands (ev):

    -2.7553  -0.4470   2.5042   3.5673   7.1800   8.8214  13.5173  13.5255

          k = 0.7474-0.0830 0.7474 (  2125 PWs)   bands (ev):

    -2.2930  -0.9322   1.9325   3.7195   7.3552  10.2584  13.1669  13.3589

          k = 0.6644 0.0000 0.6644 (  2121 PWs)   bands (ev):

    -2.5637  -0.6477   1.7328   4.0053   7.6780  11.8949  12.5423  13.1257

          k = 0.0000 0.8305 0.0000 (  2112 PWs)   bands (ev):

    -2.8874  -0.3447   3.3804   3.3804   6.6908   7.2968  14.8689  14.8689

          k = 0.9135-0.0830 0.9135 (  2125 PWs)   bands (ev):

    -2.2796  -1.0270   2.9549   3.3469   6.8925   7.4575  15.1157  15.2059

          k = 0.8305 0.0000 0.8305 (  2123 PWs)   bands (ev):

    -1.8302  -1.4266   2.2936   3.4629   7.0515   8.6475  14.5685  15.0730

          k = 0.0000-0.9966 0.0000 (  2100 PWs)   bands (ev):

    -1.6876  -1.6876   3.2717   3.2717   6.8310   6.8310  16.1167  16.1167

          k =-0.1661 0.3322 0.0000 (  2103 PWs)   bands (ev):

    -5.1991   3.3726   4.4819   5.3962   8.4354   9.6065  10.2369  10.9931

          k =-0.2491 0.4152-0.0830 (  2109 PWs)   bands (ev):

    -4.7668   2.1412   3.9520   5.1238   8.7112   9.5816  10.6440  10.9927

          k =-0.3322 0.4983-0.1661 (  2118 PWs)   bands (ev):

    -4.1973   0.8514   3.6820   4.7998   8.7433   9.4803  10.7034  11.6343

          k = 0.5813-0.4152 0.7474 (  2115 PWs)   bands (ev):

    -3.5828  -0.2274   3.5538   4.5561   8.6809   9.3050  10.6252  12.8376

          k = 0.4983-0.3322 0.6644 (  2118 PWs)   bands (ev):

    -3.2495  -0.7193   3.5178   4.4656   8.6563   9.2252  10.5809  14.1348

          k =-0.1661 0.4983 0.0000 (  2111 PWs)   bands (ev):

    -4.6132   2.1818   3.7923   4.4856   7.8937   9.6240  10.8931  11.7062

          k =-0.2491 0.5813-0.0830 (  2111 PWs)   bands (ev):

    -4.0857   1.1406   3.2581   4.2007   8.2254   9.8449  10.6361  12.0919

          k = 0.6644-0.3322 0.8305 (  2117 PWs)   bands (ev):

    -3.4670   0.0974   2.9023   3.9927   8.3470  10.2972  10.8911  12.0755

          k = 0.5813-0.2491 0.7474 (  2123 PWs)   bands (ev):

    -2.9768  -0.6001   2.6579   3.9748   8.4730  10.0239  11.9693  12.3521

          k = 0.4983-0.1661 0.6644 (  2120 PWs)   bands (ev):

    -3.1107  -0.4153   2.5417   4.1454   8.7180   9.8379  11.8825  12.7437

          k = 0.4152-0.0830 0.5813 (  2119 PWs)   bands (ev):

    -3.6937   0.4514   2.6178   4.4588   9.0693   9.6983  11.3694  11.8463

          k = 0.3322 0.0000 0.4983 (  2121 PWs)   bands (ev):

    -4.2902   1.4217   3.0313   4.8364   9.3045   9.4370  10.7668  11.4111

          k =-0.1661 0.6644-0.0000 (  2114 PWs)   bands (ev):

    -3.8101   0.9214   3.2868   3.7103   7.5011   8.5900  12.1271  13.2696

          k = 0.7474-0.2491 0.9135 (  2123 PWs)   bands (ev):

    -3.2105   0.0929   2.7052   3.4959   7.8355   9.1126  11.8300  13.6370

          k = 0.6644-0.1661 0.8305 (  2126 PWs)   bands (ev):

    -2.6282  -0.6140   2.1896   3.5036   7.9891  10.3987  11.5363  13.5675

          k = 0.5813-0.0830 0.7474 (  2125 PWs)   bands (ev):

    -2.5590  -0.6833   1.9045   3.7000   8.2428  11.1440  12.1286  12.7961

          k = 0.4983 0.0000 0.6644 (  2117 PWs)   bands (ev):

    -3.0903  -0.0986   1.9908   4.0415   8.6292  10.7292  11.5824  12.9112

          k = 0.8305-0.1661 0.9966 (  2125 PWs)   bands (ev):

    -2.8111  -0.3814   3.0055   3.2006   7.3341   7.8487  13.4969  14.8632

          k = 0.7474-0.0830 0.9135 (  2130 PWs)   bands (ev):

    -2.1888  -1.0192   2.3858   3.1570   7.6262   8.7448  13.1808  14.6457

          k = 0.6644 0.0000 0.8305 (  2132 PWs)   bands (ev):

    -2.0379  -1.1302   1.8942   3.3522   7.8614  10.2655  12.7230  13.1149

          k =-0.1661-0.9966 0.0000 (  2126 PWs)   bands (ev):

    -1.6505  -1.6505   2.9707   2.9707   7.4383   7.4383  14.9553  14.9554

          k = 0.6644-0.3322 0.9966 (  2113 PWs)   bands (ev):

    -3.5270   0.4690   2.5652   3.8268   8.9500   9.8210  10.3065  13.1271

          k = 0.5813-0.2491 0.9135 (  2127 PWs)   bands (ev):

    -2.9097  -0.2938   2.2206   3.4940   9.3261   9.8582  10.8352  13.5552

          k = 0.4983-0.1661 0.8305 (  2122 PWs)   bands (ev):

    -2.5541  -0.7173   2.1277   3.3662   9.4629   9.6387  12.1835  12.5808

          k = 0.6644-0.1661 0.9966 (  2128 PWs)   bands (ev):

    -2.6004  -0.5249   2.3691   2.9826   8.7829   9.1899  11.4552  14.3645

          k = 0.5813-0.0830 0.9135 (  2144 PWs)   bands (ev):

    -2.0834  -1.0270   2.0582   2.8300   9.1245  10.3855  11.1793  12.5630

          k = 0.4983 0.0000 0.8305 (  2136 PWs)   bands (ev):

    -2.3129  -0.7985   1.9347   3.0524   9.4248  10.5665  11.0767  12.3124

          k =-0.3322-0.9966-0.0000 (  2138 PWs)   bands (ev):

    -1.5710  -1.5710   2.4924   2.4924   8.8518   8.8518  12.8284  12.8284

          k =-0.4983-0.9966 0.0000 (  2148 PWs)   bands (ev):

    -1.5282  -1.5282   2.2878   2.2878  10.3740  10.3740  11.0675  11.0675

     the Fermi energy is     6.4689 ev

     WARNING: integrated charge=     8.00003300, expected=     8.00000000

!    total energy              =     -22.84009682 Ry
     estimated scf accuracy    <          8.5E-12 Ry
     smearing contrib. (-TS)   =       0.00000027 Ry
     internal energy E=F+TS    =     -22.84009708 Ry

     The total energy is F=E-TS. E is the sum of the following terms:
     one-electron contribution =       5.08896250 Ry
     hartree contribution      =       1.10919714 Ry
     xc contribution           =     -12.29682774 Ry
     ewald contribution        =     -16.74142898 Ry

     convergence has been achieved in   5 iterations

     Forces acting on atoms (cartesian axes, Ry/au):

     atom    1 type  1   force =     0.00000000    0.00000000    0.00000000
     atom    2 type  1   force =    -0.00000000   -0.00000000   -0.00000000

     Total force =     0.000000     Total SCF correction =     0.000000


     Computing stress (Cartesian axis) and pressure

          total   stress  (Ry/bohr**3)                   (kbar)     P=       10.40
   0.00007072  -0.00000000   0.00000000           10.40       -0.00        0.00
  -0.00000000   0.00007072   0.00000000           -0.00       10.40        0.00
   0.00000000   0.00000000   0.00007072            0.00        0.00       10.40

     Energy error            =      3.0E-04 Ry
     Gradient error          =      2.5E-32 Ry/Bohr
     Cell gradient error     =      1.0E+01 kbar

     number of scf cycles    =   2
     number of bfgs steps    =   1

     enthalpy           old  =     -22.8398016767 Ry
     enthalpy           new  =     -22.8400968165 Ry

     CASE: enthalpy          _new < enthalpy          _old

     new trust radius        =       0.0121656771 bohr
ibrav =      2
 celldm(1) =     10.33437835
Input lattice vectors:
    -0.50356515    -0.00000000     0.50356515
     0.00000000     0.50356515     0.50356515
    -0.50356515     0.50356515    -0.00000000
New lattice vectors in INITIAL alat:
    -0.50356515     0.00000000     0.50356515
     0.00000000     0.50356515     0.50356515
    -0.50356515     0.50356515     0.00000000
New lattice vectors in NEW alat (for information only):
    -0.50000000     0.00000000     0.50000000
     0.00000000     0.50000000     0.50000000
    -0.50000000     0.50000000     0.00000000
Discrepancy in bohr =     0.000000    0.000000    0.000000

Atomic positions rescaled with new alat:
Si               0.0000000000        0.0000000000        0.0000000000
Si               0.2500000000        0.2500000000        0.2500000000
     new conv_thr            =            1.0E-12 Ry

     new unit-cell volume =    275.92629 a.u.^3 (    40.88806 Ang^3 )
     density =      2.28117 g/cm^3

CELL_PARAMETERS (alat= 10.26121286)
  -0.503565148   0.000000000   0.503565148
   0.000000000   0.503565148   0.503565148
  -0.503565148   0.503565148   0.000000000

ATOMIC_POSITIONS (alat)
Si               0.0000000000        0.0000000000        0.0000000000
Si               0.2517825741        0.2517825741        0.2517825741



     Writing config-only to output data dir ./tmp/si-diamond.save/ :
     XML data file
     NEW-OLD atomic charge density approx. for the potential
     New effective cutoffs (rho, wfc):  629.88   59.15
     extrapolated charge    8.00003, renormalised to    8.00000

     total cpu time spent up to now is       25.5 secs

     per-process dynamical memory:    35.1 Mb

     Self-consistent Calculation

     iteration #  1     ecut=    60.00 Ry     beta= 0.70
     Davidson diagonalization with overlap
     ethr =  1.00E-06,  avg # of iterations =  3.4

     Threshold (ethr) on eigenvalues was too large:
     Diagonalizing with lowered threshold

     Davidson diagonalization with overlap
     ethr =  5.53E-08,  avg # of iterations =  2.8

     total cpu time spent up to now is       28.6 secs

     WARNING: integrated charge=     8.00001755, expected=     8.00000000

     total energy              =     -22.84020967 Ry
     estimated scf accuracy    <       0.00000412 Ry

     iteration #  2     ecut=    60.00 Ry     beta= 0.70
     Davidson diagonalization with overlap
     ethr =  5.14E-08,  avg # of iterations =  1.3

     total cpu time spent up to now is       29.9 secs

     WARNING: integrated charge=     8.00002262, expected=     8.00000000

     total energy              =     -22.84021059 Ry
     estimated scf accuracy    <       0.00000008 Ry

     iteration #  3     ecut=    60.00 Ry     beta= 0.70
     Davidson diagonalization with overlap
     ethr =  1.04E-09,  avg # of iterations =  3.0

     total cpu time spent up to now is       31.5 secs

     WARNING: integrated charge=     8.00002411, expected=     8.00000000

     total energy              =     -22.84021063 Ry
     estimated scf accuracy    <          5.6E-09 Ry

     iteration #  4     ecut=    60.00 Ry     beta= 0.70
     Davidson diagonalization with overlap
     ethr =  6.99E-11,  avg # of iterations =  2.6

     total cpu time spent up to now is       33.0 secs

     WARNING: integrated charge=     8.00002419, expected=     8.00000000

     total energy              =     -22.84021060 Ry
     estimated scf accuracy    <          2.2E-10 Ry

     iteration #  5     ecut=    60.00 Ry     beta= 0.70
     Davidson diagonalization with overlap
     ethr =  2.72E-12,  avg # of iterations =  2.8

     total cpu time spent up to now is       34.5 secs

     WARNING: integrated charge=     8.00002415, expected=     8.00000000

     total energy              =     -22.84021060 Ry
     estimated scf accuracy    <          8.9E-12 Ry

     iteration #  6     ecut=    60.00 Ry     beta= 0.70
     Davidson diagonalization with overlap
     ethr =  1.11E-13,  avg # of iterations =  2.5

     total cpu time spent up to now is       36.0 secs

     End of self-consistent calculation

          k = 0.0000 0.0000 0.0000 (  2109 PWs)   bands (ev):

    -5.8337   5.9850   5.9850   5.9850   8.5393   8.5393   8.5393   9.1064

          k =-0.0827 0.0827-0.0827 (  2100 PWs)   bands (ev):

    -5.7444   5.1256   5.8444   5.8444   8.5457   8.7463   8.7463   9.8122

          k =-0.1655 0.1655-0.1655 (  2112 PWs)   bands (ev):

    -5.4792   3.6187   5.5432   5.5432   8.2669   9.1756   9.1756  11.2563

          k =-0.2482 0.2482-0.2482 (  2106 PWs)   bands (ev):

    -5.0491   2.0947   5.2382   5.2382   7.9408   9.4744   9.4744  12.7300

          k =-0.3310 0.3310-0.3310 (  2114 PWs)   bands (ev):

    -4.4841   0.7111   5.0003   5.0003   7.6743   9.4888   9.4888  13.7682

          k =-0.4137 0.4137-0.4137 (  2114 PWs)   bands (ev):

    -3.8790  -0.3961   4.8534   4.8534   7.5057   9.3867   9.3867  13.7683

          k = 0.4965-0.4965 0.4965 (  2120 PWs)   bands (ev):

    -3.5556  -0.8885   4.8040   4.8040   7.4485   9.3358   9.3358  13.6927

          k = 0.0000 0.1655 0.0000 (  2093 PWs)   bands (ev):

    -5.7145   5.2741   5.5657   5.5657   8.2708   9.1053   9.1053   9.7673

          k =-0.0827 0.2482-0.0827 (  2109 PWs)   bands (ev):

    -5.5074   4.0590   5.2089   5.3872   8.2897   9.1422   9.6344  10.7440

          k =-0.1655 0.3310-0.1655 (  2105 PWs)   bands (ev):

    -5.1307   2.5802   4.9004   5.0674   8.3880   9.1491  10.0199  11.3457

          k =-0.2482 0.4137-0.2482 (  2117 PWs)   bands (ev):

    -4.6055   1.1679   4.6927   4.7191   8.2239   9.2635  10.0558  11.9244

          k =-0.3310 0.4965-0.3310 (  2116 PWs)   bands (ev):

    -3.9942  -0.0389   4.4275   4.6029   8.0522   9.2488   9.8739  12.9540

          k = 0.5792-0.4137 0.5792 (  2114 PWs)   bands (ev):

    -3.5179  -0.7900   4.2266   4.6318   7.9683   9.2578   9.6820  13.8560

          k = 0.4965-0.3310 0.4965 (  2115 PWs)   bands (ev):

    -3.6348  -0.6171   4.1345   4.7714   7.9920   9.3740   9.5726  13.9640

          k = 0.4137-0.2482 0.4137 (  2115 PWs)   bands (ev):

    -4.2010   0.3337   4.1637   5.0063   8.1225   9.5348   9.5758  13.3897

          k = 0.3310-0.1655 0.3310 (  2112 PWs)   bands (ev):

    -4.7958   1.6241   4.3238   5.3111   8.3472   9.4428   9.7135  12.4112

          k = 0.2482-0.0827 0.2482 (  2111 PWs)   bands (ev):

    -5.2750   3.0585   4.6265   5.6351   8.6313   9.1386   9.4859  11.5970

          k = 0.1655-0.0000 0.1655 (  2111 PWs)   bands (ev):

    -5.5962   4.3932   5.1426   5.8672   8.7852   8.8448   8.9328  10.6378

          k = 0.0000 0.3310 0.0000 (  2105 PWs)   bands (ev):

    -5.3585   3.9275   4.8181   4.8181   7.6985  10.1927  10.2860  10.2860

          k =-0.0827 0.4137-0.0827 (  2106 PWs)   bands (ev):

    -5.0374   2.8618   4.4703   4.4893   7.7176   9.8294  10.6353  10.8427

          k =-0.1655 0.4965-0.1655 (  2106 PWs)   bands (ev):

    -4.5587   1.5777   4.0218   4.2735   7.9540   9.9896  10.4905  11.0192

          k =-0.2482 0.5792-0.2482 (  2119 PWs)   bands (ev):

    -3.9640   0.3684   3.5887   4.1898   7.9980  10.1756  10.8538  11.0122

          k = 0.6619-0.3310 0.6619 (  2120 PWs)   bands (ev):

    -3.3960  -0.5437   3.2504   4.2414   8.0250  10.0467  10.5914  12.3520

          k = 0.5792-0.2482 0.5792 (  2117 PWs)   bands (ev):

    -3.2855  -0.6986   3.0420   4.4208   8.1599  10.0071  10.3690  13.8827

          k = 0.4965-0.1655 0.4965 (  2122 PWs)   bands (ev):

    -3.7706   0.0411   2.9900   4.7095   8.4099  10.0693  10.1997  13.1792

          k = 0.4137-0.0827 0.4137 (  2118 PWs)   bands (ev):

    -4.3808   1.1629   3.1381   5.0700   8.7234   9.9624  10.1291  12.0286

          k = 0.3310 0.0000 0.3310 (  2109 PWs)   bands (ev):

    -4.9021   2.2839   3.6251   5.4268   8.9598   9.5200   9.7986  11.5664

          k = 0.0000 0.4965 0.0000 (  2085 PWs)   bands (ev):

    -4.7716   2.4624   4.1335   4.1335   7.1365   9.1230  11.6747  11.6747

          k =-0.0827 0.5792-0.0827 (  2112 PWs)   bands (ev):

    -4.3432   1.5682   3.6766   3.8908   7.2198   8.7792  11.9471  12.1562

          k =-0.1655 0.6619-0.1655 (  2119 PWs)   bands (ev):

    -3.7796   0.5606   3.0561   3.7848   7.4397   9.2382  11.8041  12.1290

          k = 0.7447-0.2482 0.7447 (  2123 PWs)   bands (ev):

    -3.1704  -0.3433   2.5190   3.8219   7.5281  10.4205  11.6295  11.8640

          k = 0.6619-0.1655 0.6619 (  2125 PWs)   bands (ev):

    -2.8570  -0.7451   2.1637   3.9979   7.7019  11.3957  11.5718  12.0676

          k = 0.5792-0.0827 0.5792 (  2129 PWs)   bands (ev):

    -3.2227  -0.2648   2.0503   4.2962   8.0151  11.2670  11.3645  13.0648

          k = 0.4965 0.0000 0.4965 (  2119 PWs)   bands (ev):

    -3.8302   0.5409   2.3124   4.6801   8.4226  10.7321  11.0728  12.0228

          k = 0.0000 0.6619 0.0000 (  2108 PWs)   bands (ev):

    -3.9645   0.9901   3.6145   3.6145   6.7440   8.0093  13.1576  13.1576

          k =-0.0827 0.7447-0.0827 (  2116 PWs)   bands (ev):

    -3.4400   0.2173   3.1413   3.4740   6.9061   7.8766  13.4655  13.5325

          k = 0.8274-0.1655 0.8274 (  2126 PWs)   bands (ev):

    -2.8246  -0.5373   2.4322   3.4796   7.0827   8.7097  13.3504  13.3645

          k = 0.7447-0.0827 0.7447 (  2125 PWs)   bands (ev):

    -2.3696  -1.0159   1.8681   3.6301   7.2560  10.1355  13.0158  13.1843

          k = 0.6619 0.0000 0.6619 (  2121 PWs)   bands (ev):

    -2.6378  -0.7333   1.6709   3.9128   7.5741  11.7688  12.3908  12.9550

          k = 0.0000 0.8274 0.0000 (  2112 PWs)   bands (ev):

    -2.9542  -0.4361   3.2947   3.2947   6.5964   7.2031  14.6921  14.6921

          k = 0.9102-0.0827 0.9102 (  2125 PWs)   bands (ev):

    -2.3526  -1.1123   2.8759   3.2614   6.7983   7.3585  14.9397  15.0190

          k = 0.8274 0.0000 0.8274 (  2123 PWs)   bands (ev):

    -1.9103  -1.5069   2.2248   3.3762   6.9562   8.5363  14.3940  14.8705

          k = 0.0000-0.9929 0.0000 (  2100 PWs)   bands (ev):

    -1.7661  -1.7661   3.1869   3.1869   6.7384   6.7384  15.9091  15.9091

          k =-0.1655 0.3310 0.0000 (  2103 PWs)   bands (ev):

    -5.2436   3.2606   4.3877   5.2872   8.3187   9.4481  10.1016  10.8568

          k =-0.2482 0.4137-0.0827 (  2109 PWs)   bands (ev):

    -4.8156   2.0405   3.8604   5.0179   8.5880   9.4316  10.5083  10.8711

          k =-0.3310 0.4965-0.1655 (  2118 PWs)   bands (ev):

    -4.2522   0.7643   3.5898   4.6980   8.6092   9.3538  10.5693  11.5043

          k = 0.5792-0.4137 0.7447 (  2115 PWs)   bands (ev):

    -3.6457  -0.3020   3.4606   4.4576   8.5399   9.1934  10.4946  12.6942

          k = 0.4965-0.3310 0.6619 (  2118 PWs)   bands (ev):

    -3.3179  -0.7869   3.4241   4.3685   8.5123   9.1190  10.4514  13.9756

          k =-0.1655 0.4965 0.0000 (  2111 PWs)   bands (ev):

    -4.6634   2.0729   3.7047   4.3877   7.7831   9.5008  10.7513  11.5581

          k =-0.2482 0.5792-0.0827 (  2111 PWs)   bands (ev):

    -4.1414   1.0422   3.1740   4.1069   8.1128   9.7232  10.4942  11.9430

          k = 0.6619-0.3310 0.8274 (  2117 PWs)   bands (ev):

    -3.5299   0.0118   2.8190   3.9021   8.2342  10.1656  10.7539  11.9287

          k = 0.5792-0.2482 0.7447 (  2123 PWs)   bands (ev):

    -3.0472  -0.6756   2.5763   3.8845   8.3579   9.8942  11.8227  12.2071

          k = 0.4965-0.1655 0.6619 (  2120 PWs)   bands (ev):

    -3.1790  -0.4936   2.4624   4.0527   8.5978   9.7119  11.7333  12.6028

          k = 0.4137-0.0827 0.5792 (  2119 PWs)   bands (ev):

    -3.7541   0.3614   2.5407   4.3620   8.9406   9.5751  11.2277  11.7072

          k = 0.3310 0.0000 0.4965 (  2121 PWs)   bands (ev):

    -4.3439   1.3216   2.9523   4.7346   9.1809   9.2965  10.6424  11.2672

          k =-0.1655 0.6619-0.0000 (  2114 PWs)   bands (ev):

    -3.8682   0.8190   3.2041   3.6228   7.3956   8.4848  11.9724  13.1083

          k = 0.7447-0.2482 0.9102 (  2123 PWs)   bands (ev):

    -3.2751  -0.0016   2.6294   3.4115   7.7295   8.9998  11.6789  13.4729

          k = 0.6619-0.1655 0.8274 (  2126 PWs)   bands (ev):

    -2.7007  -0.6996   2.1198   3.4189   7.8826  10.2771  11.3867  13.4008

          k = 0.5792-0.0827 0.7447 (  2125 PWs)   bands (ev):

    -2.6332  -0.7672   1.8387   3.6127   8.1329  11.0119  11.9853  12.6376

          k = 0.4965 0.0000 0.6619 (  2117 PWs)   bands (ev):

    -3.1577  -0.1888   1.9245   3.9501   8.5132  10.5965  11.4408  12.7625

          k = 0.8274-0.1655 0.9929 (  2125 PWs)   bands (ev):

    -2.8791  -0.4732   2.9257   3.1193   7.2323   7.7483  13.3338  14.6850

          k = 0.7447-0.0827 0.9102 (  2130 PWs)   bands (ev):

    -2.2641  -1.1052   2.3157   3.0759   7.5240   8.6330  13.0218  14.4671

          k = 0.6619 0.0000 0.8274 (  2132 PWs)   bands (ev):

    -2.1174  -1.2134   1.8312   3.2688   7.7566  10.1428  12.5672  12.9577

          k =-0.1655-0.9929 0.0000 (  2126 PWs)   bands (ev):

    -1.7300  -1.7300   2.8915   2.8915   7.3384   7.3384  14.7779  14.7779

          k = 0.6619-0.3310 0.9929 (  2113 PWs)   bands (ev):

    -3.5887   0.3724   2.4915   3.7388   8.8311   9.7087  10.1618  12.9690

          k = 0.5792-0.2482 0.9102 (  2127 PWs)   bands (ev):

    -2.9789  -0.3823   2.1498   3.4108   9.2081   9.7326  10.6975  13.3954

          k = 0.4965-0.1655 0.8274 (  2122 PWs)   bands (ev):

    -2.6286  -0.7996   2.0569   3.2848   9.3540   9.5027  12.0461  12.4232

          k = 0.6619-0.1655 0.9929 (  2128 PWs)   bands (ev):

    -2.6718  -0.6159   2.2984   2.9063   8.6677   9.0774  11.3084  14.1927

          k = 0.5792-0.0827 0.9102 (  2144 PWs)   bands (ev):

    -2.1617  -1.1129   1.9925   2.7553   9.0091  10.2668  11.0309  12.4107

          k = 0.4965 0.0000 0.8274 (  2136 PWs)   bands (ev):

    -2.3890  -0.8860   1.8705   2.9749   9.3075  10.4401  10.9357  12.1619

          k =-0.3310-0.9929 0.0000 (  2138 PWs)   bands (ev):

    -1.6529  -1.6529   2.4215   2.4215   8.7388   8.7388  12.6735  12.6735

          k =-0.4965-0.9929 0.0000 (  2148 PWs)   bands (ev):

    -1.6115  -1.6115   2.2204   2.2204  10.2610  10.2610  10.9146  10.9146

     the Fermi energy is     6.3658 ev

     WARNING: integrated charge=     8.00002415, expected=     8.00000000

!    total energy              =     -22.84021060 Ry
     estimated scf accuracy    <          1.9E-13 Ry
     smearing contrib. (-TS)   =       0.00000019 Ry
     internal energy E=F+TS    =     -22.84021080 Ry

     The total energy is F=E-TS. E is the sum of the following terms:
     one-electron contribution =       5.00431290 Ry
     hartree contribution      =       1.11898289 Ry
     xc contribution           =     -12.28349627 Ry
     ewald contribution        =     -16.68001032 Ry

     convergence has been achieved in   6 iterations

     Forces acting on atoms (cartesian axes, Ry/au):

     atom    1 type  1   force =    -0.00000000   -0.00000000   -0.00000000
     atom    2 type  1   force =     0.00000000    0.00000000    0.00000000

     Total force =     0.000000     Total SCF correction =     0.000000


     Computing stress (Cartesian axis) and pressure

          total   stress  (Ry/bohr**3)                   (kbar)     P=        0.35
   0.00000240   0.00000000   0.00000000            0.35        0.00        0.00
   0.00000000   0.00000240  -0.00000000            0.00        0.35       -0.00
   0.00000000  -0.00000000   0.00000240            0.00       -0.00        0.35

     Energy error            =      1.1E-04 Ry
     Gradient error          =      6.1E-32 Ry/Bohr
     Cell gradient error     =      3.5E-01 kbar

     number of scf cycles    =   3
     number of bfgs steps    =   2

     enthalpy           old  =     -22.8400968165 Ry
     enthalpy           new  =     -22.8402106012 Ry

     CASE: enthalpy          _new < enthalpy          _old

     new trust radius        =       0.0004314572 bohr
ibrav =      2
 celldm(1) =     10.33572048
Input lattice vectors:
    -0.50363055    -0.00000000     0.50363055
     0.00000000     0.50363055     0.50363055
    -0.50363055     0.50363055    -0.00000000
New lattice vectors in INITIAL alat:
    -0.50363055     0.00000000     0.50363055
     0.00000000     0.50363055     0.50363055
    -0.50363055     0.50363055     0.00000000
New lattice vectors in NEW alat (for information only):
    -0.50000000     0.00000000     0.50000000
     0.00000000     0.50000000     0.50000000
    -0.50000000     0.50000000     0.00000000
Discrepancy in bohr =     0.000000    0.000000    0.000000

Atomic positions rescaled with new alat:
Si              -0.0000000000        0.0000000000       -0.0000000000
Si               0.2500000000        0.2500000000        0.2500000000
     new conv_thr            =            1.0E-12 Ry

     new unit-cell volume =    276.03381 a.u.^3 (    40.90399 Ang^3 )
     density =      2.28028 g/cm^3

CELL_PARAMETERS (alat= 10.26121286)
  -0.503630547   0.000000000   0.503630547
   0.000000000   0.503630547   0.503630547
  -0.503630547   0.503630547   0.000000000

ATOMIC_POSITIONS (alat)
Si              -0.0000000000        0.0000000000       -0.0000000000
Si               0.2518152733        0.2518152733        0.2518152733



     Writing config-only to output data dir ./tmp/si-diamond.save/ :
     XML data file
     NEW-OLD atomic charge density approx. for the potential
     New effective cutoffs (rho, wfc):  629.72   59.14
     extrapolated charge    8.00002, renormalised to    8.00000

     total cpu time spent up to now is       38.1 secs

     per-process dynamical memory:    35.1 Mb

     Self-consistent Calculation

     iteration #  1     ecut=    60.00 Ry     beta= 0.70
     Davidson diagonalization with overlap
     ethr =  1.00E-06,  avg # of iterations =  2.0

     Threshold (ethr) on eigenvalues was too large:
     Diagonalizing with lowered threshold

     Davidson diagonalization with overlap
     ethr =  8.13E-11,  avg # of iterations =  3.9

     total cpu time spent up to now is       41.1 secs

     WARNING: integrated charge=     8.00001674, expected=     8.00000000

     total energy              =     -22.84021084 Ry
     estimated scf accuracy    <          4.7E-09 Ry

     iteration #  2     ecut=    60.00 Ry     beta= 0.70
     Davidson diagonalization with overlap
     ethr =  5.87E-11,  avg # of iterations =  1.3

     total cpu time spent up to now is       42.4 secs

     WARNING: integrated charge=     8.00002222, expected=     8.00000000

     total energy              =     -22.84021086 Ry
     estimated scf accuracy    <          9.0E-11 Ry

     iteration #  3     ecut=    60.00 Ry     beta= 0.70
     Davidson diagonalization with overlap
     ethr =  1.12E-12,  avg # of iterations =  2.1

     total cpu time spent up to now is       43.9 secs

     WARNING: integrated charge=     8.00002396, expected=     8.00000000

     total energy              =     -22.84021086 Ry
     estimated scf accuracy    <          6.4E-12 Ry

     iteration #  4     ecut=    60.00 Ry     beta= 0.70
     Davidson diagonalization with overlap
     ethr =  1.00E-13,  avg # of iterations =  2.2

     total cpu time spent up to now is       45.4 secs

     End of self-consistent calculation

          k = 0.0000 0.0000 0.0000 (  2109 PWs)   bands (ev):

    -5.8351   5.9810   5.9810   5.9810   8.5351   8.5351   8.5351   9.0980

          k =-0.0827 0.0827-0.0827 (  2100 PWs)   bands (ev):

    -5.7458   5.1215   5.8404   5.8404   8.5408   8.7420   8.7420   9.8047

          k =-0.1655 0.1655-0.1655 (  2112 PWs)   bands (ev):

    -5.4807   3.6149   5.5393   5.5393   8.2616   9.1712   9.1712  11.2490

          k =-0.2482 0.2482-0.2482 (  2106 PWs)   bands (ev):

    -5.0508   2.0914   5.2345   5.2345   7.9355   9.4701   9.4701  12.7228

          k =-0.3309 0.3309-0.3309 (  2114 PWs)   bands (ev):

    -4.4859   0.7082   4.9966   4.9966   7.6689   9.4847   9.4847  13.7624

          k =-0.4137 0.4137-0.4137 (  2114 PWs)   bands (ev):

    -3.8811  -0.3986   4.8497   4.8497   7.5003   9.3828   9.3828  13.7636

          k = 0.4964-0.4964 0.4964 (  2120 PWs)   bands (ev):

    -3.5579  -0.8907   4.8004   4.8004   7.4431   9.3319   9.3319  13.6881

          k = 0.0000 0.1655 0.0000 (  2093 PWs)   bands (ev):

    -5.7159   5.2698   5.5619   5.5619   8.2667   9.1009   9.1009   9.7593

          k =-0.0827 0.2482-0.0827 (  2109 PWs)   bands (ev):

    -5.5088   4.0550   5.2052   5.3833   8.2856   9.1369   9.6298  10.7374

          k =-0.1655 0.3309-0.1655 (  2105 PWs)   bands (ev):

    -5.1323   2.5766   4.8969   5.0636   8.3833   9.1442  10.0153  11.3409

          k =-0.2482 0.4137-0.2482 (  2117 PWs)   bands (ev):

    -4.6073   1.1648   4.6892   4.7154   8.2188   9.2591  10.0514  11.9197

          k =-0.3309 0.4964-0.3309 (  2116 PWs)   bands (ev):

    -3.9963  -0.0415   4.4239   4.5993   8.0470   9.2448   9.8698  12.9490

          k = 0.5791-0.4137 0.5791 (  2114 PWs)   bands (ev):

    -3.5203  -0.7923   4.2231   4.6282   7.9631   9.2539   9.6780  13.8510

          k = 0.4964-0.3309 0.4964 (  2115 PWs)   bands (ev):

    -3.6371  -0.6195   4.1310   4.7677   7.9868   9.3701   9.5686  13.9589

          k = 0.4137-0.2482 0.4137 (  2115 PWs)   bands (ev):

    -4.2030   0.3309   4.1602   5.0026   8.1172   9.5308   9.5718  13.3841

          k = 0.3309-0.1655 0.3309 (  2112 PWs)   bands (ev):

    -4.7975   1.6209   4.3203   5.3073   8.3418   9.4385   9.7091  12.4054

          k = 0.2482-0.0827 0.2482 (  2111 PWs)   bands (ev):

    -5.2765   3.0548   4.6230   5.6311   8.6259   9.1343   9.4813  11.5906

          k = 0.1655-0.0000 0.1655 (  2111 PWs)   bands (ev):

    -5.5977   4.3891   5.1390   5.8632   8.7810   8.8394   8.9284  10.6307

          k = 0.0000 0.3309 0.0000 (  2105 PWs)   bands (ev):

    -5.3600   3.9232   4.8146   4.8146   7.6947  10.1868  10.2812  10.2812

          k =-0.0827 0.4137-0.0827 (  2106 PWs)   bands (ev):

    -5.0390   2.8578   4.4667   4.4859   7.7137   9.8243  10.6307  10.8377

          k =-0.1655 0.4964-0.1655 (  2106 PWs)   bands (ev):

    -4.5606   1.5743   4.0184   4.2702   7.9500   9.9843  10.4862  11.0144

          k =-0.2482 0.5791-0.2482 (  2119 PWs)   bands (ev):

    -3.9661   0.3654   3.5854   4.1865   7.9940  10.1703  10.8493  11.0077

          k = 0.6619-0.3309 0.6619 (  2120 PWs)   bands (ev):

    -3.3983  -0.5462   3.2472   4.2380   8.0209  10.0417  10.5870  12.3469

          k = 0.5791-0.2482 0.5791 (  2117 PWs)   bands (ev):

    -3.2879  -0.7011   3.0389   4.4174   8.1557  10.0023  10.3648  13.8771

          k = 0.4964-0.1655 0.4964 (  2122 PWs)   bands (ev):

    -3.7728   0.0382   2.9870   4.7059   8.4054  10.0645  10.1954  13.1733

          k = 0.4137-0.0827 0.4137 (  2118 PWs)   bands (ev):

    -4.3827   1.1596   3.1351   5.0663   8.7185   9.9579  10.1245  12.0229

          k = 0.3309 0.0000 0.3309 (  2109 PWs)   bands (ev):

    -4.9038   2.2802   3.6221   5.4230   8.9546   9.5156   9.7939  11.5608

          k = 0.0000 0.4964 0.0000 (  2085 PWs)   bands (ev):

    -4.7733   2.4583   4.1302   4.1302   7.1329   9.1190  11.6694  11.6694

          k =-0.0827 0.5791-0.0827 (  2112 PWs)   bands (ev):

    -4.3451   1.5644   3.6734   3.8876   7.2161   8.7754  11.9415  12.1509

          k =-0.1655 0.6619-0.1655 (  2119 PWs)   bands (ev):

    -3.7817   0.5573   3.0532   3.7816   7.4360   9.2342  11.7984  12.1240

          k = 0.7446-0.2482 0.7446 (  2123 PWs)   bands (ev):

    -3.1728  -0.3463   2.5163   3.8187   7.5245  10.4162  11.6237  11.8592

          k = 0.6619-0.1655 0.6619 (  2125 PWs)   bands (ev):

    -2.8596  -0.7479   2.1611   3.9946   7.6982  11.3908  11.5671  12.0620

          k = 0.5791-0.0827 0.5791 (  2129 PWs)   bands (ev):

    -3.2250  -0.2678   2.0478   4.2928   8.0111  11.2622  11.3593  13.0589

          k = 0.4964 0.0000 0.4964 (  2119 PWs)   bands (ev):

    -3.8323   0.5376   2.3099   4.6766   8.4183  10.7273  11.0679  12.0168

          k = 0.0000 0.6619 0.0000 (  2108 PWs)   bands (ev):

    -3.9665   0.9864   3.6114   3.6114   6.7405   8.0058  13.1519  13.1519

          k =-0.0827 0.7446-0.0827 (  2116 PWs)   bands (ev):

    -3.4422   0.2138   3.1384   3.4709   6.9026   7.8731  13.4595  13.5269

          k = 0.8273-0.1655 0.8273 (  2126 PWs)   bands (ev):

    -2.8270  -0.5405   2.4297   3.4765   7.0792   8.7058  13.3442  13.3591

          k = 0.7446-0.0827 0.7446 (  2125 PWs)   bands (ev):

    -2.3722  -1.0188   1.8658   3.6269   7.2525  10.1311  13.0105  13.1781

          k = 0.6619 0.0000 0.6619 (  2121 PWs)   bands (ev):

    -2.6404  -0.7363   1.6687   3.9095   7.5705  11.7643  12.3854  12.9490

          k = 0.0000 0.8273 0.0000 (  2112 PWs)   bands (ev):

    -2.9565  -0.4394   3.2917   3.2917   6.5930   7.1998  14.6858  14.6858

          k = 0.9101-0.0827 0.9101 (  2125 PWs)   bands (ev):

    -2.3552  -1.1153   2.8732   3.2584   6.7950   7.3550  14.9335  15.0124

          k = 0.8273 0.0000 0.8273 (  2123 PWs)   bands (ev):

    -1.9131  -1.5097   2.2224   3.3731   6.9529   8.5324  14.3878  14.8634

          k = 0.0000-0.9928 0.0000 (  2100 PWs)   bands (ev):

    -1.7689  -1.7689   3.1839   3.1839   6.7351   6.7351  15.9018  15.9018

          k =-0.1655 0.3309 0.0000 (  2103 PWs)   bands (ev):

    -5.2452   3.2566   4.3843   5.2834   8.3146   9.4425  10.0969  10.8519

          k =-0.2482 0.4137-0.0827 (  2109 PWs)   bands (ev):

    -4.8173   2.0370   3.8572   5.0141   8.5836   9.4263  10.5035  10.8668

          k =-0.3309 0.4964-0.1655 (  2118 PWs)   bands (ev):

    -4.2542   0.7613   3.5865   4.6944   8.6045   9.3493  10.5646  11.4997

          k = 0.5791-0.4137 0.7446 (  2115 PWs)   bands (ev):

    -3.6479  -0.3046   3.4573   4.4542   8.5349   9.1895  10.4900  12.6891

          k = 0.4964-0.3309 0.6619 (  2118 PWs)   bands (ev):

    -3.3203  -0.7893   3.4208   4.3651   8.5072   9.1153  10.4469  13.9700

          k =-0.1655 0.4964 0.0000 (  2111 PWs)   bands (ev):

    -4.6651   2.0691   3.7016   4.3842   7.7792   9.4964  10.7464  11.5529

          k =-0.2482 0.5791-0.0827 (  2111 PWs)   bands (ev):

    -4.1433   1.0388   3.1711   4.1036   8.1088   9.7189  10.4892  11.9377

          k = 0.6619-0.3309 0.8273 (  2117 PWs)   bands (ev):

    -3.5321   0.0087   2.8160   3.8989   8.2302  10.1610  10.7491  11.9235

          k = 0.5791-0.2482 0.7446 (  2123 PWs)   bands (ev):

    -3.0496  -0.6783   2.5734   3.8813   8.3539   9.8897  11.8175  12.2020

          k = 0.4964-0.1655 0.6619 (  2120 PWs)   bands (ev):

    -3.1814  -0.4963   2.4597   4.0495   8.5936   9.7075  11.7281  12.5979

          k = 0.4137-0.0827 0.5791 (  2119 PWs)   bands (ev):

    -3.7563   0.3582   2.5379   4.3586   8.9361   9.5708  11.2227  11.7023

          k = 0.3309 0.0000 0.4964 (  2121 PWs)   bands (ev):

    -4.3458   1.3180   2.9496   4.7310   9.1766   9.2915  10.6380  11.2621

          k =-0.1655 0.6619-0.0000 (  2114 PWs)   bands (ev):

    -3.8702   0.8154   3.2012   3.6198   7.3919   8.4811  11.9670  13.1026

          k = 0.7446-0.2482 0.9101 (  2123 PWs)   bands (ev):

    -3.2774  -0.0050   2.6268   3.4085   7.7258   8.9958  11.6735  13.4671

          k = 0.6619-0.1655 0.8273 (  2126 PWs)   bands (ev):

    -2.7032  -0.7026   2.1174   3.4159   7.8788  10.2728  11.3814  13.3949

          k = 0.5791-0.0827 0.7446 (  2125 PWs)   bands (ev):

    -2.6358  -0.7701   1.8364   3.6097   8.1290  11.0072  11.9802  12.6320

          k = 0.4964 0.0000 0.6619 (  2117 PWs)   bands (ev):

    -3.1600  -0.1920   1.9222   3.9469   8.5091  10.5918  11.4358  12.7573

          k = 0.8273-0.1655 0.9928 (  2125 PWs)   bands (ev):

    -2.8815  -0.4764   2.9229   3.1164   7.2287   7.7447  13.3280  14.6787

          k = 0.7446-0.0827 0.9101 (  2130 PWs)   bands (ev):

    -2.2668  -1.1082   2.3133   3.0731   7.5204   8.6291  13.0162  14.4607

          k = 0.6619 0.0000 0.8273 (  2132 PWs)   bands (ev):

    -2.1202  -1.2163   1.8290   3.2659   7.7529  10.1384  12.5617  12.9521

          k =-0.1655-0.9928 0.0000 (  2126 PWs)   bands (ev):

    -1.7328  -1.7328   2.8887   2.8887   7.3349   7.3349  14.7716  14.7716

          k = 0.6619-0.3309 0.9928 (  2113 PWs)   bands (ev):

    -3.5908   0.3690   2.4889   3.7357   8.8270   9.7047  10.1567  12.9635

          k = 0.5791-0.2482 0.9101 (  2127 PWs)   bands (ev):

    -2.9813  -0.3854   2.1473   3.4079   9.2039   9.7282  10.6926  13.3897

          k = 0.4964-0.1655 0.8273 (  2122 PWs)   bands (ev):

    -2.6312  -0.8025   2.0544   3.2820   9.3502   9.4979  12.0412  12.4176

          k = 0.6619-0.1655 0.9928 (  2128 PWs)   bands (ev):

    -2.6743  -0.6191   2.2959   2.9036   8.6636   9.0735  11.3032  14.1867

          k = 0.5791-0.0827 0.9101 (  2144 PWs)   bands (ev):

    -2.1645  -1.1159   1.9902   2.7527   9.0050  10.2626  11.0256  12.4054

          k = 0.4964 0.0000 0.8273 (  2136 PWs)   bands (ev):

    -2.3917  -0.8891   1.8682   2.9722   9.3034  10.4356  10.9307  12.1566

          k =-0.3309-0.9928 0.0000 (  2138 PWs)   bands (ev):

    -1.6558  -1.6558   2.4190   2.4190   8.7348   8.7348  12.6681  12.6681

          k =-0.4964-0.9928 0.0000 (  2148 PWs)   bands (ev):

    -1.6145  -1.6145   2.2180   2.2180  10.2570  10.2570  10.9092  10.9092

     the Fermi energy is     6.3622 ev

     WARNING: integrated charge=     8.00002389, expected=     8.00000000

!    total energy              =     -22.84021086 Ry
     estimated scf accuracy    <          9.3E-14 Ry
     smearing contrib. (-TS)   =       0.00000019 Ry
     internal energy E=F+TS    =     -22.84021105 Ry

     The total energy is F=E-TS. E is the sum of the following terms:
     one-electron contribution =       5.00133114 Ry
     hartree contribution      =       1.11932946 Ry
     xc contribution           =     -12.28302729 Ry
     ewald contribution        =     -16.67784435 Ry

     convergence has been achieved in   4 iterations

     Forces acting on atoms (cartesian axes, Ry/au):

     atom    1 type  1   force =     0.00000000    0.00000000    0.00000000
     atom    2 type  1   force =     0.00000000    0.00000000   -0.00000000

     Total force =     0.000000     Total SCF correction =     0.000000


     Computing stress (Cartesian axis) and pressure

          total   stress  (Ry/bohr**3)                   (kbar)     P=        0.01
   0.00000005   0.00000000   0.00000000            0.01        0.00        0.00
   0.00000000   0.00000005  -0.00000000            0.00        0.01       -0.00
   0.00000000  -0.00000000   0.00000005            0.00       -0.00        0.01

     Energy error            =      2.6E-07 Ry
     Gradient error          =      2.9E-32 Ry/Bohr
     Cell gradient error     =      6.6E-03 kbar
ibrav =      2
 celldm(1) =     10.33572048
Input lattice vectors:
    -0.50363055     0.00000000     0.50363055
     0.00000000     0.50363055     0.50363055
    -0.50363055     0.50363055     0.00000000
New lattice vectors in INITIAL alat:
    -0.50363055     0.00000000     0.50363055
     0.00000000     0.50363055     0.50363055
    -0.50363055     0.50363055     0.00000000
New lattice vectors in NEW alat (for information only):
    -0.50000000     0.00000000     0.50000000
     0.00000000     0.50000000     0.50000000
    -0.50000000     0.50000000     0.00000000
Discrepancy in bohr =     0.000000    0.000000    0.000000

Atomic positions rescaled with new alat:
Si              -0.0000000000        0.0000000000       -0.0000000000
Si               0.2500000000        0.2500000000        0.2500000000

     bfgs converged in   4 scf cycles and   3 bfgs steps
     (criteria: energy <  1.0E-06 Ry, force <  1.0E-04 Ry/Bohr, cell <  1.0E-01 kbar)

     End of BFGS Geometry Optimization

     Final enthalpy           =     -22.8402108575 Ry

     File ./tmp/si-diamond.bfgs deleted, as requested
Begin final coordinates
     new unit-cell volume =    276.03381 a.u.^3 (    40.90399 Ang^3 )
     density =      2.28028 g/cm^3

CELL_PARAMETERS (alat= 10.26121286)
  -0.503630547   0.000000000   0.503630547
   0.000000000   0.503630547   0.503630547
  -0.503630547   0.503630547   0.000000000

ATOMIC_POSITIONS (alat)
Si              -0.0000000000        0.0000000000       -0.0000000000
Si               0.2518152733        0.2518152733        0.2518152733
End final coordinates



     Writing config-only to output data dir ./tmp/si-diamond.save/ :
     XML data file

     Final scf calculation at the relaxed structure.
     The G-vectors are recalculated for the final unit cell
     Results may differ from those at the preceding step.

     Parallelization info
     --------------------
     sticks:   dense  smooth     PW     G-vecs:    dense   smooth      PW
     Min         586     219     66                18825     4315     722
     Max         587     220     67                18830     4316     724
     Sum        2347     877    265                75313    17261    2891

     Using Slab Decomposition



     bravais-lattice index     =            2
     lattice parameter (alat)  =      10.2612  a.u.
     unit-cell volume          =     276.0338 (a.u.)^3
     number of atoms/cell      =            2
     number of atomic types    =            1
     number of electrons       =         8.00
     number of Kohn-Sham states=            8
     kinetic-energy cutoff     =      60.0000  Ry
     charge density cutoff     =     640.0000  Ry
     scf convergence threshold =      1.0E-12
     mixing beta               =       0.7000
     number of iterations used =            8  plain     mixing
     press convergence thresh. =      1.0E-01
     Exchange-correlation= PBE
                           (   1   4   3   4   0   0   0)

     celldm(1)=  10.261213  celldm(2)=   0.000000  celldm(3)=   0.000000
     celldm(4)=   0.000000  celldm(5)=   0.000000  celldm(6)=   0.000000

     crystal axes: (cart. coord. in units of alat)
               a(1) = (  -0.503631   0.000000   0.503631 )  
               a(2) = (   0.000000   0.503631   0.503631 )  
               a(3) = (  -0.503631   0.503631   0.000000 )  

     reciprocal axes: (cart. coord. in units 2 pi/alat)
               b(1) = ( -0.992791 -0.992791  0.992791 )  
               b(2) = (  0.992791  0.992791  0.992791 )  
               b(3) = ( -0.992791  0.992791 -0.992791 )  


     PseudoPot. # 1 for Si read from file:
     ../pseudo/Si.pbe-n-rrkjus_psl.1.0.0.UPF
     MD5 check sum: fa25574f73a70a4139f2adfbefec430c
     Pseudo is Ultrasoft + core correction, Zval =  4.0
     Generated using &quot;atomic&quot; code by A. Dal Corso  v.6.3
     Using radial grid of 1141 points,  6 beta functions with: 
                l(1) =   0
                l(2) =   0
                l(3) =   1
                l(4) =   1
                l(5) =   2
                l(6) =   2
     Q(r) pseudized with 0 coefficients 


     atomic species   valence    mass     pseudopotential
     Si                4.00    28.08500     Si( 1.00)

     48 Sym. Ops., with inversion, found (24 have fractional translation)



   Cartesian axes

     site n.     atom                  positions (alat units)
         1        Si     tau(   1) = (  -0.0000000   0.0000000  -0.0000000  )
         2        Si     tau(   2) = (   0.2518153   0.2518153   0.2518153  )

     number of k points=    72  Marzari-Vanderbilt smearing, width (Ry)=  0.0100
                       cart. coord. in units 2pi/alat
        k(    1) = (   0.0000000   0.0000000   0.0000000), wk =   0.0011574
        k(    2) = (  -0.0827326   0.0827326  -0.0827326), wk =   0.0092593
        k(    3) = (  -0.1654652   0.1654652  -0.1654652), wk =   0.0092593
        k(    4) = (  -0.2481978   0.2481978  -0.2481978), wk =   0.0092593
        k(    5) = (  -0.3309304   0.3309304  -0.3309304), wk =   0.0092593
        k(    6) = (  -0.4136630   0.4136630  -0.4136630), wk =   0.0092593
        k(    7) = (   0.4963956  -0.4963956   0.4963956), wk =   0.0046296
        k(    8) = (   0.0000000   0.1654652   0.0000000), wk =   0.0069444
        k(    9) = (  -0.0827326   0.2481978  -0.0827326), wk =   0.0277778
        k(   10) = (  -0.1654652   0.3309304  -0.1654652), wk =   0.0277778
        k(   11) = (  -0.2481978   0.4136630  -0.2481978), wk =   0.0277778
        k(   12) = (  -0.3309304   0.4963956  -0.3309304), wk =   0.0277778
        k(   13) = (   0.5791282  -0.4136630   0.5791282), wk =   0.0277778
        k(   14) = (   0.4963956  -0.3309304   0.4963956), wk =   0.0277778
        k(   15) = (   0.4136630  -0.2481978   0.4136630), wk =   0.0277778
        k(   16) = (   0.3309304  -0.1654652   0.3309304), wk =   0.0277778
        k(   17) = (   0.2481978  -0.0827326   0.2481978), wk =   0.0277778
        k(   18) = (   0.1654652  -0.0000000   0.1654652), wk =   0.0138889
        k(   19) = (   0.0000000   0.3309304   0.0000000), wk =   0.0069444
        k(   20) = (  -0.0827326   0.4136630  -0.0827326), wk =   0.0277778
        k(   21) = (  -0.1654652   0.4963956  -0.1654652), wk =   0.0277778
        k(   22) = (  -0.2481978   0.5791282  -0.2481978), wk =   0.0277778
        k(   23) = (   0.6618608  -0.3309304   0.6618608), wk =   0.0277778
        k(   24) = (   0.5791282  -0.2481978   0.5791282), wk =   0.0277778
        k(   25) = (   0.4963956  -0.1654652   0.4963956), wk =   0.0277778
        k(   26) = (   0.4136630  -0.0827326   0.4136630), wk =   0.0277778
        k(   27) = (   0.3309304   0.0000000   0.3309304), wk =   0.0138889
        k(   28) = (   0.0000000   0.4963956   0.0000000), wk =   0.0069444
        k(   29) = (  -0.0827326   0.5791282  -0.0827326), wk =   0.0277778
        k(   30) = (  -0.1654652   0.6618608  -0.1654652), wk =   0.0277778
        k(   31) = (   0.7445934  -0.2481978   0.7445934), wk =   0.0277778
        k(   32) = (   0.6618608  -0.1654652   0.6618608), wk =   0.0277778
        k(   33) = (   0.5791282  -0.0827326   0.5791282), wk =   0.0277778
        k(   34) = (   0.4963956   0.0000000   0.4963956), wk =   0.0138889
        k(   35) = (   0.0000000   0.6618608   0.0000000), wk =   0.0069444
        k(   36) = (  -0.0827326   0.7445934  -0.0827326), wk =   0.0277778
        k(   37) = (   0.8273260  -0.1654652   0.8273260), wk =   0.0277778
        k(   38) = (   0.7445934  -0.0827326   0.7445934), wk =   0.0277778
        k(   39) = (   0.6618608   0.0000000   0.6618608), wk =   0.0138889
        k(   40) = (   0.0000000   0.8273260   0.0000000), wk =   0.0069444
        k(   41) = (   0.9100586  -0.0827326   0.9100586), wk =   0.0277778
        k(   42) = (   0.8273260   0.0000000   0.8273260), wk =   0.0138889
        k(   43) = (   0.0000000  -0.9927913   0.0000000), wk =   0.0034722
        k(   44) = (  -0.1654652   0.3309304   0.0000000), wk =   0.0277778
        k(   45) = (  -0.2481978   0.4136630  -0.0827326), wk =   0.0555556
        k(   46) = (  -0.3309304   0.4963956  -0.1654652), wk =   0.0555556
        k(   47) = (   0.5791282  -0.4136630   0.7445934), wk =   0.0555556
        k(   48) = (   0.4963956  -0.3309304   0.6618608), wk =   0.0277778
        k(   49) = (  -0.1654652   0.4963956   0.0000000), wk =   0.0277778
        k(   50) = (  -0.2481978   0.5791282  -0.0827326), wk =   0.0555556
        k(   51) = (   0.6618608  -0.3309304   0.8273260), wk =   0.0555556
        k(   52) = (   0.5791282  -0.2481978   0.7445934), wk =   0.0555556
        k(   53) = (   0.4963956  -0.1654652   0.6618608), wk =   0.0555556
        k(   54) = (   0.4136630  -0.0827326   0.5791282), wk =   0.0555556
        k(   55) = (   0.3309304   0.0000000   0.4963956), wk =   0.0277778
        k(   56) = (  -0.1654652   0.6618608  -0.0000000), wk =   0.0277778
        k(   57) = (   0.7445934  -0.2481978   0.9100586), wk =   0.0555556
        k(   58) = (   0.6618608  -0.1654652   0.8273260), wk =   0.0555556
        k(   59) = (   0.5791282  -0.0827326   0.7445934), wk =   0.0555556
        k(   60) = (   0.4963956   0.0000000   0.6618608), wk =   0.0277778
        k(   61) = (   0.8273260  -0.1654652   0.9927913), wk =   0.0277778
        k(   62) = (   0.7445934  -0.0827326   0.9100586), wk =   0.0555556
        k(   63) = (   0.6618608   0.0000000   0.8273260), wk =   0.0277778
        k(   64) = (  -0.1654652  -0.9927913   0.0000000), wk =   0.0138889
        k(   65) = (   0.6618608  -0.3309304   0.9927913), wk =   0.0277778
        k(   66) = (   0.5791282  -0.2481978   0.9100586), wk =   0.0555556
        k(   67) = (   0.4963956  -0.1654652   0.8273260), wk =   0.0277778
        k(   68) = (   0.6618608  -0.1654652   0.9927913), wk =   0.0277778
        k(   69) = (   0.5791282  -0.0827326   0.9100586), wk =   0.0555556
        k(   70) = (   0.4963956   0.0000000   0.8273260), wk =   0.0277778
        k(   71) = (  -0.3309304  -0.9927913   0.0000000), wk =   0.0138889
        k(   72) = (  -0.4963956  -0.9927913   0.0000000), wk =   0.0069444

     Dense  grid:    75313 G-vectors     FFT dimensions: (  60,  60,  60)

     Smooth grid:    17261 G-vectors     FFT dimensions: (  40,  40,  40)

     Estimated max dynamical RAM per process >      78.50 MB

     Estimated total dynamical RAM >     313.99 MB

     Initial potential from superposition of free atoms

     starting charge       7.9989, renormalised to       8.0000
     Starting wfcs are    8 randomized atomic wfcs

     total cpu time spent up to now is       48.3 secs

     per-process dynamical memory:    33.6 Mb

     Self-consistent Calculation

     iteration #  1     ecut=    60.00 Ry     beta= 0.70
     Davidson diagonalization with overlap
     c_bands:  1 eigenvalues not converged
     c_bands:  1 eigenvalues not converged
     c_bands:  1 eigenvalues not converged
     c_bands:  1 eigenvalues not converged
     c_bands:  1 eigenvalues not converged
     c_bands:  1 eigenvalues not converged
     c_bands:  1 eigenvalues not converged
     c_bands:  2 eigenvalues not converged
     c_bands:  1 eigenvalues not converged
     c_bands:  1 eigenvalues not converged
     c_bands:  1 eigenvalues not converged
     ethr =  1.00E-06,  avg # of iterations = 16.6

     total cpu time spent up to now is       54.5 secs

     total energy              =     -22.83794149 Ry
     estimated scf accuracy    <       0.05475163 Ry

     iteration #  2     ecut=    60.00 Ry     beta= 0.70
     Davidson diagonalization with overlap
     ethr =  6.84E-04,  avg # of iterations =  1.0

     total cpu time spent up to now is       55.9 secs

     WARNING: integrated charge=     8.00001785, expected=     8.00000000

     total energy              =     -22.84010548 Ry
     estimated scf accuracy    <       0.00210744 Ry

     iteration #  3     ecut=    60.00 Ry     beta= 0.70
     Davidson diagonalization with overlap
     ethr =  2.63E-05,  avg # of iterations =  1.3

     total cpu time spent up to now is       57.3 secs

     WARNING: integrated charge=     8.00002596, expected=     8.00000000

     total energy              =     -22.84019839 Ry
     estimated scf accuracy    <       0.00003991 Ry

     iteration #  4     ecut=    60.00 Ry     beta= 0.70
     Davidson diagonalization with overlap
     ethr =  4.99E-07,  avg # of iterations =  2.8

     total cpu time spent up to now is       59.1 secs

     WARNING: integrated charge=     8.00002505, expected=     8.00000000

     total energy              =     -22.84021073 Ry
     estimated scf accuracy    <       0.00000092 Ry

     iteration #  5     ecut=    60.00 Ry     beta= 0.70
     Davidson diagonalization with overlap
     ethr =  1.15E-08,  avg # of iterations =  2.4

     total cpu time spent up to now is       60.7 secs

     WARNING: integrated charge=     8.00002396, expected=     8.00000000

     total energy              =     -22.84021167 Ry
     estimated scf accuracy    <       0.00000005 Ry

     iteration #  6     ecut=    60.00 Ry     beta= 0.70
     Davidson diagonalization with overlap
     ethr =  5.76E-10,  avg # of iterations =  2.8

     total cpu time spent up to now is       62.4 secs

     WARNING: integrated charge=     8.00002385, expected=     8.00000000

     total energy              =     -22.84021166 Ry
     estimated scf accuracy    <          2.5E-10 Ry

     iteration #  7     ecut=    60.00 Ry     beta= 0.70
     Davidson diagonalization with overlap
     ethr =  3.09E-12,  avg # of iterations =  4.0

     total cpu time spent up to now is       64.4 secs

     WARNING: integrated charge=     8.00002389, expected=     8.00000000

     total energy              =     -22.84021166 Ry
     estimated scf accuracy    <          3.2E-11 Ry

     iteration #  8     ecut=    60.00 Ry     beta= 0.70
     Davidson diagonalization with overlap
     ethr =  4.05E-13,  avg # of iterations =  1.4

     total cpu time spent up to now is       65.8 secs

     End of self-consistent calculation

          k = 0.0000 0.0000 0.0000 (  2109 PWs)   bands (ev):

    -5.8351   5.9810   5.9810   5.9810   8.5351   8.5351   8.5351   9.0980

          k =-0.0827 0.0827-0.0827 (  2139 PWs)   bands (ev):

    -5.7458   5.1215   5.8404   5.8404   8.5408   8.7420   8.7420   9.8047

          k =-0.1655 0.1655-0.1655 (  2151 PWs)   bands (ev):

    -5.4807   3.6149   5.5393   5.5393   8.2616   9.1712   9.1712  11.2490

          k =-0.2482 0.2482-0.2482 (  2160 PWs)   bands (ev):

    -5.0508   2.0914   5.2345   5.2345   7.9355   9.4701   9.4701  12.7228

          k =-0.3309 0.3309-0.3309 (  2151 PWs)   bands (ev):

    -4.4859   0.7082   4.9966   4.9966   7.6689   9.4847   9.4847  13.7625

          k =-0.4137 0.4137-0.4137 (  2165 PWs)   bands (ev):

    -3.8811  -0.3986   4.8497   4.8497   7.5003   9.3828   9.3828  13.7636

          k = 0.4964-0.4964 0.4964 (  2138 PWs)   bands (ev):

    -3.5579  -0.8907   4.8004   4.8004   7.4431   9.3319   9.3319  13.6881

          k = 0.0000 0.1655 0.0000 (  2141 PWs)   bands (ev):

    -5.7159   5.2698   5.5619   5.5619   8.2667   9.1009   9.1009   9.7593

          k =-0.0827 0.2482-0.0827 (  2152 PWs)   bands (ev):

    -5.5088   4.0550   5.2052   5.3833   8.2856   9.1369   9.6298  10.7374

          k =-0.1655 0.3309-0.1655 (  2153 PWs)   bands (ev):

    -5.1323   2.5766   4.8969   5.0636   8.3833   9.1442  10.0153  11.3409

          k =-0.2482 0.4137-0.2482 (  2158 PWs)   bands (ev):

    -4.6073   1.1648   4.6892   4.7154   8.2188   9.2591  10.0514  11.9197

          k =-0.3309 0.4964-0.3309 (  2154 PWs)   bands (ev):

    -3.9963  -0.0415   4.4239   4.5993   8.0470   9.2448   9.8698  12.9490

          k = 0.5791-0.4137 0.5791 (  2165 PWs)   bands (ev):

    -3.5202  -0.7923   4.2231   4.6282   7.9631   9.2539   9.6780  13.8510

          k = 0.4964-0.3309 0.4964 (  2161 PWs)   bands (ev):

    -3.6371  -0.6195   4.1310   4.7677   7.9868   9.3701   9.5686  13.9589

          k = 0.4137-0.2482 0.4137 (  2162 PWs)   bands (ev):

    -4.2030   0.3309   4.1602   5.0026   8.1172   9.5308   9.5718  13.3840

          k = 0.3309-0.1655 0.3309 (  2167 PWs)   bands (ev):

    -4.7975   1.6209   4.3203   5.3073   8.3418   9.4385   9.7091  12.4054

          k = 0.2482-0.0827 0.2482 (  2150 PWs)   bands (ev):

    -5.2765   3.0548   4.6230   5.6311   8.6259   9.1343   9.4813  11.5906

          k = 0.1655-0.0000 0.1655 (  2151 PWs)   bands (ev):

    -5.5977   4.3891   5.1390   5.8632   8.7810   8.8394   8.9284  10.6308

          k = 0.0000 0.3309 0.0000 (  2145 PWs)   bands (ev):

    -5.3600   3.9232   4.8146   4.8146   7.6947  10.1868  10.2812  10.2812

          k =-0.0827 0.4137-0.0827 (  2162 PWs)   bands (ev):

    -5.0390   2.8578   4.4667   4.4859   7.7137   9.8243  10.6307  10.8377

          k =-0.1655 0.4964-0.1655 (  2158 PWs)   bands (ev):

    -4.5606   1.5743   4.0184   4.2702   7.9500   9.9843  10.4862  11.0144

          k =-0.2482 0.5791-0.2482 (  2158 PWs)   bands (ev):

    -3.9660   0.3654   3.5854   4.1865   7.9940  10.1703  10.8493  11.0077

          k = 0.6619-0.3309 0.6619 (  2175 PWs)   bands (ev):

    -3.3983  -0.5462   3.2472   4.2380   8.0209  10.0417  10.5870  12.3469

          k = 0.5791-0.2482 0.5791 (  2170 PWs)   bands (ev):

    -3.2879  -0.7011   3.0389   4.4174   8.1557  10.0023  10.3648  13.8771

          k = 0.4964-0.1655 0.4964 (  2160 PWs)   bands (ev):

    -3.7728   0.0382   2.9870   4.7059   8.4054  10.0645  10.1954  13.1732

          k = 0.4137-0.0827 0.4137 (  2161 PWs)   bands (ev):

    -4.3827   1.1596   3.1351   5.0663   8.7185   9.9579  10.1245  12.0229

          k = 0.3309 0.0000 0.3309 (  2149 PWs)   bands (ev):

    -4.9038   2.2802   3.6221   5.4230   8.9546   9.5156   9.7939  11.5608

          k = 0.0000 0.4964 0.0000 (  2181 PWs)   bands (ev):

    -4.7733   2.4583   4.1302   4.1302   7.1329   9.1190  11.6694  11.6694

          k =-0.0827 0.5791-0.0827 (  2161 PWs)   bands (ev):

    -4.3451   1.5644   3.6734   3.8876   7.2161   8.7754  11.9415  12.1510

          k =-0.1655 0.6619-0.1655 (  2154 PWs)   bands (ev):

    -3.7817   0.5573   3.0532   3.7816   7.4360   9.2342  11.7984  12.1240

          k = 0.7446-0.2482 0.7446 (  2166 PWs)   bands (ev):

    -3.1728  -0.3463   2.5163   3.8187   7.5245  10.4162  11.6237  11.8592

          k = 0.6619-0.1655 0.6619 (  2176 PWs)   bands (ev):

    -2.8596  -0.7479   2.1611   3.9946   7.6982  11.3908  11.5671  12.0620

          k = 0.5791-0.0827 0.5791 (  2168 PWs)   bands (ev):

    -3.2250  -0.2677   2.0478   4.2928   8.0111  11.2622  11.3593  13.0589

          k = 0.4964 0.0000 0.4964 (  2151 PWs)   bands (ev):

    -3.8323   0.5376   2.3099   4.6766   8.4183  10.7273  11.0679  12.0168

          k = 0.0000 0.6619 0.0000 (  2181 PWs)   bands (ev):

    -3.9665   0.9864   3.6114   3.6114   6.7405   8.0058  13.1519  13.1519

          k =-0.0827 0.7446-0.0827 (  2156 PWs)   bands (ev):

    -3.4422   0.2138   3.1384   3.4709   6.9026   7.8731  13.4595  13.5269

          k = 0.8273-0.1655 0.8273 (  2161 PWs)   bands (ev):

    -2.8270  -0.5405   2.4297   3.4765   7.0792   8.7058  13.3442  13.3591

          k = 0.7446-0.0827 0.7446 (  2175 PWs)   bands (ev):

    -2.3722  -1.0188   1.8658   3.6269   7.2525  10.1311  13.0105  13.1781

          k = 0.6619 0.0000 0.6619 (  2185 PWs)   bands (ev):

    -2.6404  -0.7363   1.6687   3.9095   7.5705  11.7643  12.3854  12.9490

          k = 0.0000 0.8273 0.0000 (  2160 PWs)   bands (ev):

    -2.9565  -0.4394   3.2917   3.2917   6.5930   7.1998  14.6858  14.6858

          k = 0.9101-0.0827 0.9101 (  2173 PWs)   bands (ev):

    -2.3552  -1.1153   2.8732   3.2584   6.7950   7.3550  14.9335  15.0124

          k = 0.8273 0.0000 0.8273 (  2173 PWs)   bands (ev):

    -1.9131  -1.5097   2.2224   3.3731   6.9529   8.5324  14.3878  14.8633

          k = 0.0000-0.9928 0.0000 (  2200 PWs)   bands (ev):

    -1.7689  -1.7689   3.1839   3.1839   6.7351   6.7351  15.9018  15.9018

          k =-0.1655 0.3309 0.0000 (  2162 PWs)   bands (ev):

    -5.2452   3.2566   4.3843   5.2834   8.3146   9.4425  10.0969  10.8519

          k =-0.2482 0.4137-0.0827 (  2158 PWs)   bands (ev):

    -4.8173   2.0370   3.8572   5.0141   8.5836   9.4263  10.5035  10.8668

          k =-0.3309 0.4964-0.1655 (  2159 PWs)   bands (ev):

    -4.2542   0.7613   3.5865   4.6944   8.6045   9.3493  10.5646  11.4997

          k = 0.5791-0.4137 0.7446 (  2160 PWs)   bands (ev):

    -3.6479  -0.3046   3.4573   4.4542   8.5349   9.1895  10.4900  12.6891

          k = 0.4964-0.3309 0.6619 (  2168 PWs)   bands (ev):

    -3.3203  -0.7893   3.4208   4.3651   8.5072   9.1153  10.4469  13.9699

          k =-0.1655 0.4964 0.0000 (  2160 PWs)   bands (ev):

    -4.6651   2.0691   3.7016   4.3842   7.7792   9.4964  10.7464  11.5529

          k =-0.2482 0.5791-0.0827 (  2160 PWs)   bands (ev):

    -4.1433   1.0388   3.1711   4.1036   8.1088   9.7189  10.4892  11.9377

          k = 0.6619-0.3309 0.8273 (  2171 PWs)   bands (ev):

    -3.5321   0.0087   2.8160   3.8989   8.2302  10.1610  10.7491  11.9236

          k = 0.5791-0.2482 0.7446 (  2177 PWs)   bands (ev):

    -3.0496  -0.6783   2.5734   3.8813   8.3539   9.8897  11.8175  12.2020

          k = 0.4964-0.1655 0.6619 (  2174 PWs)   bands (ev):

    -3.1814  -0.4963   2.4597   4.0495   8.5936   9.7075  11.7281  12.5979

          k = 0.4137-0.0827 0.5791 (  2171 PWs)   bands (ev):

    -3.7563   0.3582   2.5379   4.3586   8.9361   9.5708  11.2227  11.7023

          k = 0.3309 0.0000 0.4964 (  2156 PWs)   bands (ev):

    -4.3458   1.3180   2.9496   4.7310   9.1766   9.2915  10.6380  11.2621

          k =-0.1655 0.6619-0.0000 (  2158 PWs)   bands (ev):

    -3.8702   0.8154   3.2012   3.6198   7.3919   8.4811  11.9670  13.1026

          k = 0.7446-0.2482 0.9101 (  2171 PWs)   bands (ev):

    -3.2774  -0.0050   2.6268   3.4085   7.7258   8.9958  11.6735  13.4671

          k = 0.6619-0.1655 0.8273 (  2173 PWs)   bands (ev):

    -2.7032  -0.7026   2.1174   3.4159   7.8788  10.2728  11.3814  13.3949

          k = 0.5791-0.0827 0.7446 (  2175 PWs)   bands (ev):

    -2.6358  -0.7701   1.8364   3.6097   8.1290  11.0072  11.9802  12.6320

          k = 0.4964 0.0000 0.6619 (  2171 PWs)   bands (ev):

    -3.1600  -0.1920   1.9222   3.9469   8.5091  10.5918  11.4358  12.7573

          k = 0.8273-0.1655 0.9928 (  2165 PWs)   bands (ev):

    -2.8815  -0.4764   2.9229   3.1164   7.2287   7.7447  13.3280  14.6788

          k = 0.7446-0.0827 0.9101 (  2173 PWs)   bands (ev):

    -2.2668  -1.1082   2.3133   3.0731   7.5204   8.6291  13.0162  14.4607

          k = 0.6619 0.0000 0.8273 (  2172 PWs)   bands (ev):

    -2.1202  -1.2163   1.8290   3.2659   7.7529  10.1384  12.5617  12.9521

          k =-0.1655-0.9928 0.0000 (  2162 PWs)   bands (ev):

    -1.7328  -1.7328   2.8887   2.8887   7.3349   7.3349  14.7716  14.7716

          k = 0.6619-0.3309 0.9928 (  2166 PWs)   bands (ev):

    -3.5908   0.3690   2.4889   3.7357   8.8270   9.7047  10.1567  12.9635

          k = 0.5791-0.2482 0.9101 (  2178 PWs)   bands (ev):

    -2.9813  -0.3854   2.1473   3.4079   9.2039   9.7282  10.6926  13.3896

          k = 0.4964-0.1655 0.8273 (  2194 PWs)   bands (ev):

    -2.6312  -0.8025   2.0544   3.2820   9.3502   9.4979  12.0412  12.4176

          k = 0.6619-0.1655 0.9928 (  2178 PWs)   bands (ev):

    -2.6743  -0.6191   2.2959   2.9036   8.6636   9.0735  11.3032  14.1869

          k = 0.5791-0.0827 0.9101 (  2181 PWs)   bands (ev):

    -2.1645  -1.1159   1.9902   2.7527   9.0050  10.2626  11.0256  12.4054

          k = 0.4964 0.0000 0.8273 (  2185 PWs)   bands (ev):

    -2.3917  -0.8891   1.8682   2.9722   9.3034  10.4356  10.9307  12.1566

          k =-0.3309-0.9928 0.0000 (  2174 PWs)   bands (ev):

    -1.6558  -1.6558   2.4190   2.4190   8.7348   8.7348  12.6681  12.6681

          k =-0.4964-0.9928 0.0000 (  2180 PWs)   bands (ev):

    -1.6145  -1.6145   2.2180   2.2180  10.2570  10.2570  10.9092  10.9092

     the Fermi energy is     6.3622 ev

     WARNING: integrated charge=     8.00002389, expected=     8.00000000

!    total energy              =     -22.84021166 Ry
     estimated scf accuracy    <          5.9E-13 Ry
     smearing contrib. (-TS)   =       0.00000019 Ry
     internal energy E=F+TS    =     -22.84021185 Ry

     The total energy is F=E-TS. E is the sum of the following terms:
     one-electron contribution =       5.00133060 Ry
     hartree contribution      =       1.11932877 Ry
     xc contribution           =     -12.28302686 Ry
     ewald contribution        =     -16.67784435 Ry

     convergence has been achieved in   8 iterations

     Forces acting on atoms (cartesian axes, Ry/au):

     atom    1 type  1   force =     0.00000000    0.00000000    0.00000000
     atom    2 type  1   force =     0.00000000    0.00000000    0.00000000

     Total force =     0.000000     Total SCF correction =     0.000000


     Computing stress (Cartesian axis) and pressure

          total   stress  (Ry/bohr**3)                   (kbar)     P=        0.01
   0.00000005  -0.00000000  -0.00000000            0.01       -0.00       -0.00
  -0.00000000   0.00000005   0.00000000           -0.00        0.01        0.00
  -0.00000000   0.00000000   0.00000005           -0.00        0.00        0.01


     Writing all to output data dir ./tmp/si-diamond.save/ :
     XML data file, charge density, pseudopotentials, collected wavefunctions

     init_run     :      2.23s CPU      2.32s WALL (       2 calls)
     electrons    :     51.46s CPU     55.11s WALL (       5 calls)
     update_pot   :      0.11s CPU      0.12s WALL (       3 calls)
     forces       :      1.68s CPU      1.82s WALL (       5 calls)
     stress       :      7.62s CPU      7.99s WALL (       5 calls)

     Called by init_run:
     wfcinit      :      0.81s CPU      0.84s WALL (       2 calls)
     potinit      :      0.34s CPU      0.35s WALL (       2 calls)
     hinit0       :      0.44s CPU      0.44s WALL (       2 calls)

     Called by electrons:
     c_bands      :     40.16s CPU     41.84s WALL (      33 calls)
     sum_band     :      8.17s CPU      9.31s WALL (      33 calls)
     v_of_rho     :      0.97s CPU      1.11s WALL (      34 calls)
     newd         :      2.50s CPU      3.27s WALL (      34 calls)
     mix_rho      :      0.08s CPU      0.08s WALL (      33 calls)

     Called by c_bands:
     init_us_2    :      1.21s CPU      1.24s WALL (    5616 calls)
     cegterg      :     37.60s CPU     39.24s WALL (    2376 calls)

     Called by *egterg:
     cdiaghg      :      0.96s CPU      0.98s WALL (    9082 calls)
     h_psi        :     26.97s CPU     28.50s WALL (    9730 calls)
     s_psi        :      3.58s CPU      3.64s WALL (    9730 calls)
     g_psi        :      0.12s CPU      0.12s WALL (    7210 calls)

     Called by h_psi:
     h_psi:calbec :      3.65s CPU      3.88s WALL (    9730 calls)
     vloc_psi     :     19.85s CPU     21.04s WALL (    9730 calls)
                                        0.00s GPU  (    9730 calls)
     add_vuspsi   :      3.35s CPU      3.46s WALL (    9730 calls)

     General routines
     calbec       :      8.19s CPU      8.53s WALL (   18226 calls)
     fft          :      0.81s CPU      0.91s WALL (     564 calls)
     ffts         :      0.27s CPU      0.27s WALL (      67 calls)
     fftw         :     20.66s CPU     21.91s WALL (  129430 calls)
     interpolate  :      0.31s CPU      0.32s WALL (      34 calls)

     Parallel routines

     PWSCF        :   1m 3.52s CPU   1m 7.88s WALL


   This run was terminated on:  22:34:55  22Sep2026            

=------------------------------------------------------------------------------=
   JOB DONE.
=------------------------------------------------------------------------------=
